<?xml version="1.0"?>
<VTKFile type="UnstructuredGrid" version="0.1">
<UnstructuredGrid>
<Piece NumberOfPoints="     12221" NumberOfCells="     10000">
<Points>
<DataArray type="Float64"                                    Name="nodes"                                                      NumberOfComponents=" 3" format="ascii">
0.00000e+00 0.00000e+00 0.00000e+00 1.05441e-01 7.30410e-03 5.99050e-03 2.11811e-01 8.09610e-03 7.04350e-03 3.16550e-01 1.01190e-02 1.11130e-02 4.22317e-01 1.04580e-02 1.52790e-02 5.27398e-01 1.11210e-02 2.13890e-02 6.32796e-01 1.11980e-02 2.84300e-02 7.37782e-01 1.13540e-02 3.69400e-02 8.42791e-01 1.12790e-02 4.65470e-02 9.47480e-01 1.12270e-02 5.74150e-02 1.05205e+00 1.10750e-02 6.93840e-02 1.15633e+00 1.09330e-02 8.24990e-02 1.26043e+00 1.07460e-02 9.66770e-02 1.36424e+00 1.05640e-02 1.11920e-01 1.46782e+00 1.03620e-02 1.28180e-01 1.57112e+00 1.01630e-02 1.45430e-01 1.67416e+00 9.95480e-03 1.63650e-01 1.77692e+00 9.74970e-03 1.82800e-01 1.87940e+00 9.54000e-03 2.02870e-01 1.98160e+00 9.33310e-03 2.23820e-01 2.08353e+00 9.12420e-03 2.45640e-01 2.18516e+00 8.91770e-03 2.68280e-01 2.28651e+00 8.71080e-03 2.91740e-01 2.38758e+00 8.50600e-03 3.15990e-01 2.48835e+00 8.30160e-03 3.40990e-01 2.58885e+00 8.09930e-03 3.66740e-01 2.68905e+00 7.89790e-03 3.93210e-01 2.78897e+00 7.69840e-03 4.20370e-01 2.88861e+00 7.50020e-03 4.48210e-01 2.98797e+00 7.30390e-03 4.76700e-01 3.08705e+00 7.10910e-03 5.05820e-01 3.18586e+00 6.91630e-03 5.35550e-01 3.28439e+00 6.72510e-03 5.65870e-01 3.38265e+00 6.53590e-03 5.96770e-01 3.48065e+00 6.34860e-03 6.28210e-01 3.57839e+00 6.16320e-03 6.60190e-01 3.67586e+00 5.97980e-03 6.92680e-01 3.77309e+00 5.79850e-03 7.25670e-01 3.87006e+00 5.61930e-03 7.59140e-01 3.96678e+00 5.44220e-03 7.93070e-01 4.06327e+00 5.26720e-03 8.27450e-01 4.15951e+00 5.09450e-03 8.62250e-01 4.25553e+00 4.92410e-03 8.97460e-01 4.35132e+00 4.75590e-03 9.33070e-01 4.44689e+00 4.59010e-03 9.69060e-01 4.54224e+00 4.42660e-03 1.00540e+00 4.63738e+00 4.26550e-03 1.04210e+00 4.73231e+00 4.10690e-03 1.07910e+00 4.82705e+00 3.95070e-03 1.11650e+00 4.92158e+00 3.79700e-03 1.15420e+00 5.01593e+00 3.64590e-03 1.19210e+00 5.11009e+00 3.49730e-03 1.23040e+00 5.20408e+00 3.35130e-03 1.26890e+00 5.29789e+00 3.20790e-03 1.30770e+00 5.39153e+00 3.06710e-03 1.34670e+00 5.48501e+00 2.92910e-03 1.38590e+00 5.57833e+00 2.79370e-03 1.42540e+00 5.67150e+00 2.66100e-03 1.46500e+00 5.76452e+00 2.53110e-03 1.50490e+00 5.85740e+00 2.40400e-03 1.54500e+00 5.95015e+00 2.27960e-03 1.58520e+00 6.04276e+00 2.15810e-03 1.62560e+00 6.13525e+00 2.03940e-03 1.66620e+00 6.22762e+00 1.92350e-03 1.70690e+00 6.31988e+00 1.81050e-03 1.74770e+00 6.41202e+00 1.70040e-03 1.78870e+00 6.50406e+00 1.59330e-03 1.82980e+00 6.59599e+00 1.48900e-03 1.87100e+00 6.68783e+00 1.38770e-03 1.91240e+00 6.77958e+00 1.28930e-03 1.95380e+00 6.87125e+00 1.19390e-03 1.99530e+00 6.96283e+00 1.10160e-03 2.03690e+00 7.05433e+00 1.01220e-03 2.07860e+00 7.14576e+00 9.25800e-04 2.12030e+00 7.23712e+00 8.42460e-04 2.16210e+00 7.32841e+00 7.62160e-04 2.20400e+00 7.41965e+00 6.84920e-04 2.24590e+00 7.51083e+00 6.10750e-04 2.28790e+00 7.60195e+00 5.39660e-04 2.32990e+00 7.69302e+00 4.71650e-04 2.37200e+00 7.78405e+00 4.06740e-04 2.41410e+00 7.87504e+00 3.44950e-04 2.45620e+00 7.96599e+00 2.86270e-04 2.49830e+00 8.05690e+00 2.30720e-04 2.54050e+00 8.14778e+00 1.78320e-04 2.58270e+00 8.23862e+00 1.29070e-04 2.62490e+00 8.32945e+00 8.29760e-05 2.66710e+00 8.42025e+00 4.00660e-05 2.70930e+00 8.51102e+00 3.49880e-07 2.75150e+00 8.60178e+00 -3.61540e-05 2.79370e+00 8.69253e+00 -6.94260e-05 2.83590e+00 8.78326e+00 -9.94470e-05 2.87810e+00 8.87398e+00 -1.26200e-04 2.92030e+00 8.96469e+00 -1.49670e-04 2.96250e+00 9.05539e+00 -1.69880e-04 3.00470e+00 9.14609e+00 -1.86870e-04 3.04690e+00 9.23678e+00 -2.00800e-04 3.08900e+00 9.32748e+00 -2.11970e-04 3.13120e+00 9.41817e+00 -2.20960e-04 3.17340e+00 9.50887e+00 -2.28690e-04 3.21550e+00 9.59956e+00 -2.35970e-04 3.25770e+00 0.00000e+00 1.00000e-01 0.00000e+00 1.04143e-01 1.04080e-01 7.49050e-03 2.10640e-01 1.06592e-01 8.52870e-03 3.15931e-01 1.07605e-01 1.27720e-02 4.21746e-01 1.08469e-01 1.72420e-02 5.27074e-01 1.08779e-01 2.33850e-02 6.32479e-01 1.09050e-01 3.05580e-02 7.37572e-01 1.09091e-01 3.90640e-02 8.42573e-01 1.09111e-01 4.87080e-02 9.47301e-01 1.09033e-01 5.95520e-02 1.05186e+00 1.08945e-01 7.15130e-02 1.15615e+00 1.08814e-01 8.45930e-02 1.26023e+00 1.08678e-01 9.87410e-02 1.36404e+00 1.08523e-01 1.13940e-01 1.46761e+00 1.08368e-01 1.30160e-01 1.57090e+00 1.08204e-01 1.47370e-01 1.67394e+00 1.08040e-01 1.65540e-01 1.77669e+00 1.07872e-01 1.84660e-01 1.87917e+00 1.07706e-01 2.04680e-01 1.98136e+00 1.07538e-01 2.25590e-01 2.08328e+00 1.07371e-01 2.47350e-01 2.18491e+00 1.07204e-01 2.69960e-01 2.28626e+00 1.07038e-01 2.93370e-01 2.38732e+00 1.06873e-01 3.17570e-01 2.48809e+00 1.06709e-01 3.42540e-01 2.58858e+00 1.06546e-01 3.68250e-01 2.68879e+00 1.06384e-01 3.94670e-01 2.78871e+00 1.06223e-01 4.21790e-01 2.88835e+00 1.06063e-01 4.49590e-01 2.98771e+00 1.05905e-01 4.78040e-01 3.08679e+00 1.05748e-01 5.07120e-01 3.18560e+00 1.05593e-01 5.36810e-01 3.28413e+00 1.05439e-01 5.67100e-01 3.38240e+00 1.05286e-01 5.97950e-01 3.48040e+00 1.05135e-01 6.29360e-01 3.57814e+00 1.04985e-01 6.61310e-01 3.67562e+00 1.04837e-01 6.93760e-01 3.77285e+00 1.04691e-01 7.26720e-01 3.86982e+00 1.04547e-01 7.60150e-01 3.96656e+00 1.04404e-01 7.94050e-01 4.06304e+00 1.04262e-01 8.28390e-01 4.15930e+00 1.04123e-01 8.63160e-01 4.25532e+00 1.03985e-01 8.98340e-01 4.35112e+00 1.03850e-01 9.33920e-01 4.44669e+00 1.03716e-01 9.69880e-01 4.54205e+00 1.03583e-01 1.00620e+00 4.63719e+00 1.03453e-01 1.04290e+00 4.73213e+00 1.03325e-01 1.07990e+00 4.82687e+00 1.03199e-01 1.11720e+00 4.92142e+00 1.03075e-01 1.15490e+00 5.01577e+00 1.02953e-01 1.19280e+00 5.10994e+00 1.02832e-01 1.23100e+00 5.20393e+00 1.02714e-01 1.26950e+00 5.29775e+00 1.02598e-01 1.30820e+00 5.39140e+00 1.02485e-01 1.34720e+00 5.48488e+00 1.02373e-01 1.38640e+00 5.57821e+00 1.02263e-01 1.42590e+00 5.67139e+00 1.02156e-01 1.46550e+00 5.76442e+00 1.02051e-01 1.50540e+00 5.85731e+00 1.01948e-01 1.54540e+00 5.95006e+00 1.01847e-01 1.58560e+00 6.04268e+00 1.01749e-01 1.62600e+00 6.13517e+00 1.01653e-01 1.66650e+00 6.22755e+00 1.01559e-01 1.70720e+00 6.31981e+00 1.01468e-01 1.74810e+00 6.41196e+00 1.01379e-01 1.78900e+00 6.50400e+00 1.01292e-01 1.83010e+00 6.59594e+00 1.01207e-01 1.87130e+00 6.68779e+00 1.01125e-01 1.91260e+00 6.77954e+00 1.01046e-01 1.95400e+00 6.87121e+00 1.00968e-01 1.99550e+00 6.96279e+00 1.00894e-01 2.03710e+00 7.05430e+00 1.00821e-01 2.07880e+00 7.14574e+00 1.00751e-01 2.12050e+00 7.23710e+00 1.00684e-01 2.16230e+00 7.32840e+00 1.00619e-01 2.20420e+00 7.41964e+00 1.00556e-01 2.24610e+00 7.51082e+00 1.00496e-01 2.28810e+00 7.60194e+00 1.00438e-01 2.33010e+00 7.69302e+00 1.00383e-01 2.37210e+00 7.78405e+00 1.00331e-01 2.41420e+00 7.87504e+00 1.00281e-01 2.45630e+00 7.96599e+00 1.00233e-01 2.49840e+00 8.05690e+00 1.00188e-01 2.54060e+00 8.14779e+00 1.00146e-01 2.58270e+00 8.23864e+00 1.00106e-01 2.62490e+00 8.32946e+00 1.00068e-01 2.66710e+00 8.42026e+00 1.00034e-01 2.70930e+00 8.51104e+00 1.00001e-01 2.75150e+00 8.60180e+00 9.99719e-02 2.79370e+00 8.69254e+00 9.99449e-02 2.83590e+00 8.78327e+00 9.99207e-02 2.87810e+00 8.87399e+00 9.98991e-02 2.92030e+00 8.96470e+00 9.98802e-02 2.96250e+00 9.05541e+00 9.98639e-02 3.00470e+00 9.14610e+00 9.98503e-02 3.04690e+00 9.23680e+00 9.98391e-02 3.08900e+00 9.32749e+00 9.98301e-02 3.13120e+00 9.41818e+00 9.98226e-02 3.17340e+00 9.50888e+00 9.98160e-02 3.21550e+00 9.59958e+00 9.98096e-02 3.25760e+00 0.00000e+00 2.00000e-01 0.00000e+00 1.04266e-01 2.02645e-01 8.99730e-03 2.10223e-01 2.04347e-01 1.02520e-02 3.15520e-01 2.05508e-01 1.43550e-02 4.21389e-01 2.06086e-01 1.89020e-02 5.26763e-01 2.06509e-01 2.50730e-02 6.32223e-01 2.06670e-01 3.22880e-02 7.37329e-01 2.06785e-01 4.08150e-02 8.42359e-01 2.06781e-01 5.04640e-02 9.47085e-01 2.06759e-01 6.13060e-02 1.05166e+00 2.06684e-01 7.32510e-02 1.15594e+00 2.06602e-01 8.63110e-02 1.26002e+00 2.06496e-01 1.00430e-01 1.36382e+00 2.06389e-01 1.15600e-01 1.46738e+00 2.06270e-01 1.31790e-01 1.57067e+00 2.06152e-01 1.48970e-01 1.67370e+00 2.06028e-01 1.67100e-01 1.77644e+00 2.05905e-01 1.86180e-01 1.87892e+00 2.05780e-01 2.06160e-01 1.98110e+00 2.05656e-01 2.27040e-01 2.08302e+00 2.05531e-01 2.48770e-01 2.18465e+00 2.05407e-01 2.71330e-01 2.28599e+00 2.05283e-01 2.94710e-01 2.38705e+00 2.05160e-01 3.18880e-01 2.48782e+00 2.05037e-01 3.43810e-01 2.58831e+00 2.04915e-01 3.69480e-01 2.68852e+00 2.04794e-01 3.95870e-01 2.78844e+00 2.04674e-01 4.22960e-01 2.88808e+00 2.04555e-01 4.50720e-01 2.98744e+00 2.04436e-01 4.79140e-01 3.08652e+00 2.04319e-01 5.08190e-01 3.18533e+00 2.04203e-01 5.37850e-01 3.28387e+00 2.04087e-01 5.68100e-01 3.38214e+00 2.03973e-01 5.98930e-01 3.48014e+00 2.03860e-01 6.30310e-01 3.57789e+00 2.03748e-01 6.62220e-01 3.67537e+00 2.03637e-01 6.94650e-01 3.77260e+00 2.03528e-01 7.27580e-01 3.86958e+00 2.03419e-01 7.60980e-01 3.96632e+00 2.03312e-01 7.94850e-01 4.06281e+00 2.03206e-01 8.29170e-01 4.15907e+00 2.03102e-01 8.63910e-01 4.25510e+00 2.02998e-01 8.99060e-01 4.35090e+00 2.02897e-01 9.34620e-01 4.44648e+00 2.02796e-01 9.70550e-01 4.54185e+00 2.02697e-01 1.00680e+00 4.63700e+00 2.02599e-01 1.04350e+00 4.73195e+00 2.02503e-01 1.08050e+00 4.82669e+00 2.02408e-01 1.11780e+00 4.92124e+00 2.02315e-01 1.15540e+00 5.01560e+00 2.02223e-01 1.19330e+00 5.10978e+00 2.02133e-01 1.23150e+00 5.20377e+00 2.02044e-01 1.27000e+00 5.29760e+00 2.01957e-01 1.30870e+00 5.39125e+00 2.01871e-01 1.34770e+00 5.48475e+00 2.01788e-01 1.38690e+00 5.57808e+00 2.01705e-01 1.42630e+00 5.67126e+00 2.01625e-01 1.46590e+00 5.76430e+00 2.01545e-01 1.50570e+00 5.85719e+00 2.01468e-01 1.54580e+00 5.94995e+00 2.01392e-01 1.58600e+00 6.04258e+00 2.01318e-01 1.62630e+00 6.13508e+00 2.01246e-01 1.66680e+00 6.22746e+00 2.01176e-01 1.70750e+00 6.31972e+00 2.01107e-01 1.74830e+00 6.41188e+00 2.01040e-01 1.78930e+00 6.50392e+00 2.00974e-01 1.83040e+00 6.59587e+00 2.00911e-01 1.87150e+00 6.68772e+00 2.00849e-01 1.91280e+00 6.77948e+00 2.00789e-01 1.95420e+00 6.87116e+00 2.00731e-01 1.99570e+00 6.96275e+00 2.00674e-01 2.03730e+00 7.05426e+00 2.00620e-01 2.07890e+00 7.14570e+00 2.00567e-01 2.12070e+00 7.23706e+00 2.00516e-01 2.16250e+00 7.32837e+00 2.00467e-01 2.20430e+00 7.41961e+00 2.00420e-01 2.24620e+00 7.51079e+00 2.00375e-01 2.28820e+00 7.60192e+00 2.00331e-01 2.33020e+00 7.69300e+00 2.00290e-01 2.37220e+00 7.78404e+00 2.00250e-01 2.41430e+00 7.87503e+00 2.00213e-01 2.45640e+00 7.96598e+00 2.00177e-01 2.49850e+00 8.05690e+00 2.00143e-01 2.54060e+00 8.14778e+00 2.00111e-01 2.58280e+00 8.23863e+00 2.00081e-01 2.62500e+00 8.32946e+00 2.00053e-01 2.66710e+00 8.42026e+00 2.00026e-01 2.70930e+00 8.51104e+00 2.00002e-01 2.75150e+00 8.60180e+00 1.99980e-01 2.79370e+00 8.69255e+00 1.99960e-01 2.83590e+00 8.78328e+00 1.99941e-01 2.87810e+00 8.87400e+00 1.99925e-01 2.92030e+00 8.96471e+00 1.99911e-01 2.96250e+00 9.05542e+00 1.99899e-01 3.00470e+00 9.14611e+00 1.99889e-01 3.04690e+00 9.23681e+00 1.99880e-01 3.08900e+00 9.32750e+00 1.99873e-01 3.13120e+00 9.41819e+00 1.99867e-01 3.17330e+00 9.50889e+00 1.99862e-01 3.21550e+00 9.59959e+00 1.99857e-01 3.25760e+00 0.00000e+00 3.00000e-01 0.00000e+00 1.04233e-01 3.01584e-01 9.65880e-03 2.10279e-01 3.02702e-01 1.12480e-02 3.15299e-01 3.03454e-01 1.55120e-02 4.21218e-01 3.03960e-01 2.00100e-02 5.26539e-01 3.04221e-01 2.62450e-02 6.32047e-01 3.04401e-01 3.34550e-02 7.37141e-01 3.04459e-01 4.20170e-02 8.42195e-01 3.04493e-01 5.16660e-02 9.46915e-01 3.04468e-01 6.25170e-02 1.05149e+00 3.04436e-01 7.44530e-02 1.15577e+00 3.04377e-01 8.75060e-02 1.25985e+00 3.04315e-01 1.01610e-01 1.36364e+00 3.04241e-01 1.16770e-01 1.46721e+00 3.04167e-01 1.32930e-01 1.57048e+00 3.04087e-01 1.50080e-01 1.67351e+00 3.04007e-01 1.68200e-01 1.77625e+00 3.03925e-01 1.87250e-01 1.87872e+00 3.03844e-01 2.07210e-01 1.98091e+00 3.03761e-01 2.28060e-01 2.08282e+00 3.03679e-01 2.49760e-01 2.18444e+00 3.03597e-01 2.72300e-01 2.28578e+00 3.03515e-01 2.95660e-01 2.38684e+00 3.03433e-01 3.19800e-01 2.48761e+00 3.03352e-01 3.44700e-01 2.58810e+00 3.03271e-01 3.70350e-01 2.68831e+00 3.03191e-01 3.96720e-01 2.78823e+00 3.03111e-01 4.23780e-01 2.88787e+00 3.03032e-01 4.51520e-01 2.98723e+00 3.02954e-01 4.79920e-01 3.08632e+00 3.02876e-01 5.08940e-01 3.18513e+00 3.02799e-01 5.38580e-01 3.28367e+00 3.02722e-01 5.68810e-01 3.38194e+00 3.02646e-01 5.99620e-01 3.47995e+00 3.02571e-01 6.30980e-01 3.57769e+00 3.02497e-01 6.62870e-01 3.67518e+00 3.02424e-01 6.95280e-01 3.77242e+00 3.02351e-01 7.28180e-01 3.86940e+00 3.02279e-01 7.61570e-01 3.96614e+00 3.02207e-01 7.95420e-01 4.06264e+00 3.02137e-01 8.29710e-01 4.15890e+00 3.02068e-01 8.64440e-01 4.25493e+00 3.01999e-01 8.99570e-01 4.35074e+00 3.01931e-01 9.35110e-01 4.44632e+00 3.01864e-01 9.71020e-01 4.54169e+00 3.01798e-01 1.00730e+00 4.63685e+00 3.01733e-01 1.04390e+00 4.73180e+00 3.01669e-01 1.08090e+00 4.82655e+00 3.01606e-01 1.11820e+00 4.92110e+00 3.01544e-01 1.15580e+00 5.01547e+00 3.01483e-01 1.19370e+00 5.10965e+00 3.01423e-01 1.23190e+00 5.20365e+00 3.01364e-01 1.27030e+00 5.29748e+00 3.01306e-01 1.30900e+00 5.39114e+00 3.01249e-01 1.34800e+00 5.48464e+00 3.01193e-01 1.38720e+00 5.57797e+00 3.01138e-01 1.42660e+00 5.67116e+00 3.01084e-01 1.46620e+00 5.76420e+00 3.01032e-01 1.50600e+00 5.85710e+00 3.00980e-01 1.54600e+00 5.94986e+00 3.00930e-01 1.58620e+00 6.04249e+00 3.00880e-01 1.62650e+00 6.13500e+00 3.00832e-01 1.66710e+00 6.22739e+00 3.00785e-01 1.70770e+00 6.31966e+00 3.00739e-01 1.74850e+00 6.41181e+00 3.00694e-01 1.78950e+00 6.50386e+00 3.00651e-01 1.83050e+00 6.59582e+00 3.00608e-01 1.87170e+00 6.68767e+00 3.00567e-01 1.91300e+00 6.77943e+00 3.00527e-01 1.95440e+00 6.87111e+00 3.00488e-01 1.99580e+00 6.96270e+00 3.00451e-01 2.03740e+00 7.05422e+00 3.00414e-01 2.07910e+00 7.14566e+00 3.00379e-01 2.12080e+00 7.23703e+00 3.00345e-01 2.16260e+00 7.32834e+00 3.00313e-01 2.20440e+00 7.41958e+00 3.00281e-01 2.24630e+00 7.51077e+00 3.00251e-01 2.28820e+00 7.60190e+00 3.00222e-01 2.33020e+00 7.69299e+00 3.00194e-01 2.37230e+00 7.78402e+00 3.00168e-01 2.41430e+00 7.87502e+00 3.00142e-01 2.45640e+00 7.96597e+00 3.00119e-01 2.49850e+00 8.05689e+00 3.00096e-01 2.54070e+00 8.14777e+00 3.00074e-01 2.58280e+00 8.23863e+00 3.00054e-01 2.62500e+00 8.32946e+00 3.00036e-01 2.66720e+00 8.42026e+00 3.00018e-01 2.70930e+00 8.51104e+00 3.00002e-01 2.75150e+00 8.60181e+00 2.99987e-01 2.79370e+00 8.69255e+00 2.99974e-01 2.83590e+00 8.78328e+00 2.99961e-01 2.87810e+00 8.87401e+00 2.99951e-01 2.92030e+00 8.96472e+00 2.99941e-01 2.96250e+00 9.05542e+00 2.99933e-01 3.00470e+00 9.14612e+00 2.99926e-01 3.04690e+00 9.23681e+00 2.99921e-01 3.08900e+00 9.32751e+00 2.99916e-01 3.13120e+00 9.41820e+00 2.99912e-01 3.17330e+00 9.50890e+00 2.99908e-01 3.21550e+00 9.59959e+00 2.99905e-01 3.25760e+00 0.00000e+00 4.00000e-01 0.00000e+00 1.04349e-01 4.00749e-01 1.00240e-02 2.10240e-01 4.01269e-01 1.17970e-02 3.15292e-01 4.01680e-01 1.61290e-02 4.21096e-01 4.01921e-01 2.06870e-02 5.26453e-01 4.02089e-01 2.69100e-02 6.31921e-01 4.02168e-01 3.41520e-02 7.37044e-01 4.02220e-01 4.27080e-02 8.42081e-01 4.02228e-01 5.23750e-02 9.46816e-01 4.02228e-01 6.32210e-02 1.05139e+00 4.02207e-01 7.51620e-02 1.15567e+00 4.02184e-01 8.82070e-02 1.25974e+00 4.02150e-01 1.02310e-01 1.36354e+00 4.02117e-01 1.17450e-01 1.46709e+00 4.02078e-01 1.33600e-01 1.57037e+00 4.02040e-01 1.50750e-01 1.67339e+00 4.02000e-01 1.68850e-01 1.77613e+00 4.01960e-01 1.87880e-01 1.87860e+00 4.01919e-01 2.07830e-01 1.98078e+00 4.01878e-01 2.28660e-01 2.08269e+00 4.01837e-01 2.50350e-01 2.18431e+00 4.01796e-01 2.72880e-01 2.28566e+00 4.01755e-01 2.96220e-01 2.38671e+00 4.01715e-01 3.20350e-01 2.48748e+00 4.01674e-01 3.45240e-01 2.58797e+00 4.01634e-01 3.70870e-01 2.68818e+00 4.01594e-01 3.97220e-01 2.78810e+00 4.01554e-01 4.24270e-01 2.88774e+00 4.01515e-01 4.52000e-01 2.98710e+00 4.01476e-01 4.80380e-01 3.08619e+00 4.01437e-01 5.09390e-01 3.18500e+00 4.01399e-01 5.39020e-01 3.28354e+00 4.01360e-01 5.69240e-01 3.38182e+00 4.01323e-01 6.00030e-01 3.47983e+00 4.01285e-01 6.31370e-01 3.57757e+00 4.01248e-01 6.63250e-01 3.67506e+00 4.01211e-01 6.95650e-01 3.77230e+00 4.01175e-01 7.28540e-01 3.86928e+00 4.01139e-01 7.61920e-01 3.96603e+00 4.01104e-01 7.95760e-01 4.06253e+00 4.01068e-01 8.30040e-01 4.15879e+00 4.01034e-01 8.64750e-01 4.25483e+00 4.00999e-01 8.99880e-01 4.35064e+00 4.00966e-01 9.35400e-01 4.44622e+00 4.00932e-01 9.71300e-01 4.54159e+00 4.00899e-01 1.00760e+00 4.63675e+00 4.00867e-01 1.04420e+00 4.73171e+00 4.00835e-01 1.08120e+00 4.82646e+00 4.00803e-01 1.11840e+00 4.92102e+00 4.00772e-01 1.15600e+00 5.01539e+00 4.00742e-01 1.19390e+00 5.10957e+00 4.00712e-01 1.23210e+00 5.20357e+00 4.00682e-01 1.27050e+00 5.29740e+00 4.00653e-01 1.30920e+00 5.39107e+00 4.00625e-01 1.34820e+00 5.48457e+00 4.00597e-01 1.38730e+00 5.57791e+00 4.00569e-01 1.42670e+00 5.67110e+00 4.00543e-01 1.46630e+00 5.76414e+00 4.00516e-01 1.50620e+00 5.85704e+00 4.00490e-01 1.54620e+00 5.94981e+00 4.00465e-01 1.58630e+00 6.04244e+00 4.00441e-01 1.62670e+00 6.13495e+00 4.00416e-01 1.66720e+00 6.22734e+00 4.00393e-01 1.70780e+00 6.31961e+00 4.00370e-01 1.74860e+00 6.41177e+00 4.00348e-01 1.78960e+00 6.50383e+00 4.00326e-01 1.83060e+00 6.59578e+00 4.00305e-01 1.87180e+00 6.68764e+00 4.00284e-01 1.91310e+00 6.77940e+00 4.00264e-01 1.95450e+00 6.87108e+00 4.00245e-01 1.99590e+00 6.96268e+00 4.00226e-01 2.03750e+00 7.05419e+00 4.00208e-01 2.07910e+00 7.14564e+00 4.00190e-01 2.12080e+00 7.23701e+00 4.00173e-01 2.16260e+00 7.32832e+00 4.00157e-01 2.20440e+00 7.41957e+00 4.00141e-01 2.24630e+00 7.51075e+00 4.00126e-01 2.28830e+00 7.60189e+00 4.00111e-01 2.33030e+00 7.69297e+00 4.00097e-01 2.37230e+00 7.78401e+00 4.00084e-01 2.41430e+00 7.87501e+00 4.00071e-01 2.45640e+00 7.96596e+00 4.00059e-01 2.49850e+00 8.05688e+00 4.00048e-01 2.54070e+00 8.14777e+00 4.00037e-01 2.58280e+00 8.23862e+00 4.00027e-01 2.62500e+00 8.32945e+00 4.00018e-01 2.66720e+00 8.42026e+00 4.00009e-01 2.70940e+00 8.51104e+00 4.00001e-01 2.75150e+00 8.60180e+00 3.99994e-01 2.79370e+00 8.69255e+00 3.99987e-01 2.83590e+00 8.78329e+00 3.99981e-01 2.87810e+00 8.87401e+00 3.99975e-01 2.92030e+00 8.96472e+00 3.99971e-01 2.96250e+00 9.05542e+00 3.99967e-01 3.00470e+00 9.14612e+00 3.99963e-01 3.04690e+00 9.23682e+00 3.99960e-01 3.08900e+00 9.32751e+00 3.99958e-01 3.13120e+00 9.41821e+00 3.99956e-01 3.17330e+00 9.50890e+00 3.99954e-01 3.21550e+00 9.59960e+00 3.99952e-01 3.25760e+00 0.00000e+00 5.00000e-01 0.00000e+00 1.04300e-01 5.00000e-01 1.01200e-02 2.10311e-01 5.00000e-01 1.19460e-02 3.15236e-01 5.00000e-01 1.63460e-02 4.21108e-01 5.00000e-01 2.08870e-02 5.26394e-01 5.00000e-01 2.71440e-02 6.31906e-01 5.00000e-01 3.43680e-02 7.36993e-01 5.00000e-01 4.29450e-02 8.42056e-01 5.00000e-01 5.26020e-02 9.46773e-01 5.00000e-01 6.34590e-02 1.05136e+00 5.00000e-01 7.53930e-02 1.15563e+00 5.00000e-01 8.84420e-02 1.25971e+00 5.00000e-01 1.02540e-01 1.36350e+00 5.00000e-01 1.17680e-01 1.46706e+00 5.00000e-01 1.33830e-01 1.57033e+00 5.00000e-01 1.50970e-01 1.67335e+00 5.00000e-01 1.69060e-01 1.77609e+00 5.00000e-01 1.88100e-01 1.87856e+00 5.00000e-01 2.08040e-01 1.98074e+00 5.00000e-01 2.28860e-01 2.08265e+00 5.00000e-01 2.50550e-01 2.18427e+00 5.00000e-01 2.73070e-01 2.28561e+00 5.00000e-01 2.96410e-01 2.38667e+00 5.00000e-01 3.20530e-01 2.48744e+00 5.00000e-01 3.45410e-01 2.58793e+00 5.00000e-01 3.71040e-01 2.68813e+00 5.00000e-01 3.97390e-01 2.78805e+00 5.00000e-01 4.24440e-01 2.88770e+00 5.00000e-01 4.52160e-01 2.98706e+00 5.00000e-01 4.80530e-01 3.08615e+00 5.00000e-01 5.09540e-01 3.18496e+00 5.00000e-01 5.39160e-01 3.28350e+00 5.00000e-01 5.69380e-01 3.38177e+00 5.00000e-01 6.00160e-01 3.47978e+00 5.00000e-01 6.31510e-01 3.57753e+00 5.00000e-01 6.63380e-01 3.67502e+00 5.00000e-01 6.95770e-01 3.77226e+00 5.00000e-01 7.28660e-01 3.86925e+00 5.00000e-01 7.62040e-01 3.96599e+00 5.00000e-01 7.95870e-01 4.06249e+00 5.00000e-01 8.30150e-01 4.15876e+00 5.00000e-01 8.64860e-01 4.25479e+00 5.00000e-01 8.99980e-01 4.35060e+00 5.00000e-01 9.35500e-01 4.44619e+00 5.00000e-01 9.71400e-01 4.54156e+00 5.00000e-01 1.00770e+00 4.63672e+00 5.00000e-01 1.04430e+00 4.73168e+00 5.00000e-01 1.08120e+00 4.82643e+00 5.00000e-01 1.11850e+00 4.92099e+00 5.00000e-01 1.15610e+00 5.01536e+00 5.00000e-01 1.19400e+00 5.10954e+00 5.00000e-01 1.23220e+00 5.20355e+00 5.00000e-01 1.27060e+00 5.29738e+00 5.00000e-01 1.30930e+00 5.39104e+00 5.00000e-01 1.34820e+00 5.48454e+00 5.00000e-01 1.38740e+00 5.57789e+00 5.00000e-01 1.42680e+00 5.67108e+00 5.00000e-01 1.46640e+00 5.76412e+00 5.00000e-01 1.50620e+00 5.85702e+00 5.00000e-01 1.54620e+00 5.94979e+00 5.00000e-01 1.58640e+00 6.04242e+00 5.00000e-01 1.62670e+00 6.13493e+00 5.00000e-01 1.66720e+00 6.22732e+00 5.00000e-01 1.70790e+00 6.31960e+00 5.00000e-01 1.74870e+00 6.41176e+00 5.00000e-01 1.78960e+00 6.50381e+00 5.00000e-01 1.83070e+00 6.59577e+00 5.00000e-01 1.87180e+00 6.68762e+00 5.00000e-01 1.91310e+00 6.77939e+00 5.00000e-01 1.95450e+00 6.87107e+00 5.00000e-01 1.99600e+00 6.96267e+00 5.00000e-01 2.03750e+00 7.05418e+00 5.00000e-01 2.07910e+00 7.14563e+00 5.00000e-01 2.12090e+00 7.23700e+00 5.00000e-01 2.16260e+00 7.32831e+00 5.00000e-01 2.20450e+00 7.41956e+00 5.00000e-01 2.24640e+00 7.51075e+00 5.00000e-01 2.28830e+00 7.60188e+00 5.00000e-01 2.33030e+00 7.69297e+00 5.00000e-01 2.37230e+00 7.78401e+00 5.00000e-01 2.41440e+00 7.87500e+00 5.00000e-01 2.45640e+00 7.96596e+00 5.00000e-01 2.49860e+00 8.05688e+00 5.00000e-01 2.54070e+00 8.14777e+00 5.00000e-01 2.58280e+00 8.23862e+00 5.00000e-01 2.62500e+00 8.32945e+00 5.00000e-01 2.66720e+00 8.42026e+00 5.00000e-01 2.70940e+00 8.51104e+00 5.00000e-01 2.75160e+00 8.60180e+00 5.00000e-01 2.79370e+00 8.69255e+00 5.00000e-01 2.83590e+00 8.78329e+00 5.00000e-01 2.87810e+00 8.87401e+00 5.00000e-01 2.92030e+00 8.96472e+00 5.00000e-01 2.96250e+00 9.05542e+00 5.00000e-01 3.00470e+00 9.14612e+00 5.00000e-01 3.04690e+00 9.23682e+00 5.00000e-01 3.08900e+00 9.32751e+00 5.00000e-01 3.13120e+00 9.41821e+00 5.00000e-01 3.17330e+00 9.50890e+00 5.00000e-01 3.21550e+00 9.59960e+00 5.00000e-01 3.25760e+00 0.00000e+00 6.00000e-01 0.00000e+00 1.04349e-01 5.99251e-01 1.00240e-02 2.10240e-01 5.98731e-01 1.17970e-02 3.15292e-01 5.98320e-01 1.61290e-02 4.21096e-01 5.98079e-01 2.06870e-02 5.26453e-01 5.97911e-01 2.69100e-02 6.31921e-01 5.97832e-01 3.41520e-02 7.37044e-01 5.97780e-01 4.27080e-02 8.42081e-01 5.97772e-01 5.23750e-02 9.46816e-01 5.97772e-01 6.32210e-02 1.05139e+00 5.97793e-01 7.51620e-02 1.15567e+00 5.97816e-01 8.82070e-02 1.25974e+00 5.97850e-01 1.02310e-01 1.36354e+00 5.97884e-01 1.17450e-01 1.46709e+00 5.97922e-01 1.33600e-01 1.57037e+00 5.97960e-01 1.50750e-01 1.67339e+00 5.98000e-01 1.68850e-01 1.77613e+00 5.98040e-01 1.87880e-01 1.87860e+00 5.98081e-01 2.07830e-01 1.98078e+00 5.98122e-01 2.28660e-01 2.08269e+00 5.98163e-01 2.50350e-01 2.18431e+00 5.98204e-01 2.72880e-01 2.28566e+00 5.98245e-01 2.96220e-01 2.38671e+00 5.98286e-01 3.20350e-01 2.48748e+00 5.98326e-01 3.45240e-01 2.58797e+00 5.98366e-01 3.70870e-01 2.68818e+00 5.98406e-01 3.97220e-01 2.78810e+00 5.98446e-01 4.24270e-01 2.88774e+00 5.98485e-01 4.52000e-01 2.98710e+00 5.98524e-01 4.80380e-01 3.08619e+00 5.98563e-01 5.09390e-01 3.18500e+00 5.98602e-01 5.39020e-01 3.28354e+00 5.98640e-01 5.69240e-01 3.38182e+00 5.98677e-01 6.00030e-01 3.47983e+00 5.98715e-01 6.31370e-01 3.57757e+00 5.98752e-01 6.63250e-01 3.67506e+00 5.98789e-01 6.95650e-01 3.77230e+00 5.98825e-01 7.28540e-01 3.86928e+00 5.98861e-01 7.61920e-01 3.96603e+00 5.98896e-01 7.95760e-01 4.06253e+00 5.98931e-01 8.30040e-01 4.15879e+00 5.98966e-01 8.64750e-01 4.25483e+00 5.99000e-01 8.99880e-01 4.35064e+00 5.99034e-01 9.35400e-01 4.44622e+00 5.99068e-01 9.71300e-01 4.54159e+00 5.99101e-01 1.00760e+00 4.63675e+00 5.99133e-01 1.04420e+00 4.73171e+00 5.99165e-01 1.08120e+00 4.82646e+00 5.99196e-01 1.11840e+00 4.92102e+00 5.99228e-01 1.15600e+00 5.01539e+00 5.99258e-01 1.19390e+00 5.10957e+00 5.99288e-01 1.23210e+00 5.20357e+00 5.99318e-01 1.27050e+00 5.29740e+00 5.99347e-01 1.30920e+00 5.39107e+00 5.99375e-01 1.34820e+00 5.48457e+00 5.99403e-01 1.38730e+00 5.57791e+00 5.99430e-01 1.42670e+00 5.67110e+00 5.99457e-01 1.46630e+00 5.76414e+00 5.99484e-01 1.50620e+00 5.85704e+00 5.99509e-01 1.54620e+00 5.94981e+00 5.99535e-01 1.58630e+00 6.04244e+00 5.99559e-01 1.62670e+00 6.13495e+00 5.99583e-01 1.66720e+00 6.22734e+00 5.99607e-01 1.70780e+00 6.31961e+00 5.99630e-01 1.74860e+00 6.41177e+00 5.99652e-01 1.78960e+00 6.50383e+00 5.99674e-01 1.83060e+00 6.59578e+00 5.99695e-01 1.87180e+00 6.68764e+00 5.99716e-01 1.91310e+00 6.77940e+00 5.99736e-01 1.95450e+00 6.87108e+00 5.99755e-01 1.99590e+00 6.96268e+00 5.99774e-01 2.03750e+00 7.05419e+00 5.99792e-01 2.07910e+00 7.14564e+00 5.99810e-01 2.12080e+00 7.23701e+00 5.99827e-01 2.16260e+00 7.32832e+00 5.99843e-01 2.20440e+00 7.41957e+00 5.99859e-01 2.24630e+00 7.51075e+00 5.99874e-01 2.28830e+00 7.60189e+00 5.99889e-01 2.33030e+00 7.69297e+00 5.99902e-01 2.37230e+00 7.78401e+00 5.99916e-01 2.41430e+00 7.87501e+00 5.99928e-01 2.45640e+00 7.96596e+00 5.99940e-01 2.49850e+00 8.05688e+00 5.99952e-01 2.54070e+00 8.14777e+00 5.99962e-01 2.58280e+00 8.23862e+00 5.99972e-01 2.62500e+00 8.32945e+00 5.99982e-01 2.66720e+00 8.42026e+00 5.99990e-01 2.70940e+00 8.51104e+00 5.99999e-01 2.75150e+00 8.60180e+00 6.00006e-01 2.79370e+00 8.69255e+00 6.00013e-01 2.83590e+00 8.78329e+00 6.00019e-01 2.87810e+00 8.87401e+00 6.00024e-01 2.92030e+00 8.96472e+00 6.00029e-01 2.96250e+00 9.05542e+00 6.00033e-01 3.00470e+00 9.14612e+00 6.00036e-01 3.04690e+00 9.23682e+00 6.00039e-01 3.08900e+00 9.32751e+00 6.00042e-01 3.13120e+00 9.41821e+00 6.00044e-01 3.17330e+00 9.50890e+00 6.00046e-01 3.21550e+00 9.59960e+00 6.00047e-01 3.25760e+00 0.00000e+00 7.00000e-01 0.00000e+00 1.04233e-01 6.98416e-01 9.65880e-03 2.10279e-01 6.97298e-01 1.12480e-02 3.15299e-01 6.96546e-01 1.55120e-02 4.21218e-01 6.96040e-01 2.00100e-02 5.26539e-01 6.95779e-01 2.62450e-02 6.32047e-01 6.95599e-01 3.34550e-02 7.37141e-01 6.95541e-01 4.20170e-02 8.42195e-01 6.95507e-01 5.16660e-02 9.46915e-01 6.95531e-01 6.25170e-02 1.05149e+00 6.95564e-01 7.44530e-02 1.15577e+00 6.95623e-01 8.75060e-02 1.25985e+00 6.95685e-01 1.01610e-01 1.36364e+00 6.95759e-01 1.16770e-01 1.46721e+00 6.95833e-01 1.32930e-01 1.57048e+00 6.95913e-01 1.50080e-01 1.67351e+00 6.95993e-01 1.68200e-01 1.77625e+00 6.96075e-01 1.87250e-01 1.87872e+00 6.96156e-01 2.07210e-01 1.98091e+00 6.96239e-01 2.28060e-01 2.08282e+00 6.96321e-01 2.49760e-01 2.18444e+00 6.96403e-01 2.72300e-01 2.28578e+00 6.96485e-01 2.95660e-01 2.38684e+00 6.96567e-01 3.19800e-01 2.48761e+00 6.96648e-01 3.44700e-01 2.58810e+00 6.96729e-01 3.70350e-01 2.68831e+00 6.96809e-01 3.96720e-01 2.78823e+00 6.96889e-01 4.23780e-01 2.88787e+00 6.96968e-01 4.51520e-01 2.98723e+00 6.97046e-01 4.79920e-01 3.08632e+00 6.97124e-01 5.08940e-01 3.18513e+00 6.97201e-01 5.38580e-01 3.28367e+00 6.97278e-01 5.68810e-01 3.38194e+00 6.97353e-01 5.99620e-01 3.47995e+00 6.97429e-01 6.30980e-01 3.57769e+00 6.97503e-01 6.62870e-01 3.67518e+00 6.97576e-01 6.95280e-01 3.77242e+00 6.97649e-01 7.28180e-01 3.86940e+00 6.97721e-01 7.61570e-01 3.96614e+00 6.97792e-01 7.95420e-01 4.06264e+00 6.97863e-01 8.29710e-01 4.15890e+00 6.97932e-01 8.64440e-01 4.25493e+00 6.98001e-01 8.99570e-01 4.35074e+00 6.98069e-01 9.35110e-01 4.44632e+00 6.98136e-01 9.71020e-01 4.54169e+00 6.98201e-01 1.00730e+00 4.63685e+00 6.98266e-01 1.04390e+00 4.73180e+00 6.98330e-01 1.08090e+00 4.82655e+00 6.98394e-01 1.11820e+00 4.92110e+00 6.98456e-01 1.15580e+00 5.01547e+00 6.98517e-01 1.19370e+00 5.10965e+00 6.98577e-01 1.23190e+00 5.20365e+00 6.98636e-01 1.27030e+00 5.29748e+00 6.98694e-01 1.30900e+00 5.39114e+00 6.98751e-01 1.34800e+00 5.48464e+00 6.98807e-01 1.38720e+00 5.57797e+00 6.98862e-01 1.42660e+00 5.67116e+00 6.98915e-01 1.46620e+00 5.76420e+00 6.98968e-01 1.50600e+00 5.85710e+00 6.99020e-01 1.54600e+00 5.94986e+00 6.99070e-01 1.58620e+00 6.04249e+00 6.99120e-01 1.62650e+00 6.13500e+00 6.99168e-01 1.66710e+00 6.22739e+00 6.99215e-01 1.70770e+00 6.31966e+00 6.99261e-01 1.74850e+00 6.41181e+00 6.99305e-01 1.78950e+00 6.50386e+00 6.99349e-01 1.83050e+00 6.59582e+00 6.99391e-01 1.87170e+00 6.68767e+00 6.99433e-01 1.91300e+00 6.77943e+00 6.99473e-01 1.95440e+00 6.87111e+00 6.99511e-01 1.99580e+00 6.96270e+00 6.99549e-01 2.03740e+00 7.05422e+00 6.99585e-01 2.07910e+00 7.14566e+00 6.99621e-01 2.12080e+00 7.23703e+00 6.99655e-01 2.16260e+00 7.32834e+00 6.99687e-01 2.20440e+00 7.41958e+00 6.99719e-01 2.24630e+00 7.51077e+00 6.99749e-01 2.28820e+00 7.60190e+00 6.99778e-01 2.33020e+00 7.69299e+00 6.99806e-01 2.37230e+00 7.78402e+00 6.99832e-01 2.41430e+00 7.87502e+00 6.99857e-01 2.45640e+00 7.96597e+00 6.99881e-01 2.49850e+00 8.05689e+00 6.99904e-01 2.54070e+00 8.14777e+00 6.99925e-01 2.58280e+00 8.23863e+00 6.99945e-01 2.62500e+00 8.32946e+00 6.99964e-01 2.66720e+00 8.42026e+00 6.99982e-01 2.70930e+00 8.51104e+00 6.99998e-01 2.75150e+00 8.60181e+00 7.00013e-01 2.79370e+00 8.69255e+00 7.00026e-01 2.83590e+00 8.78328e+00 7.00038e-01 2.87810e+00 8.87401e+00 7.00049e-01 2.92030e+00 8.96472e+00 7.00058e-01 2.96250e+00 9.05542e+00 7.00067e-01 3.00470e+00 9.14612e+00 7.00073e-01 3.04690e+00 9.23681e+00 7.00079e-01 3.08900e+00 9.32751e+00 7.00084e-01 3.13120e+00 9.41820e+00 7.00088e-01 3.17330e+00 9.50890e+00 7.00091e-01 3.21550e+00 9.59960e+00 7.00095e-01 3.25760e+00 0.00000e+00 8.00000e-01 0.00000e+00 1.04266e-01 7.97355e-01 8.99730e-03 2.10223e-01 7.95653e-01 1.02520e-02 3.15520e-01 7.94492e-01 1.43550e-02 4.21389e-01 7.93914e-01 1.89020e-02 5.26763e-01 7.93492e-01 2.50730e-02 6.32223e-01 7.93330e-01 3.22880e-02 7.37329e-01 7.93215e-01 4.08150e-02 8.42359e-01 7.93220e-01 5.04640e-02 9.47085e-01 7.93241e-01 6.13060e-02 1.05166e+00 7.93316e-01 7.32510e-02 1.15594e+00 7.93398e-01 8.63110e-02 1.26002e+00 7.93504e-01 1.00430e-01 1.36382e+00 7.93611e-01 1.15600e-01 1.46738e+00 7.93730e-01 1.31790e-01 1.57067e+00 7.93848e-01 1.48970e-01 1.67370e+00 7.93972e-01 1.67100e-01 1.77644e+00 7.94095e-01 1.86180e-01 1.87892e+00 7.94220e-01 2.06160e-01 1.98110e+00 7.94344e-01 2.27040e-01 2.08302e+00 7.94469e-01 2.48770e-01 2.18465e+00 7.94593e-01 2.71330e-01 2.28599e+00 7.94717e-01 2.94710e-01 2.38705e+00 7.94840e-01 3.18880e-01 2.48782e+00 7.94963e-01 3.43810e-01 2.58831e+00 7.95085e-01 3.69480e-01 2.68852e+00 7.95206e-01 3.95870e-01 2.78844e+00 7.95326e-01 4.22960e-01 2.88808e+00 7.95445e-01 4.50720e-01 2.98744e+00 7.95564e-01 4.79140e-01 3.08652e+00 7.95681e-01 5.08190e-01 3.18533e+00 7.95797e-01 5.37850e-01 3.28387e+00 7.95913e-01 5.68100e-01 3.38214e+00 7.96027e-01 5.98930e-01 3.48014e+00 7.96140e-01 6.30310e-01 3.57789e+00 7.96252e-01 6.62220e-01 3.67537e+00 7.96363e-01 6.94650e-01 3.77260e+00 7.96472e-01 7.27580e-01 3.86958e+00 7.96581e-01 7.60980e-01 3.96632e+00 7.96688e-01 7.94850e-01 4.06281e+00 7.96794e-01 8.29170e-01 4.15907e+00 7.96898e-01 8.63910e-01 4.25510e+00 7.97002e-01 8.99060e-01 4.35090e+00 7.97103e-01 9.34620e-01 4.44648e+00 7.97204e-01 9.70550e-01 4.54185e+00 7.97303e-01 1.00680e+00 4.63700e+00 7.97401e-01 1.04350e+00 4.73195e+00 7.97497e-01 1.08050e+00 4.82669e+00 7.97592e-01 1.11780e+00 4.92124e+00 7.97685e-01 1.15540e+00 5.01560e+00 7.97777e-01 1.19330e+00 5.10978e+00 7.97867e-01 1.23150e+00 5.20377e+00 7.97956e-01 1.27000e+00 5.29760e+00 7.98043e-01 1.30870e+00 5.39125e+00 7.98128e-01 1.34770e+00 5.48475e+00 7.98212e-01 1.38690e+00 5.57808e+00 7.98295e-01 1.42630e+00 5.67126e+00 7.98375e-01 1.46590e+00 5.76430e+00 7.98454e-01 1.50570e+00 5.85719e+00 7.98532e-01 1.54580e+00 5.94995e+00 7.98608e-01 1.58600e+00 6.04258e+00 7.98682e-01 1.62630e+00 6.13508e+00 7.98754e-01 1.66680e+00 6.22746e+00 7.98824e-01 1.70750e+00 6.31972e+00 7.98893e-01 1.74830e+00 6.41188e+00 7.98960e-01 1.78930e+00 6.50392e+00 7.99026e-01 1.83040e+00 6.59587e+00 7.99089e-01 1.87150e+00 6.68772e+00 7.99151e-01 1.91280e+00 6.77948e+00 7.99211e-01 1.95420e+00 6.87116e+00 7.99269e-01 1.99570e+00 6.96275e+00 7.99325e-01 2.03730e+00 7.05426e+00 7.99380e-01 2.07890e+00 7.14570e+00 7.99433e-01 2.12070e+00 7.23706e+00 7.99483e-01 2.16250e+00 7.32837e+00 7.99532e-01 2.20430e+00 7.41961e+00 7.99580e-01 2.24620e+00 7.51079e+00 7.99625e-01 2.28820e+00 7.60192e+00 7.99668e-01 2.33020e+00 7.69300e+00 7.99710e-01 2.37220e+00 7.78404e+00 7.99749e-01 2.41430e+00 7.87503e+00 7.99787e-01 2.45640e+00 7.96598e+00 7.99823e-01 2.49850e+00 8.05690e+00 7.99857e-01 2.54060e+00 8.14778e+00 7.99889e-01 2.58280e+00 8.23863e+00 7.99919e-01 2.62500e+00 8.32946e+00 7.99947e-01 2.66710e+00 8.42026e+00 7.99973e-01 2.70930e+00 8.51104e+00 7.99998e-01 2.75150e+00 8.60180e+00 8.00020e-01 2.79370e+00 8.69255e+00 8.00040e-01 2.83590e+00 8.78328e+00 8.00058e-01 2.87810e+00 8.87400e+00 8.00075e-01 2.92030e+00 8.96471e+00 8.00089e-01 2.96250e+00 9.05542e+00 8.00101e-01 3.00470e+00 9.14611e+00 8.00111e-01 3.04690e+00 9.23681e+00 8.00120e-01 3.08900e+00 9.32750e+00 8.00127e-01 3.13120e+00 9.41819e+00 8.00132e-01 3.17330e+00 9.50889e+00 8.00138e-01 3.21550e+00 9.59959e+00 8.00143e-01 3.25760e+00 0.00000e+00 9.00000e-01 0.00000e+00 1.04143e-01 8.95920e-01 7.49050e-03 2.10640e-01 8.93408e-01 8.52870e-03 3.15931e-01 8.92395e-01 1.27720e-02 4.21746e-01 8.91532e-01 1.72420e-02 5.27074e-01 8.91221e-01 2.33850e-02 6.32479e-01 8.90950e-01 3.05580e-02 7.37572e-01 8.90909e-01 3.90640e-02 8.42573e-01 8.90889e-01 4.87080e-02 9.47301e-01 8.90967e-01 5.95520e-02 1.05186e+00 8.91055e-01 7.15130e-02 1.15615e+00 8.91186e-01 8.45930e-02 1.26023e+00 8.91322e-01 9.87410e-02 1.36404e+00 8.91477e-01 1.13940e-01 1.46761e+00 8.91632e-01 1.30160e-01 1.57090e+00 8.91796e-01 1.47370e-01 1.67394e+00 8.91960e-01 1.65540e-01 1.77669e+00 8.92128e-01 1.84660e-01 1.87917e+00 8.92294e-01 2.04680e-01 1.98136e+00 8.92462e-01 2.25590e-01 2.08328e+00 8.92629e-01 2.47350e-01 2.18491e+00 8.92796e-01 2.69960e-01 2.28626e+00 8.92962e-01 2.93370e-01 2.38732e+00 8.93127e-01 3.17570e-01 2.48809e+00 8.93291e-01 3.42540e-01 2.58858e+00 8.93455e-01 3.68250e-01 2.68879e+00 8.93616e-01 3.94670e-01 2.78871e+00 8.93777e-01 4.21790e-01 2.88835e+00 8.93937e-01 4.49590e-01 2.98771e+00 8.94095e-01 4.78040e-01 3.08679e+00 8.94252e-01 5.07120e-01 3.18560e+00 8.94407e-01 5.36810e-01 3.28413e+00 8.94562e-01 5.67100e-01 3.38240e+00 8.94714e-01 5.97950e-01 3.48040e+00 8.94865e-01 6.29360e-01 3.57814e+00 8.95015e-01 6.61310e-01 3.67562e+00 8.95162e-01 6.93760e-01 3.77285e+00 8.95309e-01 7.26720e-01 3.86982e+00 8.95453e-01 7.60150e-01 3.96656e+00 8.95596e-01 7.94050e-01 4.06304e+00 8.95738e-01 8.28390e-01 4.15930e+00 8.95877e-01 8.63160e-01 4.25532e+00 8.96015e-01 8.98340e-01 4.35112e+00 8.96150e-01 9.33920e-01 4.44669e+00 8.96284e-01 9.69880e-01 4.54205e+00 8.96416e-01 1.00620e+00 4.63719e+00 8.96547e-01 1.04290e+00 4.73213e+00 8.96675e-01 1.07990e+00 4.82687e+00 8.96801e-01 1.11720e+00 4.92142e+00 8.96925e-01 1.15490e+00 5.01577e+00 8.97047e-01 1.19280e+00 5.10994e+00 8.97168e-01 1.23100e+00 5.20393e+00 8.97286e-01 1.26950e+00 5.29775e+00 8.97402e-01 1.30820e+00 5.39140e+00 8.97515e-01 1.34720e+00 5.48488e+00 8.97627e-01 1.38640e+00 5.57821e+00 8.97737e-01 1.42590e+00 5.67139e+00 8.97844e-01 1.46550e+00 5.76442e+00 8.97949e-01 1.50540e+00 5.85731e+00 8.98052e-01 1.54540e+00 5.95006e+00 8.98152e-01 1.58560e+00 6.04268e+00 8.98251e-01 1.62600e+00 6.13517e+00 8.98347e-01 1.66650e+00 6.22755e+00 8.98441e-01 1.70720e+00 6.31981e+00 8.98532e-01 1.74810e+00 6.41196e+00 8.98621e-01 1.78900e+00 6.50400e+00 8.98708e-01 1.83010e+00 6.59594e+00 8.98792e-01 1.87130e+00 6.68779e+00 8.98874e-01 1.91260e+00 6.77954e+00 8.98954e-01 1.95400e+00 6.87121e+00 8.99031e-01 1.99550e+00 6.96279e+00 8.99106e-01 2.03710e+00 7.05430e+00 8.99179e-01 2.07880e+00 7.14574e+00 8.99248e-01 2.12050e+00 7.23710e+00 8.99316e-01 2.16230e+00 7.32840e+00 8.99381e-01 2.20420e+00 7.41964e+00 8.99444e-01 2.24610e+00 7.51082e+00 8.99504e-01 2.28810e+00 7.60194e+00 8.99561e-01 2.33010e+00 7.69302e+00 8.99616e-01 2.37210e+00 7.78405e+00 8.99669e-01 2.41420e+00 7.87504e+00 8.99719e-01 2.45630e+00 7.96599e+00 8.99767e-01 2.49840e+00 8.05690e+00 8.99812e-01 2.54060e+00 8.14779e+00 8.99854e-01 2.58270e+00 8.23864e+00 8.99894e-01 2.62490e+00 8.32946e+00 8.99931e-01 2.66710e+00 8.42026e+00 8.99966e-01 2.70930e+00 8.51104e+00 8.99998e-01 2.75150e+00 8.60180e+00 9.00028e-01 2.79370e+00 8.69254e+00 9.00055e-01 2.83590e+00 8.78327e+00 9.00079e-01 2.87810e+00 8.87399e+00 9.00101e-01 2.92030e+00 8.96470e+00 9.00119e-01 2.96250e+00 9.05541e+00 9.00136e-01 3.00470e+00 9.14610e+00 9.00149e-01 3.04690e+00 9.23680e+00 9.00161e-01 3.08900e+00 9.32749e+00 9.00170e-01 3.13120e+00 9.41818e+00 9.00177e-01 3.17340e+00 9.50888e+00 9.00184e-01 3.21550e+00 9.59958e+00 9.00190e-01 3.25760e+00 0.00000e+00 1.00000e+00 0.00000e+00 1.05441e-01 9.92696e-01 5.99050e-03 2.11811e-01 9.91904e-01 7.04350e-03 3.16550e-01 9.89881e-01 1.11130e-02 4.22317e-01 9.89542e-01 1.52790e-02 5.27398e-01 9.88879e-01 2.13890e-02 6.32796e-01 9.88802e-01 2.84300e-02 7.37782e-01 9.88646e-01 3.69400e-02 8.42791e-01 9.88721e-01 4.65470e-02 9.47480e-01 9.88773e-01 5.74150e-02 1.05205e+00 9.88925e-01 6.93840e-02 1.15633e+00 9.89067e-01 8.24990e-02 1.26043e+00 9.89254e-01 9.66770e-02 1.36424e+00 9.89436e-01 1.11920e-01 1.46782e+00 9.89638e-01 1.28180e-01 1.57112e+00 9.89837e-01 1.45430e-01 1.67416e+00 9.90045e-01 1.63650e-01 1.77692e+00 9.90250e-01 1.82800e-01 1.87940e+00 9.90460e-01 2.02870e-01 1.98160e+00 9.90667e-01 2.23820e-01 2.08353e+00 9.90876e-01 2.45640e-01 2.18516e+00 9.91082e-01 2.68280e-01 2.28651e+00 9.91289e-01 2.91740e-01 2.38758e+00 9.91494e-01 3.15990e-01 2.48835e+00 9.91698e-01 3.40990e-01 2.58885e+00 9.91901e-01 3.66740e-01 2.68905e+00 9.92102e-01 3.93210e-01 2.78897e+00 9.92302e-01 4.20370e-01 2.88861e+00 9.92500e-01 4.48210e-01 2.98797e+00 9.92696e-01 4.76700e-01 3.08705e+00 9.92891e-01 5.05820e-01 3.18586e+00 9.93084e-01 5.35550e-01 3.28439e+00 9.93275e-01 5.65870e-01 3.38265e+00 9.93464e-01 5.96770e-01 3.48065e+00 9.93651e-01 6.28210e-01 3.57839e+00 9.93837e-01 6.60190e-01 3.67586e+00 9.94020e-01 6.92680e-01 3.77309e+00 9.94201e-01 7.25670e-01 3.87006e+00 9.94381e-01 7.59140e-01 3.96678e+00 9.94558e-01 7.93070e-01 4.06327e+00 9.94733e-01 8.27450e-01 4.15951e+00 9.94905e-01 8.62250e-01 4.25553e+00 9.95076e-01 8.97460e-01 4.35132e+00 9.95244e-01 9.33070e-01 4.44689e+00 9.95410e-01 9.69060e-01 4.54224e+00 9.95573e-01 1.00540e+00 4.63738e+00 9.95734e-01 1.04210e+00 4.73231e+00 9.95893e-01 1.07910e+00 4.82705e+00 9.96049e-01 1.11650e+00 4.92158e+00 9.96203e-01 1.15420e+00 5.01593e+00 9.96354e-01 1.19210e+00 5.11009e+00 9.96503e-01 1.23040e+00 5.20408e+00 9.96649e-01 1.26890e+00 5.29789e+00 9.96792e-01 1.30770e+00 5.39153e+00 9.96933e-01 1.34670e+00 5.48501e+00 9.97071e-01 1.38590e+00 5.57833e+00 9.97206e-01 1.42540e+00 5.67150e+00 9.97339e-01 1.46500e+00 5.76452e+00 9.97469e-01 1.50490e+00 5.85740e+00 9.97596e-01 1.54500e+00 5.95015e+00 9.97720e-01 1.58520e+00 6.04276e+00 9.97842e-01 1.62560e+00 6.13525e+00 9.97960e-01 1.66620e+00 6.22762e+00 9.98076e-01 1.70690e+00 6.31988e+00 9.98189e-01 1.74770e+00 6.41202e+00 9.98299e-01 1.78870e+00 6.50406e+00 9.98406e-01 1.82980e+00 6.59599e+00 9.98511e-01 1.87100e+00 6.68783e+00 9.98612e-01 1.91240e+00 6.77958e+00 9.98710e-01 1.95380e+00 6.87125e+00 9.98806e-01 1.99530e+00 6.96283e+00 9.98898e-01 2.03690e+00 7.05433e+00 9.98988e-01 2.07860e+00 7.14576e+00 9.99074e-01 2.12030e+00 7.23712e+00 9.99157e-01 2.16210e+00 7.32841e+00 9.99238e-01 2.20400e+00 7.41965e+00 9.99315e-01 2.24590e+00 7.51083e+00 9.99389e-01 2.28790e+00 7.60195e+00 9.99460e-01 2.32990e+00 7.69302e+00 9.99528e-01 2.37200e+00 7.78405e+00 9.99593e-01 2.41410e+00 7.87504e+00 9.99655e-01 2.45620e+00 7.96599e+00 9.99713e-01 2.49830e+00 8.05690e+00 9.99769e-01 2.54050e+00 8.14778e+00 9.99821e-01 2.58270e+00 8.23862e+00 9.99871e-01 2.62490e+00 8.32945e+00 9.99917e-01 2.66710e+00 8.42025e+00 9.99960e-01 2.70930e+00 8.51102e+00 9.99999e-01 2.75150e+00 8.60178e+00 1.00004e+00 2.79370e+00 8.69253e+00 1.00007e+00 2.83590e+00 8.78326e+00 1.00010e+00 2.87810e+00 8.87398e+00 1.00013e+00 2.92030e+00 8.96469e+00 1.00015e+00 2.96250e+00 9.05539e+00 1.00017e+00 3.00470e+00 9.14609e+00 1.00019e+00 3.04690e+00 9.23678e+00 1.00020e+00 3.08900e+00 9.32748e+00 1.00021e+00 3.13120e+00 9.41817e+00 1.00022e+00 3.17340e+00 9.50887e+00 1.00023e+00 3.21550e+00 9.59956e+00 1.00024e+00 3.25770e+00 0.00000e+00 0.00000e+00 1.00000e-01 1.03546e-01 6.78010e-03 1.01881e-01 2.08753e-01 6.78520e-03 1.04747e-01 3.12883e-01 8.25360e-03 1.07794e-01 4.17327e-01 8.52340e-03 1.12529e-01 5.21501e-01 8.94560e-03 1.18269e-01 6.25640e-01 9.03390e-03 1.25478e-01 7.29636e-01 9.10210e-03 1.33819e-01 8.33472e-01 9.06240e-03 1.43451e-01 9.37158e-01 8.99040e-03 1.54207e-01 1.04063e+00 8.88340e-03 1.66140e-01 1.14393e+00 8.75440e-03 1.79157e-01 1.24699e+00 8.61560e-03 1.93267e-01 1.34984e+00 8.46370e-03 2.08410e-01 1.45245e+00 8.31050e-03 2.24580e-01 1.55482e+00 8.14970e-03 2.41730e-01 1.65694e+00 7.99020e-03 2.59840e-01 1.75881e+00 7.82640e-03 2.78880e-01 1.86042e+00 7.66430e-03 2.98830e-01 1.96178e+00 7.50000e-03 3.19660e-01 2.06287e+00 7.33740e-03 3.41350e-01 2.16370e+00 7.17380e-03 3.63870e-01 2.26426e+00 7.01170e-03 3.87200e-01 2.36456e+00 6.84940e-03 4.11310e-01 2.46459e+00 6.68860e-03 4.36190e-01 2.56435e+00 6.52810e-03 4.61800e-01 2.66385e+00 6.36900e-03 4.88130e-01 2.76309e+00 6.21050e-03 5.15150e-01 2.86205e+00 6.05340e-03 5.42850e-01 2.96076e+00 5.89720e-03 5.71200e-01 3.05921e+00 5.74230e-03 6.00180e-01 3.15741e+00 5.58860e-03 6.29780e-01 3.25534e+00 5.43620e-03 6.59960e-01 3.35303e+00 5.28510e-03 6.90720e-01 3.45046e+00 5.13540e-03 7.22030e-01 3.54766e+00 4.98700e-03 7.53880e-01 3.64461e+00 4.84020e-03 7.86240e-01 3.74132e+00 4.69480e-03 8.19100e-01 3.83780e+00 4.55100e-03 8.52440e-01 3.93404e+00 4.40880e-03 8.86250e-01 4.03007e+00 4.26820e-03 9.20500e-01 4.12587e+00 4.12920e-03 9.55180e-01 4.22145e+00 3.99190e-03 9.90280e-01 4.31683e+00 3.85640e-03 1.02577e+00 4.41199e+00 3.72260e-03 1.06164e+00 4.50696e+00 3.59060e-03 1.09789e+00 4.60172e+00 3.46050e-03 1.13450e+00 4.69630e+00 3.33220e-03 1.17140e+00 4.79069e+00 3.20580e-03 1.20870e+00 4.88489e+00 3.08130e-03 1.24620e+00 4.97892e+00 2.95880e-03 1.28410e+00 5.07278e+00 2.83830e-03 1.32230e+00 5.16646e+00 2.71990e-03 1.36070e+00 5.25999e+00 2.60340e-03 1.39940e+00 5.35336e+00 2.48910e-03 1.43830e+00 5.44658e+00 2.37680e-03 1.47750e+00 5.53966e+00 2.26660e-03 1.51690e+00 5.63259e+00 2.15870e-03 1.55650e+00 5.72539e+00 2.05280e-03 1.59630e+00 5.81806e+00 1.94920e-03 1.63630e+00 5.91060e+00 1.84780e-03 1.67640e+00 6.00302e+00 1.74860e-03 1.71680e+00 6.09532e+00 1.65170e-03 1.75730e+00 6.18752e+00 1.55710e-03 1.79790e+00 6.27961e+00 1.46480e-03 1.83880e+00 6.37159e+00 1.37480e-03 1.87970e+00 6.46348e+00 1.28710e-03 1.92080e+00 6.55528e+00 1.20180e-03 1.96190e+00 6.64699e+00 1.11890e-03 2.00320e+00 6.73862e+00 1.03830e-03 2.04460e+00 6.83016e+00 9.60170e-04 2.08610e+00 6.92164e+00 8.84450e-04 2.12770e+00 7.01304e+00 8.11160e-04 2.16930e+00 7.10438e+00 7.40320e-04 2.21110e+00 7.19565e+00 6.71950e-04 2.25290e+00 7.28687e+00 6.06040e-04 2.29470e+00 7.37803e+00 5.42630e-04 2.33660e+00 7.46914e+00 4.81710e-04 2.37860e+00 7.56020e+00 4.23310e-04 2.42060e+00 7.65122e+00 3.67430e-04 2.46260e+00 7.74220e+00 3.14080e-04 2.50470e+00 7.83314e+00 2.63280e-04 2.54680e+00 7.92405e+00 2.15020e-04 2.58890e+00 8.01492e+00 1.69340e-04 2.63110e+00 8.10577e+00 1.26230e-04 2.67330e+00 8.19659e+00 8.57010e-05 2.71550e+00 8.28739e+00 4.77740e-05 2.75770e+00 8.37817e+00 1.24600e-05 2.79990e+00 8.46893e+00 -2.02280e-05 2.84210e+00 8.55968e+00 -5.02730e-05 2.88430e+00 8.65041e+00 -7.76590e-05 2.92650e+00 8.74114e+00 -1.02370e-04 2.96870e+00 8.83185e+00 -1.24390e-04 3.01090e+00 8.92256e+00 -1.43740e-04 3.05310e+00 9.01326e+00 -1.60430e-04 3.09530e+00 9.10396e+00 -1.74560e-04 3.13750e+00 9.19466e+00 -1.86300e-04 3.17970e+00 9.28535e+00 -1.96070e-04 3.22180e+00 9.37605e+00 -2.04420e-04 3.26400e+00 9.46675e+00 -2.12810e-04 3.30620e+00 9.55745e+00 -2.21160e-04 3.34830e+00 0.00000e+00 1.00000e-01 1.00000e-01 1.02277e-01 1.03447e-01 1.02831e-01 2.07690e-01 1.05433e-01 1.06201e-01 3.12351e-01 1.06051e-01 1.09510e-01 4.16768e-01 1.06729e-01 1.14492e-01 5.21197e-01 1.06933e-01 1.20382e-01 6.25321e-01 1.07131e-01 1.27667e-01 7.29419e-01 1.07152e-01 1.36061e-01 8.33244e-01 1.07155e-01 1.45699e-01 9.36964e-01 1.07091e-01 1.56457e-01 1.04043e+00 1.07015e-01 1.68366e-01 1.14373e+00 1.06913e-01 1.81356e-01 1.24678e+00 1.06804e-01 1.95428e-01 1.34963e+00 1.06686e-01 2.10530e-01 1.45222e+00 1.06564e-01 2.26650e-01 1.55459e+00 1.06439e-01 2.43760e-01 1.65670e+00 1.06313e-01 2.61820e-01 1.75856e+00 1.06185e-01 2.80820e-01 1.86017e+00 1.06057e-01 3.00720e-01 1.96151e+00 1.05929e-01 3.21510e-01 2.06260e+00 1.05801e-01 3.43150e-01 2.16343e+00 1.05673e-01 3.65620e-01 2.26398e+00 1.05546e-01 3.88910e-01 2.36428e+00 1.05419e-01 4.12970e-01 2.46430e+00 1.05292e-01 4.37800e-01 2.56407e+00 1.05166e-01 4.63370e-01 2.66357e+00 1.05041e-01 4.89660e-01 2.76280e+00 1.04917e-01 5.16640e-01 2.86177e+00 1.04793e-01 5.44290e-01 2.96048e+00 1.04670e-01 5.72600e-01 3.05893e+00 1.04548e-01 6.01540e-01 3.15713e+00 1.04427e-01 6.31100e-01 3.25507e+00 1.04307e-01 6.61240e-01 3.35275e+00 1.04188e-01 6.91960e-01 3.45019e+00 1.04070e-01 7.23240e-01 3.54739e+00 1.03953e-01 7.55040e-01 3.64434e+00 1.03837e-01 7.87370e-01 3.74106e+00 1.03722e-01 8.20190e-01 3.83754e+00 1.03609e-01 8.53500e-01 3.93380e+00 1.03497e-01 8.87270e-01 4.02983e+00 1.03386e-01 9.21490e-01 4.12563e+00 1.03276e-01 9.56130e-01 4.22123e+00 1.03167e-01 9.91200e-01 4.31661e+00 1.03060e-01 1.02666e+00 4.41178e+00 1.02954e-01 1.06250e+00 4.50675e+00 1.02850e-01 1.09871e+00 4.60152e+00 1.02747e-01 1.13530e+00 4.69610e+00 1.02645e-01 1.17220e+00 4.79050e+00 1.02545e-01 1.20940e+00 4.88471e+00 1.02447e-01 1.24700e+00 4.97875e+00 1.02350e-01 1.28480e+00 5.07261e+00 1.02254e-01 1.32290e+00 5.16631e+00 1.02160e-01 1.36130e+00 5.25984e+00 1.02068e-01 1.40000e+00 5.35322e+00 1.01977e-01 1.43890e+00 5.44645e+00 1.01888e-01 1.47800e+00 5.53953e+00 1.01801e-01 1.51740e+00 5.63247e+00 1.01715e-01 1.55700e+00 5.72527e+00 1.01631e-01 1.59670e+00 5.81795e+00 1.01549e-01 1.63670e+00 5.91050e+00 1.01468e-01 1.67690e+00 6.00292e+00 1.01390e-01 1.71720e+00 6.09524e+00 1.01313e-01 1.75770e+00 6.18744e+00 1.01238e-01 1.79830e+00 6.27953e+00 1.01164e-01 1.83910e+00 6.37152e+00 1.01093e-01 1.88000e+00 6.46342e+00 1.01023e-01 1.92110e+00 6.55522e+00 1.00955e-01 1.96220e+00 6.64694e+00 1.00889e-01 2.00350e+00 6.73857e+00 1.00825e-01 2.04490e+00 6.83012e+00 1.00763e-01 2.08630e+00 6.92160e+00 1.00703e-01 2.12790e+00 7.01301e+00 1.00645e-01 2.16950e+00 7.10435e+00 1.00588e-01 2.21120e+00 7.19563e+00 1.00534e-01 2.25300e+00 7.28685e+00 1.00482e-01 2.29490e+00 7.37801e+00 1.00431e-01 2.33680e+00 7.46913e+00 1.00383e-01 2.37870e+00 7.56019e+00 1.00336e-01 2.42070e+00 7.65122e+00 1.00292e-01 2.46270e+00 7.74220e+00 1.00249e-01 2.50480e+00 7.83314e+00 1.00209e-01 2.54690e+00 7.92405e+00 1.00170e-01 2.58900e+00 8.01493e+00 1.00134e-01 2.63120e+00 8.10578e+00 1.00100e-01 2.67330e+00 8.19660e+00 1.00068e-01 2.71550e+00 8.28740e+00 1.00037e-01 2.75770e+00 8.37818e+00 1.00009e-01 2.79990e+00 8.46895e+00 9.99832e-02 2.84210e+00 8.55970e+00 9.99593e-02 2.88430e+00 8.65043e+00 9.99376e-02 2.92650e+00 8.74115e+00 9.99179e-02 2.96870e+00 8.83187e+00 9.99005e-02 3.01090e+00 8.92257e+00 9.98852e-02 3.05310e+00 9.01328e+00 9.98720e-02 3.09530e+00 9.10398e+00 9.98608e-02 3.13750e+00 9.19467e+00 9.98515e-02 3.17970e+00 9.28537e+00 9.98437e-02 3.22180e+00 9.37606e+00 9.98367e-02 3.26400e+00 9.46676e+00 9.98300e-02 3.30610e+00 9.55746e+00 9.98233e-02 3.34830e+00 0.00000e+00 2.00000e-01 1.00000e-01 1.02166e-01 2.02031e-01 1.03736e-01 2.07096e-01 2.03431e-01 1.07488e-01 3.11952e-01 2.04342e-01 1.10832e-01 4.16388e-01 2.04758e-01 1.15952e-01 5.20888e-01 2.05101e-01 1.21940e-01 6.25058e-01 2.05208e-01 1.29306e-01 7.29183e-01 2.05295e-01 1.37750e-01 8.33032e-01 2.05282e-01 1.47418e-01 9.36761e-01 2.05260e-01 1.58184e-01 1.04023e+00 2.05197e-01 1.70090e-01 1.14353e+00 2.05130e-01 1.83065e-01 1.24658e+00 2.05047e-01 1.97116e-01 1.34942e+00 2.04963e-01 2.12190e-01 1.45201e+00 2.04872e-01 2.28290e-01 1.55437e+00 2.04781e-01 2.45360e-01 1.65647e+00 2.04688e-01 2.63390e-01 1.75833e+00 2.04594e-01 2.82350e-01 1.85993e+00 2.04500e-01 3.02220e-01 1.96127e+00 2.04405e-01 3.22960e-01 2.06236e+00 2.04311e-01 3.44570e-01 2.16318e+00 2.04216e-01 3.67010e-01 2.26373e+00 2.04122e-01 3.90250e-01 2.36402e+00 2.04028e-01 4.14280e-01 2.46405e+00 2.03935e-01 4.39080e-01 2.56381e+00 2.03842e-01 4.64610e-01 2.66331e+00 2.03749e-01 4.90870e-01 2.76254e+00 2.03657e-01 5.17810e-01 2.86151e+00 2.03566e-01 5.45440e-01 2.96022e+00 2.03475e-01 5.73710e-01 3.05868e+00 2.03385e-01 6.02620e-01 3.15687e+00 2.03295e-01 6.32140e-01 3.25482e+00 2.03206e-01 6.62260e-01 3.35251e+00 2.03118e-01 6.92950e-01 3.44995e+00 2.03030e-01 7.24190e-01 3.54715e+00 2.02944e-01 7.55970e-01 3.64411e+00 2.02858e-01 7.88260e-01 3.74083e+00 2.02773e-01 8.21060e-01 3.83732e+00 2.02689e-01 8.54340e-01 3.93358e+00 2.02605e-01 8.88080e-01 4.02961e+00 2.02523e-01 9.22270e-01 4.12542e+00 2.02441e-01 9.56890e-01 4.22102e+00 2.02360e-01 9.91930e-01 4.31640e+00 2.02281e-01 1.02736e+00 4.41158e+00 2.02202e-01 1.06318e+00 4.50656e+00 2.02125e-01 1.09937e+00 4.60134e+00 2.02048e-01 1.13590e+00 4.69593e+00 2.01973e-01 1.17280e+00 4.79033e+00 2.01898e-01 1.21000e+00 4.88454e+00 2.01825e-01 1.24750e+00 4.97859e+00 2.01753e-01 1.28530e+00 5.07245e+00 2.01682e-01 1.32340e+00 5.16616e+00 2.01612e-01 1.36180e+00 5.25970e+00 2.01543e-01 1.40040e+00 5.35308e+00 2.01475e-01 1.43930e+00 5.44632e+00 2.01409e-01 1.47840e+00 5.53941e+00 2.01344e-01 1.51780e+00 5.63235e+00 2.01280e-01 1.55740e+00 5.72516e+00 2.01218e-01 1.59710e+00 5.81784e+00 2.01156e-01 1.63710e+00 5.91040e+00 2.01096e-01 1.67720e+00 6.00283e+00 2.01038e-01 1.71750e+00 6.09515e+00 2.00980e-01 1.75800e+00 6.18735e+00 2.00924e-01 1.79860e+00 6.27945e+00 2.00869e-01 1.83940e+00 6.37145e+00 2.00816e-01 1.88030e+00 6.46335e+00 2.00764e-01 1.92130e+00 6.55516e+00 2.00714e-01 1.96250e+00 6.64688e+00 2.00664e-01 2.00370e+00 6.73852e+00 2.00617e-01 2.04510e+00 6.83007e+00 2.00570e-01 2.08650e+00 6.92156e+00 2.00525e-01 2.12810e+00 7.01297e+00 2.00482e-01 2.16970e+00 7.10432e+00 2.00440e-01 2.21140e+00 7.19560e+00 2.00399e-01 2.25320e+00 7.28682e+00 2.00360e-01 2.29500e+00 7.37799e+00 2.00322e-01 2.33690e+00 7.46911e+00 2.00286e-01 2.37880e+00 7.56018e+00 2.00251e-01 2.42080e+00 7.65120e+00 2.00218e-01 2.46280e+00 7.74219e+00 2.00186e-01 2.50490e+00 7.83313e+00 2.00156e-01 2.54700e+00 7.92405e+00 2.00128e-01 2.58910e+00 8.01493e+00 2.00100e-01 2.63120e+00 8.10578e+00 2.00075e-01 2.67340e+00 8.19660e+00 2.00051e-01 2.71560e+00 8.28741e+00 2.00028e-01 2.75770e+00 8.37819e+00 2.00007e-01 2.79990e+00 8.46895e+00 1.99988e-01 2.84210e+00 8.55970e+00 1.99970e-01 2.88430e+00 8.65044e+00 1.99954e-01 2.92650e+00 8.74116e+00 1.99939e-01 2.96870e+00 8.83188e+00 1.99926e-01 3.01090e+00 8.92258e+00 1.99915e-01 3.05310e+00 9.01329e+00 1.99905e-01 3.09530e+00 9.10399e+00 1.99896e-01 3.13750e+00 9.19468e+00 1.99889e-01 3.17970e+00 9.28538e+00 1.99883e-01 3.22180e+00 9.37608e+00 1.99878e-01 3.26400e+00 9.46677e+00 1.99873e-01 3.30610e+00 9.55747e+00 1.99868e-01 3.34830e+00 0.00000e+00 3.00000e-01 1.00000e-01 1.01986e-01 3.01206e-01 1.04192e-01 2.06994e-01 3.02109e-01 1.08308e-01 3.11681e-01 3.02687e-01 1.11758e-01 4.16192e-01 3.03103e-01 1.16944e-01 5.20664e-01 3.03297e-01 1.22986e-01 6.24871e-01 3.03446e-01 1.30412e-01 7.29002e-01 3.03482e-01 1.38891e-01 8.32865e-01 3.03506e-01 1.48590e-01 9.36599e-01 3.03481e-01 1.59368e-01 1.04007e+00 3.03452e-01 1.71281e-01 1.14338e+00 3.03403e-01 1.84251e-01 1.24642e+00 3.03353e-01 1.98292e-01 1.34926e+00 3.03295e-01 2.13350e-01 1.45184e+00 3.03237e-01 2.29430e-01 1.55420e+00 3.03175e-01 2.46480e-01 1.65630e+00 3.03114e-01 2.64490e-01 1.75815e+00 3.03052e-01 2.83420e-01 1.85975e+00 3.02989e-01 3.03270e-01 1.96109e+00 3.02927e-01 3.23990e-01 2.06217e+00 3.02864e-01 3.45570e-01 2.16299e+00 3.02802e-01 3.67980e-01 2.26354e+00 3.02740e-01 3.91210e-01 2.36383e+00 3.02678e-01 4.15210e-01 2.46385e+00 3.02616e-01 4.39980e-01 2.56362e+00 3.02554e-01 4.65490e-01 2.66311e+00 3.02493e-01 4.91720e-01 2.76235e+00 3.02432e-01 5.18640e-01 2.86132e+00 3.02371e-01 5.46240e-01 2.96003e+00 3.02311e-01 5.74500e-01 3.05848e+00 3.02251e-01 6.03380e-01 3.15668e+00 3.02192e-01 6.32880e-01 3.25463e+00 3.02133e-01 6.62980e-01 3.35232e+00 3.02074e-01 6.93640e-01 3.44977e+00 3.02016e-01 7.24860e-01 3.54697e+00 3.01959e-01 7.56620e-01 3.64393e+00 3.01902e-01 7.88900e-01 3.74065e+00 3.01845e-01 8.21670e-01 3.83714e+00 3.01789e-01 8.54930e-01 3.93341e+00 3.01734e-01 8.88650e-01 4.02944e+00 3.01679e-01 9.22820e-01 4.12526e+00 3.01625e-01 9.57420e-01 4.22086e+00 3.01572e-01 9.92440e-01 4.31625e+00 3.01519e-01 1.02786e+00 4.41143e+00 3.01466e-01 1.06366e+00 4.50641e+00 3.01415e-01 1.09983e+00 4.60120e+00 3.01364e-01 1.13640e+00 4.69579e+00 3.01314e-01 1.17320e+00 4.79019e+00 3.01264e-01 1.21040e+00 4.88442e+00 3.01216e-01 1.24790e+00 4.97846e+00 3.01167e-01 1.28570e+00 5.07233e+00 3.01120e-01 1.32380e+00 5.16604e+00 3.01074e-01 1.36220e+00 5.25959e+00 3.01028e-01 1.40080e+00 5.35298e+00 3.00983e-01 1.43970e+00 5.44622e+00 3.00939e-01 1.47880e+00 5.53931e+00 3.00896e-01 1.51810e+00 5.63226e+00 3.00853e-01 1.55760e+00 5.72507e+00 3.00812e-01 1.59740e+00 5.81776e+00 3.00771e-01 1.63730e+00 5.91032e+00 3.00731e-01 1.67740e+00 6.00275e+00 3.00692e-01 1.71770e+00 6.09508e+00 3.00654e-01 1.75820e+00 6.18729e+00 3.00616e-01 1.79880e+00 6.27939e+00 3.00580e-01 1.83960e+00 6.37139e+00 3.00544e-01 1.88050e+00 6.46330e+00 3.00510e-01 1.92150e+00 6.55511e+00 3.00476e-01 1.96260e+00 6.64683e+00 3.00443e-01 2.00390e+00 6.73847e+00 3.00411e-01 2.04520e+00 6.83003e+00 3.00380e-01 2.08670e+00 6.92152e+00 3.00350e-01 2.12820e+00 7.01294e+00 3.00321e-01 2.16980e+00 7.10428e+00 3.00293e-01 2.21150e+00 7.19557e+00 3.00266e-01 2.25330e+00 7.28680e+00 3.00240e-01 2.29510e+00 7.37797e+00 3.00215e-01 2.33700e+00 7.46909e+00 3.00191e-01 2.37890e+00 7.56016e+00 3.00168e-01 2.42090e+00 7.65119e+00 3.00146e-01 2.46290e+00 7.74217e+00 3.00125e-01 2.50490e+00 7.83312e+00 3.00104e-01 2.54700e+00 7.92404e+00 3.00085e-01 2.58910e+00 8.01492e+00 3.00067e-01 2.63130e+00 8.10577e+00 3.00050e-01 2.67340e+00 8.19660e+00 3.00034e-01 2.71560e+00 8.28741e+00 3.00019e-01 2.75780e+00 8.37819e+00 3.00005e-01 2.80000e+00 8.46895e+00 2.99992e-01 2.84210e+00 8.55970e+00 2.99980e-01 2.88430e+00 8.65044e+00 2.99969e-01 2.92650e+00 8.74117e+00 2.99960e-01 2.96870e+00 8.83188e+00 2.99951e-01 3.01090e+00 8.92259e+00 2.99943e-01 3.05310e+00 9.01329e+00 2.99937e-01 3.09530e+00 9.10399e+00 2.99931e-01 3.13750e+00 9.19469e+00 2.99927e-01 3.17970e+00 9.28539e+00 2.99923e-01 3.22180e+00 9.37608e+00 2.99919e-01 3.26400e+00 9.46678e+00 2.99916e-01 3.30610e+00 9.55748e+00 2.99912e-01 3.34830e+00 0.00000e+00 4.00000e-01 1.00000e-01 1.02017e-01 4.00569e-01 1.04396e-01 2.06857e-01 4.00993e-01 1.08710e-01 3.11639e-01 4.01311e-01 1.12263e-01 4.16043e-01 4.01498e-01 1.17505e-01 5.20575e-01 4.01636e-01 1.23586e-01 6.24740e-01 4.01694e-01 1.31043e-01 7.28904e-01 4.01737e-01 1.39550e-01 8.32753e-01 4.01738e-01 1.49266e-01 9.36503e-01 4.01737e-01 1.60057e-01 1.03997e+00 4.01717e-01 1.71974e-01 1.14328e+00 4.01698e-01 1.84946e-01 1.24632e+00 4.01670e-01 1.98983e-01 1.34916e+00 4.01643e-01 2.14040e-01 1.45174e+00 4.01614e-01 2.30100e-01 1.55410e+00 4.01584e-01 2.47140e-01 1.65619e+00 4.01553e-01 2.65140e-01 1.75804e+00 4.01522e-01 2.84060e-01 1.85964e+00 4.01491e-01 3.03890e-01 1.96097e+00 4.01460e-01 3.24600e-01 2.06205e+00 4.01429e-01 3.46170e-01 2.16287e+00 4.01398e-01 3.68560e-01 2.26342e+00 4.01367e-01 3.91770e-01 2.36371e+00 4.01336e-01 4.15760e-01 2.46373e+00 4.01305e-01 4.40520e-01 2.56349e+00 4.01274e-01 4.66010e-01 2.66299e+00 4.01244e-01 4.92230e-01 2.76223e+00 4.01214e-01 5.19140e-01 2.86120e+00 4.01183e-01 5.46720e-01 2.95991e+00 4.01153e-01 5.74960e-01 3.05836e+00 4.01124e-01 6.03840e-01 3.15656e+00 4.01094e-01 6.33320e-01 3.25451e+00 4.01065e-01 6.63400e-01 3.35220e+00 4.01035e-01 6.94060e-01 3.44965e+00 4.01007e-01 7.25270e-01 3.54685e+00 4.00978e-01 7.57010e-01 3.64382e+00 4.00949e-01 7.89270e-01 3.74054e+00 4.00921e-01 8.22040e-01 3.83704e+00 4.00893e-01 8.55280e-01 3.93330e+00 4.00866e-01 8.88990e-01 4.02934e+00 4.00839e-01 9.23150e-01 4.12516e+00 4.00812e-01 9.57740e-01 4.22076e+00 4.00785e-01 9.92750e-01 4.31615e+00 4.00758e-01 1.02816e+00 4.41134e+00 4.00732e-01 1.06395e+00 4.50632e+00 4.00707e-01 1.10010e+00 4.60111e+00 4.00681e-01 1.13660e+00 4.69570e+00 4.00656e-01 1.17350e+00 4.79011e+00 4.00632e-01 1.21070e+00 4.88433e+00 4.00607e-01 1.24810e+00 4.97838e+00 4.00583e-01 1.28590e+00 5.07226e+00 4.00560e-01 1.32400e+00 5.16597e+00 4.00536e-01 1.36240e+00 5.25952e+00 4.00514e-01 1.40100e+00 5.35291e+00 4.00491e-01 1.43980e+00 5.44615e+00 4.00469e-01 1.47890e+00 5.53925e+00 4.00448e-01 1.51830e+00 5.63220e+00 4.00426e-01 1.55780e+00 5.72502e+00 4.00406e-01 1.59750e+00 5.81771e+00 4.00385e-01 1.63750e+00 5.91027e+00 4.00365e-01 1.67760e+00 6.00271e+00 4.00346e-01 1.71790e+00 6.09503e+00 4.00327e-01 1.75830e+00 6.18724e+00 4.00308e-01 1.79890e+00 6.27935e+00 4.00290e-01 1.83970e+00 6.37135e+00 4.00272e-01 1.88060e+00 6.46326e+00 4.00255e-01 1.92160e+00 6.55507e+00 4.00238e-01 1.96270e+00 6.64680e+00 4.00222e-01 2.00400e+00 6.73844e+00 4.00206e-01 2.04530e+00 6.83001e+00 4.00190e-01 2.08670e+00 6.92150e+00 4.00175e-01 2.12830e+00 7.01291e+00 4.00161e-01 2.16990e+00 7.10426e+00 4.00147e-01 2.21160e+00 7.19555e+00 4.00133e-01 2.25330e+00 7.28678e+00 4.00120e-01 2.29510e+00 7.37795e+00 4.00108e-01 2.33700e+00 7.46908e+00 4.00096e-01 2.37890e+00 7.56015e+00 4.00084e-01 2.42090e+00 7.65118e+00 4.00073e-01 2.46290e+00 7.74217e+00 4.00062e-01 2.50500e+00 7.83312e+00 4.00052e-01 2.54710e+00 7.92403e+00 4.00043e-01 2.58920e+00 8.01491e+00 4.00034e-01 2.63130e+00 8.10577e+00 4.00025e-01 2.67340e+00 8.19660e+00 4.00017e-01 2.71560e+00 8.28740e+00 4.00010e-01 2.75780e+00 8.37819e+00 4.00003e-01 2.80000e+00 8.46895e+00 3.99996e-01 2.84220e+00 8.55970e+00 3.99990e-01 2.88440e+00 8.65044e+00 3.99985e-01 2.92650e+00 8.74117e+00 3.99980e-01 2.96870e+00 8.83188e+00 3.99976e-01 3.01090e+00 8.92259e+00 3.99972e-01 3.05310e+00 9.01330e+00 3.99969e-01 3.09530e+00 9.10400e+00 3.99966e-01 3.13750e+00 9.19469e+00 3.99963e-01 3.17970e+00 9.28539e+00 3.99961e-01 3.22180e+00 9.37609e+00 3.99960e-01 3.26400e+00 9.46679e+00 3.99958e-01 3.30610e+00 9.55748e+00 3.99956e-01 3.34830e+00 0.00000e+00 5.00000e-01 1.00000e-01 1.01947e-01 5.00000e-01 1.04462e-01 2.06895e-01 5.00000e-01 1.08841e-01 3.11564e-01 5.00000e-01 1.12418e-01 4.16048e-01 5.00000e-01 1.17688e-01 5.20512e-01 5.00000e-01 1.23778e-01 6.24723e-01 5.00000e-01 1.31250e-01 7.28855e-01 5.00000e-01 1.39762e-01 8.32727e-01 5.00000e-01 1.49488e-01 9.36463e-01 5.00000e-01 1.60281e-01 1.03994e+00 5.00000e-01 1.72202e-01 1.14324e+00 5.00000e-01 1.85173e-01 1.24628e+00 5.00000e-01 1.99210e-01 1.34912e+00 5.00000e-01 2.14260e-01 1.45170e+00 5.00000e-01 2.30320e-01 1.55406e+00 5.00000e-01 2.47360e-01 1.65615e+00 5.00000e-01 2.65350e-01 1.75801e+00 5.00000e-01 2.84270e-01 1.85960e+00 5.00000e-01 3.04100e-01 1.96094e+00 5.00000e-01 3.24800e-01 2.06201e+00 5.00000e-01 3.46360e-01 2.16283e+00 5.00000e-01 3.68750e-01 2.26338e+00 5.00000e-01 3.91960e-01 2.36367e+00 5.00000e-01 4.15940e-01 2.46369e+00 5.00000e-01 4.40700e-01 2.56345e+00 5.00000e-01 4.66190e-01 2.66295e+00 5.00000e-01 4.92400e-01 2.76218e+00 5.00000e-01 5.19300e-01 2.86116e+00 5.00000e-01 5.46880e-01 2.95987e+00 5.00000e-01 5.75120e-01 3.05832e+00 5.00000e-01 6.03990e-01 3.15652e+00 5.00000e-01 6.33470e-01 3.25447e+00 5.00000e-01 6.63540e-01 3.35216e+00 5.00000e-01 6.94190e-01 3.44961e+00 5.00000e-01 7.25400e-01 3.54682e+00 5.00000e-01 7.57140e-01 3.64378e+00 5.00000e-01 7.89400e-01 3.74051e+00 5.00000e-01 8.22160e-01 3.83700e+00 5.00000e-01 8.55400e-01 3.93326e+00 5.00000e-01 8.89110e-01 4.02930e+00 5.00000e-01 9.23260e-01 4.12512e+00 5.00000e-01 9.57850e-01 4.22073e+00 5.00000e-01 9.92850e-01 4.31612e+00 5.00000e-01 1.02825e+00 4.41131e+00 5.00000e-01 1.06404e+00 4.50629e+00 5.00000e-01 1.10020e+00 4.60108e+00 5.00000e-01 1.13670e+00 4.69567e+00 5.00000e-01 1.17360e+00 4.79008e+00 5.00000e-01 1.21070e+00 4.88431e+00 5.00000e-01 1.24820e+00 4.97836e+00 5.00000e-01 1.28600e+00 5.07223e+00 5.00000e-01 1.32410e+00 5.16594e+00 5.00000e-01 1.36240e+00 5.25950e+00 5.00000e-01 1.40100e+00 5.35289e+00 5.00000e-01 1.43990e+00 5.44613e+00 5.00000e-01 1.47900e+00 5.53923e+00 5.00000e-01 1.51830e+00 5.63218e+00 5.00000e-01 1.55790e+00 5.72500e+00 5.00000e-01 1.59760e+00 5.81769e+00 5.00000e-01 1.63750e+00 5.91025e+00 5.00000e-01 1.67760e+00 6.00269e+00 5.00000e-01 1.71790e+00 6.09501e+00 5.00000e-01 1.75840e+00 6.18723e+00 5.00000e-01 1.79900e+00 6.27934e+00 5.00000e-01 1.83970e+00 6.37134e+00 5.00000e-01 1.88060e+00 6.46325e+00 5.00000e-01 1.92160e+00 6.55506e+00 5.00000e-01 1.96270e+00 6.64679e+00 5.00000e-01 2.00400e+00 6.73843e+00 5.00000e-01 2.04530e+00 6.83000e+00 5.00000e-01 2.08680e+00 6.92149e+00 5.00000e-01 2.12830e+00 7.01291e+00 5.00000e-01 2.16990e+00 7.10426e+00 5.00000e-01 2.21160e+00 7.19555e+00 5.00000e-01 2.25330e+00 7.28677e+00 5.00000e-01 2.29520e+00 7.37795e+00 5.00000e-01 2.33700e+00 7.46907e+00 5.00000e-01 2.37900e+00 7.56014e+00 5.00000e-01 2.42090e+00 7.65117e+00 5.00000e-01 2.46290e+00 7.74216e+00 5.00000e-01 2.50500e+00 7.83311e+00 5.00000e-01 2.54710e+00 7.92403e+00 5.00000e-01 2.58920e+00 8.01491e+00 5.00000e-01 2.63130e+00 8.10577e+00 5.00000e-01 2.67340e+00 8.19660e+00 5.00000e-01 2.71560e+00 8.28740e+00 5.00000e-01 2.75780e+00 8.37819e+00 5.00000e-01 2.80000e+00 8.46895e+00 5.00000e-01 2.84220e+00 8.55970e+00 5.00000e-01 2.88440e+00 8.65044e+00 5.00000e-01 2.92660e+00 8.74117e+00 5.00000e-01 2.96870e+00 8.83188e+00 5.00000e-01 3.01090e+00 8.92259e+00 5.00000e-01 3.05310e+00 9.01330e+00 5.00000e-01 3.09530e+00 9.10400e+00 5.00000e-01 3.13750e+00 9.19469e+00 5.00000e-01 3.17970e+00 9.28539e+00 5.00000e-01 3.22180e+00 9.37609e+00 5.00000e-01 3.26400e+00 9.46679e+00 5.00000e-01 3.30610e+00 9.55749e+00 5.00000e-01 3.34830e+00 0.00000e+00 6.00000e-01 1.00000e-01 1.02017e-01 5.99432e-01 1.04396e-01 2.06857e-01 5.99007e-01 1.08710e-01 3.11639e-01 5.98689e-01 1.12263e-01 4.16043e-01 5.98502e-01 1.17505e-01 5.20575e-01 5.98364e-01 1.23586e-01 6.24740e-01 5.98306e-01 1.31043e-01 7.28904e-01 5.98263e-01 1.39550e-01 8.32753e-01 5.98262e-01 1.49266e-01 9.36503e-01 5.98263e-01 1.60057e-01 1.03997e+00 5.98282e-01 1.71974e-01 1.14328e+00 5.98302e-01 1.84946e-01 1.24632e+00 5.98330e-01 1.98983e-01 1.34916e+00 5.98357e-01 2.14040e-01 1.45174e+00 5.98386e-01 2.30100e-01 1.55410e+00 5.98416e-01 2.47140e-01 1.65619e+00 5.98447e-01 2.65140e-01 1.75804e+00 5.98478e-01 2.84060e-01 1.85964e+00 5.98509e-01 3.03890e-01 1.96097e+00 5.98540e-01 3.24600e-01 2.06205e+00 5.98571e-01 3.46170e-01 2.16287e+00 5.98602e-01 3.68560e-01 2.26342e+00 5.98633e-01 3.91770e-01 2.36371e+00 5.98664e-01 4.15760e-01 2.46373e+00 5.98695e-01 4.40520e-01 2.56349e+00 5.98726e-01 4.66010e-01 2.66299e+00 5.98756e-01 4.92230e-01 2.76223e+00 5.98786e-01 5.19140e-01 2.86120e+00 5.98817e-01 5.46720e-01 2.95991e+00 5.98847e-01 5.74960e-01 3.05836e+00 5.98876e-01 6.03840e-01 3.15656e+00 5.98906e-01 6.33320e-01 3.25451e+00 5.98935e-01 6.63400e-01 3.35220e+00 5.98965e-01 6.94060e-01 3.44965e+00 5.98993e-01 7.25270e-01 3.54685e+00 5.99022e-01 7.57010e-01 3.64382e+00 5.99051e-01 7.89270e-01 3.74054e+00 5.99079e-01 8.22040e-01 3.83704e+00 5.99107e-01 8.55280e-01 3.93330e+00 5.99134e-01 8.88990e-01 4.02934e+00 5.99161e-01 9.23150e-01 4.12516e+00 5.99188e-01 9.57740e-01 4.22076e+00 5.99215e-01 9.92750e-01 4.31615e+00 5.99241e-01 1.02816e+00 4.41134e+00 5.99268e-01 1.06395e+00 4.50632e+00 5.99293e-01 1.10010e+00 4.60111e+00 5.99319e-01 1.13660e+00 4.69570e+00 5.99344e-01 1.17350e+00 4.79011e+00 5.99368e-01 1.21070e+00 4.88433e+00 5.99393e-01 1.24810e+00 4.97838e+00 5.99417e-01 1.28590e+00 5.07226e+00 5.99440e-01 1.32400e+00 5.16597e+00 5.99463e-01 1.36240e+00 5.25952e+00 5.99486e-01 1.40100e+00 5.35291e+00 5.99509e-01 1.43980e+00 5.44615e+00 5.99531e-01 1.47890e+00 5.53925e+00 5.99552e-01 1.51830e+00 5.63220e+00 5.99574e-01 1.55780e+00 5.72502e+00 5.99594e-01 1.59750e+00 5.81771e+00 5.99615e-01 1.63750e+00 5.91027e+00 5.99635e-01 1.67760e+00 6.00271e+00 5.99654e-01 1.71790e+00 6.09503e+00 5.99673e-01 1.75830e+00 6.18724e+00 5.99692e-01 1.79890e+00 6.27935e+00 5.99710e-01 1.83970e+00 6.37135e+00 5.99728e-01 1.88060e+00 6.46326e+00 5.99745e-01 1.92160e+00 6.55507e+00 5.99762e-01 1.96270e+00 6.64680e+00 5.99778e-01 2.00400e+00 6.73844e+00 5.99794e-01 2.04530e+00 6.83001e+00 5.99810e-01 2.08670e+00 6.92150e+00 5.99825e-01 2.12830e+00 7.01291e+00 5.99839e-01 2.16990e+00 7.10426e+00 5.99853e-01 2.21160e+00 7.19555e+00 5.99867e-01 2.25330e+00 7.28678e+00 5.99880e-01 2.29510e+00 7.37795e+00 5.99892e-01 2.33700e+00 7.46908e+00 5.99904e-01 2.37890e+00 7.56015e+00 5.99916e-01 2.42090e+00 7.65118e+00 5.99927e-01 2.46290e+00 7.74217e+00 5.99937e-01 2.50500e+00 7.83312e+00 5.99947e-01 2.54710e+00 7.92403e+00 5.99957e-01 2.58920e+00 8.01491e+00 5.99966e-01 2.63130e+00 8.10577e+00 5.99975e-01 2.67340e+00 8.19660e+00 5.99983e-01 2.71560e+00 8.28740e+00 5.99990e-01 2.75780e+00 8.37819e+00 5.99997e-01 2.80000e+00 8.46895e+00 6.00004e-01 2.84220e+00 8.55970e+00 6.00010e-01 2.88440e+00 8.65044e+00 6.00015e-01 2.92650e+00 8.74117e+00 6.00020e-01 2.96870e+00 8.83188e+00 6.00024e-01 3.01090e+00 8.92259e+00 6.00028e-01 3.05310e+00 9.01330e+00 6.00031e-01 3.09530e+00 9.10400e+00 6.00034e-01 3.13750e+00 9.19469e+00 6.00036e-01 3.17970e+00 9.28539e+00 6.00038e-01 3.22180e+00 9.37609e+00 6.00040e-01 3.26400e+00 9.46679e+00 6.00042e-01 3.30610e+00 9.55748e+00 6.00043e-01 3.34830e+00 0.00000e+00 7.00000e-01 1.00000e-01 1.01986e-01 6.98794e-01 1.04192e-01 2.06994e-01 6.97891e-01 1.08308e-01 3.11681e-01 6.97313e-01 1.11758e-01 4.16192e-01 6.96897e-01 1.16944e-01 5.20664e-01 6.96703e-01 1.22986e-01 6.24871e-01 6.96554e-01 1.30412e-01 7.29002e-01 6.96518e-01 1.38891e-01 8.32865e-01 6.96494e-01 1.48590e-01 9.36599e-01 6.96519e-01 1.59368e-01 1.04007e+00 6.96548e-01 1.71281e-01 1.14338e+00 6.96597e-01 1.84251e-01 1.24642e+00 6.96647e-01 1.98292e-01 1.34926e+00 6.96705e-01 2.13350e-01 1.45184e+00 6.96763e-01 2.29430e-01 1.55420e+00 6.96825e-01 2.46480e-01 1.65630e+00 6.96886e-01 2.64490e-01 1.75815e+00 6.96948e-01 2.83420e-01 1.85975e+00 6.97010e-01 3.03270e-01 1.96109e+00 6.97073e-01 3.23990e-01 2.06217e+00 6.97135e-01 3.45570e-01 2.16299e+00 6.97198e-01 3.67980e-01 2.26354e+00 6.97260e-01 3.91210e-01 2.36383e+00 6.97322e-01 4.15210e-01 2.46385e+00 6.97384e-01 4.39980e-01 2.56362e+00 6.97446e-01 4.65490e-01 2.66311e+00 6.97507e-01 4.91720e-01 2.76235e+00 6.97568e-01 5.18640e-01 2.86132e+00 6.97629e-01 5.46240e-01 2.96003e+00 6.97689e-01 5.74500e-01 3.05848e+00 6.97749e-01 6.03380e-01 3.15668e+00 6.97808e-01 6.32880e-01 3.25463e+00 6.97867e-01 6.62980e-01 3.35232e+00 6.97926e-01 6.93640e-01 3.44977e+00 6.97984e-01 7.24860e-01 3.54697e+00 6.98041e-01 7.56620e-01 3.64393e+00 6.98098e-01 7.88900e-01 3.74065e+00 6.98155e-01 8.21670e-01 3.83714e+00 6.98210e-01 8.54930e-01 3.93341e+00 6.98266e-01 8.88650e-01 4.02944e+00 6.98321e-01 9.22820e-01 4.12526e+00 6.98375e-01 9.57420e-01 4.22086e+00 6.98428e-01 9.92440e-01 4.31625e+00 6.98481e-01 1.02786e+00 4.41143e+00 6.98533e-01 1.06366e+00 4.50641e+00 6.98585e-01 1.09983e+00 4.60120e+00 6.98636e-01 1.13640e+00 4.69579e+00 6.98686e-01 1.17320e+00 4.79019e+00 6.98736e-01 1.21040e+00 4.88442e+00 6.98784e-01 1.24790e+00 4.97846e+00 6.98832e-01 1.28570e+00 5.07233e+00 6.98880e-01 1.32380e+00 5.16604e+00 6.98926e-01 1.36220e+00 5.25959e+00 6.98972e-01 1.40080e+00 5.35298e+00 6.99017e-01 1.43970e+00 5.44622e+00 6.99061e-01 1.47880e+00 5.53931e+00 6.99104e-01 1.51810e+00 5.63226e+00 6.99147e-01 1.55760e+00 5.72507e+00 6.99188e-01 1.59740e+00 5.81776e+00 6.99229e-01 1.63730e+00 5.91032e+00 6.99269e-01 1.67740e+00 6.00275e+00 6.99308e-01 1.71770e+00 6.09508e+00 6.99346e-01 1.75820e+00 6.18729e+00 6.99384e-01 1.79880e+00 6.27939e+00 6.99420e-01 1.83960e+00 6.37139e+00 6.99456e-01 1.88050e+00 6.46330e+00 6.99490e-01 1.92150e+00 6.55511e+00 6.99524e-01 1.96260e+00 6.64683e+00 6.99557e-01 2.00390e+00 6.73847e+00 6.99588e-01 2.04520e+00 6.83003e+00 6.99619e-01 2.08670e+00 6.92152e+00 6.99649e-01 2.12820e+00 7.01294e+00 6.99678e-01 2.16980e+00 7.10428e+00 6.99706e-01 2.21150e+00 7.19557e+00 6.99733e-01 2.25330e+00 7.28680e+00 6.99759e-01 2.29510e+00 7.37797e+00 6.99785e-01 2.33700e+00 7.46909e+00 6.99809e-01 2.37890e+00 7.56016e+00 6.99832e-01 2.42090e+00 7.65119e+00 6.99854e-01 2.46290e+00 7.74218e+00 6.99875e-01 2.50490e+00 7.83312e+00 6.99895e-01 2.54700e+00 7.92404e+00 6.99914e-01 2.58910e+00 8.01492e+00 6.99933e-01 2.63130e+00 8.10577e+00 6.99950e-01 2.67340e+00 8.19660e+00 6.99966e-01 2.71560e+00 8.28741e+00 6.99981e-01 2.75780e+00 8.37819e+00 6.99995e-01 2.80000e+00 8.46895e+00 7.00008e-01 2.84210e+00 8.55970e+00 7.00019e-01 2.88430e+00 8.65044e+00 7.00030e-01 2.92650e+00 8.74117e+00 7.00040e-01 2.96870e+00 8.83188e+00 7.00049e-01 3.01090e+00 8.92259e+00 7.00056e-01 3.05310e+00 9.01329e+00 7.00063e-01 3.09530e+00 9.10399e+00 7.00068e-01 3.13750e+00 9.19469e+00 7.00073e-01 3.17970e+00 9.28539e+00 7.00077e-01 3.22180e+00 9.37608e+00 7.00081e-01 3.26400e+00 9.46678e+00 7.00084e-01 3.30610e+00 9.55748e+00 7.00087e-01 3.34830e+00 0.00000e+00 8.00000e-01 1.00000e-01 1.02166e-01 7.97969e-01 1.03736e-01 2.07096e-01 7.96569e-01 1.07488e-01 3.11952e-01 7.95658e-01 1.10832e-01 4.16388e-01 7.95242e-01 1.15952e-01 5.20888e-01 7.94899e-01 1.21940e-01 6.25058e-01 7.94792e-01 1.29306e-01 7.29183e-01 7.94705e-01 1.37750e-01 8.33032e-01 7.94718e-01 1.47418e-01 9.36761e-01 7.94740e-01 1.58184e-01 1.04023e+00 7.94803e-01 1.70090e-01 1.14353e+00 7.94870e-01 1.83065e-01 1.24658e+00 7.94953e-01 1.97116e-01 1.34942e+00 7.95037e-01 2.12190e-01 1.45201e+00 7.95128e-01 2.28290e-01 1.55437e+00 7.95219e-01 2.45360e-01 1.65647e+00 7.95312e-01 2.63390e-01 1.75833e+00 7.95406e-01 2.82350e-01 1.85993e+00 7.95500e-01 3.02220e-01 1.96127e+00 7.95595e-01 3.22960e-01 2.06236e+00 7.95689e-01 3.44570e-01 2.16318e+00 7.95784e-01 3.67010e-01 2.26373e+00 7.95878e-01 3.90250e-01 2.36402e+00 7.95972e-01 4.14280e-01 2.46405e+00 7.96065e-01 4.39080e-01 2.56381e+00 7.96158e-01 4.64610e-01 2.66331e+00 7.96251e-01 4.90870e-01 2.76254e+00 7.96343e-01 5.17810e-01 2.86151e+00 7.96434e-01 5.45440e-01 2.96022e+00 7.96525e-01 5.73710e-01 3.05868e+00 7.96615e-01 6.02620e-01 3.15687e+00 7.96705e-01 6.32140e-01 3.25482e+00 7.96794e-01 6.62260e-01 3.35251e+00 7.96882e-01 6.92950e-01 3.44995e+00 7.96970e-01 7.24190e-01 3.54715e+00 7.97056e-01 7.55970e-01 3.64411e+00 7.97142e-01 7.88260e-01 3.74083e+00 7.97227e-01 8.21060e-01 3.83732e+00 7.97312e-01 8.54340e-01 3.93358e+00 7.97395e-01 8.88080e-01 4.02961e+00 7.97477e-01 9.22270e-01 4.12542e+00 7.97559e-01 9.56890e-01 4.22102e+00 7.97639e-01 9.91930e-01 4.31640e+00 7.97719e-01 1.02736e+00 4.41158e+00 7.97798e-01 1.06318e+00 4.50656e+00 7.97875e-01 1.09937e+00 4.60134e+00 7.97952e-01 1.13590e+00 4.69593e+00 7.98027e-01 1.17280e+00 4.79033e+00 7.98102e-01 1.21000e+00 4.88454e+00 7.98175e-01 1.24750e+00 4.97859e+00 7.98247e-01 1.28530e+00 5.07245e+00 7.98318e-01 1.32340e+00 5.16616e+00 7.98388e-01 1.36180e+00 5.25970e+00 7.98457e-01 1.40040e+00 5.35308e+00 7.98524e-01 1.43930e+00 5.44632e+00 7.98591e-01 1.47840e+00 5.53941e+00 7.98656e-01 1.51780e+00 5.63235e+00 7.98720e-01 1.55740e+00 5.72516e+00 7.98782e-01 1.59710e+00 5.81784e+00 7.98844e-01 1.63710e+00 5.91040e+00 7.98904e-01 1.67720e+00 6.00283e+00 7.98962e-01 1.71750e+00 6.09515e+00 7.99020e-01 1.75800e+00 6.18735e+00 7.99076e-01 1.79860e+00 6.27945e+00 7.99130e-01 1.83940e+00 6.37145e+00 7.99184e-01 1.88030e+00 6.46335e+00 7.99236e-01 1.92130e+00 6.55516e+00 7.99286e-01 1.96250e+00 6.64688e+00 7.99335e-01 2.00370e+00 6.73852e+00 7.99383e-01 2.04510e+00 6.83007e+00 7.99430e-01 2.08650e+00 6.92156e+00 7.99474e-01 2.12810e+00 7.01297e+00 7.99518e-01 2.16970e+00 7.10432e+00 7.99560e-01 2.21140e+00 7.19560e+00 7.99601e-01 2.25320e+00 7.28682e+00 7.99640e-01 2.29500e+00 7.37799e+00 7.99677e-01 2.33690e+00 7.46911e+00 7.99714e-01 2.37880e+00 7.56018e+00 7.99748e-01 2.42080e+00 7.65120e+00 7.99782e-01 2.46280e+00 7.74219e+00 7.99813e-01 2.50490e+00 7.83313e+00 7.99843e-01 2.54700e+00 7.92405e+00 7.99872e-01 2.58910e+00 8.01493e+00 7.99899e-01 2.63120e+00 8.10578e+00 7.99925e-01 2.67340e+00 8.19660e+00 7.99949e-01 2.71560e+00 8.28741e+00 7.99972e-01 2.75770e+00 8.37819e+00 7.99993e-01 2.79990e+00 8.46895e+00 8.00012e-01 2.84210e+00 8.55970e+00 8.00030e-01 2.88430e+00 8.65044e+00 8.00046e-01 2.92650e+00 8.74116e+00 8.00061e-01 2.96870e+00 8.83188e+00 8.00074e-01 3.01090e+00 8.92258e+00 8.00085e-01 3.05310e+00 9.01329e+00 8.00095e-01 3.09530e+00 9.10399e+00 8.00103e-01 3.13750e+00 9.19468e+00 8.00110e-01 3.17970e+00 9.28538e+00 8.00116e-01 3.22180e+00 9.37608e+00 8.00122e-01 3.26400e+00 9.46677e+00 8.00127e-01 3.30610e+00 9.55747e+00 8.00131e-01 3.34830e+00 0.00000e+00 9.00000e-01 1.00000e-01 1.02277e-01 8.96553e-01 1.02831e-01 2.07690e-01 8.94567e-01 1.06201e-01 3.12351e-01 8.93949e-01 1.09510e-01 4.16768e-01 8.93271e-01 1.14492e-01 5.21197e-01 8.93067e-01 1.20382e-01 6.25321e-01 8.92869e-01 1.27667e-01 7.29419e-01 8.92848e-01 1.36061e-01 8.33244e-01 8.92845e-01 1.45699e-01 9.36964e-01 8.92909e-01 1.56457e-01 1.04043e+00 8.92985e-01 1.68366e-01 1.14373e+00 8.93087e-01 1.81356e-01 1.24678e+00 8.93196e-01 1.95428e-01 1.34963e+00 8.93314e-01 2.10530e-01 1.45222e+00 8.93436e-01 2.26650e-01 1.55459e+00 8.93561e-01 2.43760e-01 1.65670e+00 8.93687e-01 2.61820e-01 1.75856e+00 8.93815e-01 2.80820e-01 1.86017e+00 8.93943e-01 3.00720e-01 1.96151e+00 8.94071e-01 3.21510e-01 2.06260e+00 8.94199e-01 3.43150e-01 2.16343e+00 8.94327e-01 3.65620e-01 2.26398e+00 8.94454e-01 3.88910e-01 2.36428e+00 8.94581e-01 4.12970e-01 2.46430e+00 8.94708e-01 4.37800e-01 2.56407e+00 8.94834e-01 4.63370e-01 2.66357e+00 8.94959e-01 4.89660e-01 2.76280e+00 8.95083e-01 5.16640e-01 2.86177e+00 8.95207e-01 5.44290e-01 2.96048e+00 8.95330e-01 5.72600e-01 3.05893e+00 8.95452e-01 6.01540e-01 3.15713e+00 8.95573e-01 6.31100e-01 3.25507e+00 8.95693e-01 6.61240e-01 3.35275e+00 8.95812e-01 6.91960e-01 3.45019e+00 8.95930e-01 7.23240e-01 3.54739e+00 8.96047e-01 7.55040e-01 3.64434e+00 8.96163e-01 7.87370e-01 3.74106e+00 8.96278e-01 8.20190e-01 3.83754e+00 8.96391e-01 8.53500e-01 3.93380e+00 8.96503e-01 8.87270e-01 4.02983e+00 8.96614e-01 9.21490e-01 4.12563e+00 8.96724e-01 9.56130e-01 4.22123e+00 8.96833e-01 9.91200e-01 4.31661e+00 8.96940e-01 1.02666e+00 4.41178e+00 8.97046e-01 1.06250e+00 4.50675e+00 8.97150e-01 1.09871e+00 4.60152e+00 8.97253e-01 1.13530e+00 4.69610e+00 8.97355e-01 1.17220e+00 4.79050e+00 8.97455e-01 1.20940e+00 4.88471e+00 8.97553e-01 1.24700e+00 4.97875e+00 8.97650e-01 1.28480e+00 5.07261e+00 8.97746e-01 1.32290e+00 5.16631e+00 8.97840e-01 1.36130e+00 5.25984e+00 8.97932e-01 1.40000e+00 5.35322e+00 8.98023e-01 1.43890e+00 5.44645e+00 8.98112e-01 1.47800e+00 5.53953e+00 8.98199e-01 1.51740e+00 5.63247e+00 8.98285e-01 1.55700e+00 5.72527e+00 8.98369e-01 1.59670e+00 5.81795e+00 8.98451e-01 1.63670e+00 5.91050e+00 8.98531e-01 1.67690e+00 6.00292e+00 8.98610e-01 1.71720e+00 6.09524e+00 8.98687e-01 1.75770e+00 6.18744e+00 8.98762e-01 1.79830e+00 6.27953e+00 8.98836e-01 1.83910e+00 6.37152e+00 8.98907e-01 1.88000e+00 6.46342e+00 8.98977e-01 1.92110e+00 6.55522e+00 8.99044e-01 1.96220e+00 6.64694e+00 8.99110e-01 2.00350e+00 6.73857e+00 8.99174e-01 2.04490e+00 6.83012e+00 8.99237e-01 2.08630e+00 6.92160e+00 8.99297e-01 2.12790e+00 7.01301e+00 8.99355e-01 2.16950e+00 7.10435e+00 8.99411e-01 2.21120e+00 7.19563e+00 8.99466e-01 2.25300e+00 7.28685e+00 8.99518e-01 2.29490e+00 7.37801e+00 8.99569e-01 2.33680e+00 7.46913e+00 8.99617e-01 2.37870e+00 7.56019e+00 8.99664e-01 2.42070e+00 7.65122e+00 8.99708e-01 2.46270e+00 7.74220e+00 8.99750e-01 2.50480e+00 7.83314e+00 8.99791e-01 2.54690e+00 7.92405e+00 8.99829e-01 2.58900e+00 8.01493e+00 8.99866e-01 2.63120e+00 8.10578e+00 8.99900e-01 2.67330e+00 8.19660e+00 8.99932e-01 2.71550e+00 8.28740e+00 8.99962e-01 2.75770e+00 8.37818e+00 8.99990e-01 2.79990e+00 8.46895e+00 9.00016e-01 2.84210e+00 8.55970e+00 9.00040e-01 2.88430e+00 8.65043e+00 9.00062e-01 2.92650e+00 8.74115e+00 9.00082e-01 2.96870e+00 8.83187e+00 9.00099e-01 3.01090e+00 8.92257e+00 9.00114e-01 3.05310e+00 9.01328e+00 9.00128e-01 3.09530e+00 9.10398e+00 9.00139e-01 3.13750e+00 9.19467e+00 9.00148e-01 3.17970e+00 9.28537e+00 9.00156e-01 3.22180e+00 9.37606e+00 9.00163e-01 3.26400e+00 9.46676e+00 9.00170e-01 3.30610e+00 9.55746e+00 9.00176e-01 3.34830e+00 0.00000e+00 1.00000e+00 1.00000e-01 1.03546e-01 9.93220e-01 1.01881e-01 2.08753e-01 9.93215e-01 1.04747e-01 3.12883e-01 9.91746e-01 1.07794e-01 4.17327e-01 9.91477e-01 1.12529e-01 5.21501e-01 9.91054e-01 1.18269e-01 6.25640e-01 9.90966e-01 1.25478e-01 7.29636e-01 9.90898e-01 1.33819e-01 8.33472e-01 9.90938e-01 1.43451e-01 9.37158e-01 9.91010e-01 1.54207e-01 1.04063e+00 9.91117e-01 1.66140e-01 1.14393e+00 9.91246e-01 1.79157e-01 1.24699e+00 9.91384e-01 1.93267e-01 1.34984e+00 9.91536e-01 2.08410e-01 1.45245e+00 9.91690e-01 2.24580e-01 1.55482e+00 9.91850e-01 2.41730e-01 1.65694e+00 9.92010e-01 2.59840e-01 1.75881e+00 9.92174e-01 2.78880e-01 1.86042e+00 9.92336e-01 2.98830e-01 1.96178e+00 9.92500e-01 3.19660e-01 2.06287e+00 9.92663e-01 3.41350e-01 2.16370e+00 9.92826e-01 3.63870e-01 2.26426e+00 9.92988e-01 3.87200e-01 2.36456e+00 9.93151e-01 4.11310e-01 2.46459e+00 9.93311e-01 4.36190e-01 2.56435e+00 9.93472e-01 4.61800e-01 2.66385e+00 9.93631e-01 4.88130e-01 2.76309e+00 9.93789e-01 5.15150e-01 2.86205e+00 9.93947e-01 5.42850e-01 2.96076e+00 9.94103e-01 5.71200e-01 3.05921e+00 9.94258e-01 6.00180e-01 3.15741e+00 9.94411e-01 6.29780e-01 3.25534e+00 9.94564e-01 6.59960e-01 3.35303e+00 9.94715e-01 6.90720e-01 3.45046e+00 9.94865e-01 7.22030e-01 3.54766e+00 9.95013e-01 7.53880e-01 3.64461e+00 9.95160e-01 7.86240e-01 3.74132e+00 9.95305e-01 8.19100e-01 3.83780e+00 9.95449e-01 8.52440e-01 3.93404e+00 9.95591e-01 8.86250e-01 4.03007e+00 9.95732e-01 9.20500e-01 4.12587e+00 9.95871e-01 9.55180e-01 4.22145e+00 9.96008e-01 9.90280e-01 4.31683e+00 9.96143e-01 1.02577e+00 4.41199e+00 9.96277e-01 1.06164e+00 4.50696e+00 9.96409e-01 1.09789e+00 4.60172e+00 9.96539e-01 1.13450e+00 4.69630e+00 9.96668e-01 1.17140e+00 4.79069e+00 9.96794e-01 1.20870e+00 4.88489e+00 9.96919e-01 1.24620e+00 4.97892e+00 9.97041e-01 1.28410e+00 5.07278e+00 9.97162e-01 1.32230e+00 5.16646e+00 9.97280e-01 1.36070e+00 5.25999e+00 9.97396e-01 1.39940e+00 5.35336e+00 9.97511e-01 1.43830e+00 5.44658e+00 9.97623e-01 1.47750e+00 5.53966e+00 9.97733e-01 1.51690e+00 5.63259e+00 9.97841e-01 1.55650e+00 5.72539e+00 9.97947e-01 1.59630e+00 5.81806e+00 9.98051e-01 1.63630e+00 5.91060e+00 9.98152e-01 1.67640e+00 6.00302e+00 9.98251e-01 1.71680e+00 6.09532e+00 9.98348e-01 1.75730e+00 6.18752e+00 9.98443e-01 1.79790e+00 6.27961e+00 9.98535e-01 1.83880e+00 6.37159e+00 9.98625e-01 1.87970e+00 6.46348e+00 9.98713e-01 1.92080e+00 6.55528e+00 9.98798e-01 1.96190e+00 6.64699e+00 9.98881e-01 2.00320e+00 6.73862e+00 9.98961e-01 2.04460e+00 6.83016e+00 9.99040e-01 2.08610e+00 6.92164e+00 9.99115e-01 2.12770e+00 7.01304e+00 9.99189e-01 2.16930e+00 7.10438e+00 9.99259e-01 2.21110e+00 7.19565e+00 9.99328e-01 2.25290e+00 7.28687e+00 9.99394e-01 2.29470e+00 7.37803e+00 9.99457e-01 2.33660e+00 7.46914e+00 9.99518e-01 2.37860e+00 7.56020e+00 9.99576e-01 2.42060e+00 7.65122e+00 9.99632e-01 2.46260e+00 7.74220e+00 9.99686e-01 2.50470e+00 7.83314e+00 9.99736e-01 2.54680e+00 7.92405e+00 9.99785e-01 2.58890e+00 8.01492e+00 9.99830e-01 2.63110e+00 8.10577e+00 9.99873e-01 2.67330e+00 8.19659e+00 9.99914e-01 2.71550e+00 8.28739e+00 9.99952e-01 2.75770e+00 8.37817e+00 9.99987e-01 2.79990e+00 8.46893e+00 1.00002e+00 2.84210e+00 8.55968e+00 1.00005e+00 2.88430e+00 8.65041e+00 1.00008e+00 2.92650e+00 8.74114e+00 1.00010e+00 2.96870e+00 8.83185e+00 1.00012e+00 3.01090e+00 8.92256e+00 1.00014e+00 3.05310e+00 9.01326e+00 1.00016e+00 3.09530e+00 9.10396e+00 1.00017e+00 3.13750e+00 9.19466e+00 1.00019e+00 3.17970e+00 9.28535e+00 1.00020e+00 3.22180e+00 9.37605e+00 1.00020e+00 3.26400e+00 9.46675e+00 1.00021e+00 3.30620e+00 9.55745e+00 1.00022e+00 3.34830e+00 0.00000e+00 0.00000e+00 2.00000e-01 1.02521e-01 5.69050e-03 1.99999e-01 2.05930e-01 5.35970e-03 2.02181e-01 3.09102e-01 5.94570e-03 2.05504e-01 4.12530e-01 6.03120e-03 2.10011e-01 5.15646e-01 6.24930e-03 2.15902e-01 6.18776e-01 6.28940e-03 2.22971e-01 7.21669e-01 6.33550e-03 2.31353e-01 8.24490e-01 6.30010e-03 2.40877e-01 9.27092e-01 6.26250e-03 2.51613e-01 1.02956e+00 6.18590e-03 2.63446e-01 1.13182e+00 6.11040e-03 2.76406e-01 1.23390e+00 6.01580e-03 2.90413e-01 1.33575e+00 5.92350e-03 3.05470e-01 1.43741e+00 5.82120e-03 3.21530e-01 1.53883e+00 5.72110e-03 3.38580e-01 1.64004e+00 5.61530e-03 3.56570e-01 1.74101e+00 5.51110e-03 3.75500e-01 1.84175e+00 5.40360e-03 3.95330e-01 1.94224e+00 5.29720e-03 4.16030e-01 2.04250e+00 5.18880e-03 4.37590e-01 2.14251e+00 5.08130e-03 4.59970e-01 2.24229e+00 4.97260e-03 4.83160e-01 2.34181e+00 4.86460e-03 5.07140e-01 2.44109e+00 4.75610e-03 5.31870e-01 2.54012e+00 4.64820e-03 5.57340e-01 2.63890e+00 4.54010e-03 5.83520e-01 2.73744e+00 4.43260e-03 6.10400e-01 2.83574e+00 4.32520e-03 6.37950e-01 2.93379e+00 4.21840e-03 6.66160e-01 3.03161e+00 4.11200e-03 6.94990e-01 3.12918e+00 4.00610e-03 7.24440e-01 3.22652e+00 3.90080e-03 7.54480e-01 3.32362e+00 3.79610e-03 7.85090e-01 3.42049e+00 3.69200e-03 8.16260e-01 3.51714e+00 3.58860e-03 8.47970e-01 3.61356e+00 3.48590e-03 8.80190e-01 3.70975e+00 3.38410e-03 9.12910e-01 3.80573e+00 3.28300e-03 9.46120e-01 3.90150e+00 3.18280e-03 9.79790e-01 3.99706e+00 3.08360e-03 1.01391e+00 4.09241e+00 2.98520e-03 1.04846e+00 4.18756e+00 2.88780e-03 1.08343e+00 4.28252e+00 2.79150e-03 1.11880e+00 4.37728e+00 2.69610e-03 1.15455e+00 4.47185e+00 2.60190e-03 1.19068e+00 4.56624e+00 2.50880e-03 1.22720e+00 4.66045e+00 2.41680e-03 1.26400e+00 4.75449e+00 2.32600e-03 1.30110e+00 4.84836e+00 2.23650e-03 1.33860e+00 4.94207e+00 2.14820e-03 1.37640e+00 5.03561e+00 2.06120e-03 1.41440e+00 5.12901e+00 1.97540e-03 1.45280e+00 5.22225e+00 1.89110e-03 1.49130e+00 5.31535e+00 1.80810e-03 1.53020e+00 5.40831e+00 1.72640e-03 1.56930e+00 5.50113e+00 1.64630e-03 1.60860e+00 5.59383e+00 1.56750e-03 1.64810e+00 5.68640e+00 1.49030e-03 1.68780e+00 5.77885e+00 1.41450e-03 1.72780e+00 5.87118e+00 1.34020e-03 1.76790e+00 5.96340e+00 1.26760e-03 1.80810e+00 6.05552e+00 1.19640e-03 1.84860e+00 6.14754e+00 1.12690e-03 1.88920e+00 6.23946e+00 1.05900e-03 1.92990e+00 6.33129e+00 9.92660e-04 1.97080e+00 6.42303e+00 9.28020e-04 2.01180e+00 6.51468e+00 8.65050e-04 2.05300e+00 6.60626e+00 8.03760e-04 2.09420e+00 6.69776e+00 7.44190e-04 2.13560e+00 6.78919e+00 6.86340e-04 2.17700e+00 6.88055e+00 6.30230e-04 2.21860e+00 6.97186e+00 5.75870e-04 2.26020e+00 7.06310e+00 5.23290e-04 2.30190e+00 7.15428e+00 4.72490e-04 2.34370e+00 7.24542e+00 4.23500e-04 2.38550e+00 7.33650e+00 3.76320e-04 2.42740e+00 7.42754e+00 3.30970e-04 2.46930e+00 7.51854e+00 2.87460e-04 2.51130e+00 7.60950e+00 2.45800e-04 2.55330e+00 7.70042e+00 2.06000e-04 2.59540e+00 7.79132e+00 1.68080e-04 2.63750e+00 7.88218e+00 1.32050e-04 2.67960e+00 7.97302e+00 9.79170e-05 2.72180e+00 8.06383e+00 6.56920e-05 2.76390e+00 8.15462e+00 3.53880e-05 2.80610e+00 8.24539e+00 7.01730e-06 2.84830e+00 8.33615e+00 -1.94070e-05 2.89050e+00 8.42689e+00 -4.38710e-05 2.93270e+00 8.51762e+00 -6.63600e-05 2.97490e+00 8.60834e+00 -8.68580e-05 3.01710e+00 8.69906e+00 -1.05350e-04 3.05940e+00 8.78976e+00 -1.21840e-04 3.10160e+00 8.88046e+00 -1.36330e-04 3.14380e+00 8.97116e+00 -1.48860e-04 3.18600e+00 9.06185e+00 -1.59560e-04 3.22810e+00 9.15255e+00 -1.68630e-04 3.27030e+00 9.24324e+00 -1.76680e-04 3.31250e+00 9.33394e+00 -1.84350e-04 3.35460e+00 9.42464e+00 -1.93760e-04 3.39680e+00 9.51534e+00 -2.03460e-04 3.43890e+00 0.00000e+00 1.00000e-01 2.00000e-01 1.01526e-01 1.03092e-01 2.00801e-01 2.05165e-01 1.04396e-01 2.03564e-01 3.08792e-01 1.04496e-01 2.07305e-01 4.12139e-01 1.04862e-01 2.12007e-01 5.15397e-01 1.04932e-01 2.18088e-01 6.18507e-01 1.05044e-01 2.25229e-01 7.21446e-01 1.05044e-01 2.33667e-01 8.24258e-01 1.05041e-01 2.43200e-01 9.26869e-01 1.04993e-01 2.53933e-01 1.02933e+00 1.04941e-01 2.65743e-01 1.13158e+00 1.04872e-01 2.78672e-01 1.23365e+00 1.04800e-01 2.92639e-01 1.33549e+00 1.04722e-01 3.07660e-01 1.43714e+00 1.04643e-01 3.23670e-01 1.53855e+00 1.04560e-01 3.40670e-01 1.63975e+00 1.04478e-01 3.58610e-01 1.74071e+00 1.04394e-01 3.77490e-01 1.84144e+00 1.04310e-01 3.97270e-01 1.94193e+00 1.04225e-01 4.17920e-01 2.04219e+00 1.04139e-01 4.39430e-01 2.14220e+00 1.04054e-01 4.61770e-01 2.24196e+00 1.03968e-01 4.84910e-01 2.34148e+00 1.03882e-01 5.08840e-01 2.44076e+00 1.03797e-01 5.33520e-01 2.53979e+00 1.03711e-01 5.58950e-01 2.63857e+00 1.03626e-01 5.85080e-01 2.73712e+00 1.03540e-01 6.11920e-01 2.83541e+00 1.03455e-01 6.39430e-01 2.93347e+00 1.03371e-01 6.67590e-01 3.03128e+00 1.03286e-01 6.96380e-01 3.12886e+00 1.03202e-01 7.25790e-01 3.22620e+00 1.03118e-01 7.55790e-01 3.32331e+00 1.03035e-01 7.86360e-01 3.42018e+00 1.02953e-01 8.17490e-01 3.51683e+00 1.02870e-01 8.49160e-01 3.61326e+00 1.02789e-01 8.81340e-01 3.70946e+00 1.02708e-01 9.14030e-01 3.80545e+00 1.02627e-01 9.47190e-01 3.90122e+00 1.02547e-01 9.80830e-01 3.99678e+00 1.02468e-01 1.01491e+00 4.09214e+00 1.02390e-01 1.04943e+00 4.18730e+00 1.02312e-01 1.08437e+00 4.28226e+00 1.02235e-01 1.11970e+00 4.37703e+00 1.02159e-01 1.15542e+00 4.47161e+00 1.02084e-01 1.19152e+00 4.56601e+00 1.02010e-01 1.22800e+00 4.66023e+00 1.01936e-01 1.26480e+00 4.75427e+00 1.01864e-01 1.30190e+00 4.84815e+00 1.01792e-01 1.33930e+00 4.94187e+00 1.01722e-01 1.37710e+00 5.03542e+00 1.01652e-01 1.41510e+00 5.12882e+00 1.01584e-01 1.45340e+00 5.22207e+00 1.01516e-01 1.49190e+00 5.31518e+00 1.01450e-01 1.53080e+00 5.40815e+00 1.01384e-01 1.56980e+00 5.50098e+00 1.01320e-01 1.60910e+00 5.59368e+00 1.01257e-01 1.64860e+00 5.68626e+00 1.01195e-01 1.68830e+00 5.77872e+00 1.01135e-01 1.72820e+00 5.87106e+00 1.01075e-01 1.76830e+00 5.96329e+00 1.01017e-01 1.80860e+00 6.05541e+00 1.00960e-01 1.84900e+00 6.14744e+00 1.00904e-01 1.88960e+00 6.23936e+00 1.00850e-01 1.93030e+00 6.33120e+00 1.00797e-01 1.97120e+00 6.42295e+00 1.00745e-01 2.01220e+00 6.51461e+00 1.00694e-01 2.05330e+00 6.60619e+00 1.00645e-01 2.09450e+00 6.69770e+00 1.00597e-01 2.13580e+00 6.78913e+00 1.00551e-01 2.17730e+00 6.88050e+00 1.00506e-01 2.21880e+00 6.97181e+00 1.00462e-01 2.26040e+00 7.06306e+00 1.00420e-01 2.30210e+00 7.15425e+00 1.00379e-01 2.34380e+00 7.24538e+00 1.00340e-01 2.38570e+00 7.33647e+00 1.00302e-01 2.42750e+00 7.42752e+00 1.00266e-01 2.46950e+00 7.51852e+00 1.00231e-01 2.51140e+00 7.60948e+00 1.00197e-01 2.55340e+00 7.70041e+00 1.00165e-01 2.59550e+00 7.79131e+00 1.00135e-01 2.63760e+00 7.88218e+00 1.00106e-01 2.67970e+00 7.97302e+00 1.00078e-01 2.72180e+00 8.06383e+00 1.00053e-01 2.76400e+00 8.15462e+00 1.00028e-01 2.80620e+00 8.24540e+00 1.00005e-01 2.84830e+00 8.33616e+00 9.99842e-02 2.89050e+00 8.42690e+00 9.99646e-02 2.93270e+00 8.51763e+00 9.99465e-02 2.97500e+00 8.60835e+00 9.99301e-02 3.01720e+00 8.69907e+00 9.99153e-02 3.05940e+00 8.78977e+00 9.99021e-02 3.10160e+00 8.88047e+00 9.98905e-02 3.14380e+00 8.97117e+00 9.98805e-02 3.18600e+00 9.06187e+00 9.98719e-02 3.22810e+00 9.15256e+00 9.98646e-02 3.27030e+00 9.24326e+00 9.98583e-02 3.31250e+00 9.33395e+00 9.98520e-02 3.35460e+00 9.42465e+00 9.98453e-02 3.39680e+00 9.51535e+00 9.98384e-02 3.43890e+00 0.00000e+00 2.00000e-01 2.00000e-01 1.01470e-01 2.01729e-01 2.01163e-01 2.04561e-01 2.02747e-01 2.04375e-01 3.08386e-01 2.03286e-01 2.08433e-01 4.11834e-01 2.03454e-01 2.13286e-01 5.15118e-01 2.03655e-01 2.19533e-01 6.18287e-01 2.03695e-01 2.26768e-01 7.21226e-01 2.03744e-01 2.35282e-01 8.24063e-01 2.03725e-01 2.44852e-01 9.26669e-01 2.03706e-01 2.55606e-01 1.02914e+00 2.03661e-01 2.67417e-01 1.13138e+00 2.03615e-01 2.80338e-01 1.23344e+00 2.03559e-01 2.94286e-01 1.33528e+00 2.03503e-01 3.09280e-01 1.43692e+00 2.03443e-01 3.25260e-01 1.53833e+00 2.03383e-01 3.42230e-01 1.63952e+00 2.03321e-01 3.60140e-01 1.74048e+00 2.03260e-01 3.78990e-01 1.84120e+00 2.03197e-01 3.98730e-01 1.94169e+00 2.03135e-01 4.19350e-01 2.04194e+00 2.03072e-01 4.40820e-01 2.14194e+00 2.03009e-01 4.63120e-01 2.24171e+00 2.02946e-01 4.86230e-01 2.34122e+00 2.02883e-01 5.10120e-01 2.44050e+00 2.02820e-01 5.34770e-01 2.53953e+00 2.02757e-01 5.60160e-01 2.63831e+00 2.02694e-01 5.86270e-01 2.73686e+00 2.02631e-01 6.13070e-01 2.83515e+00 2.02568e-01 6.40540e-01 2.93321e+00 2.02505e-01 6.68670e-01 3.03103e+00 2.02443e-01 6.97440e-01 3.12860e+00 2.02381e-01 7.26810e-01 3.22595e+00 2.02319e-01 7.56780e-01 3.32306e+00 2.02257e-01 7.87320e-01 3.41994e+00 2.02196e-01 8.18420e-01 3.51659e+00 2.02135e-01 8.50060e-01 3.61302e+00 2.02075e-01 8.82220e-01 3.70923e+00 2.02015e-01 9.14870e-01 3.80522e+00 2.01955e-01 9.48010e-01 3.90100e+00 2.01896e-01 9.81620e-01 3.99656e+00 2.01838e-01 1.01568e+00 4.09193e+00 2.01779e-01 1.05017e+00 4.18709e+00 2.01722e-01 1.08508e+00 4.28206e+00 2.01665e-01 1.12039e+00 4.37683e+00 2.01608e-01 1.15609e+00 4.47142e+00 2.01553e-01 1.19216e+00 4.56582e+00 2.01497e-01 1.22860e+00 4.66005e+00 2.01443e-01 1.26540e+00 4.75410e+00 2.01389e-01 1.30250e+00 4.84798e+00 2.01336e-01 1.33990e+00 4.94170e+00 2.01283e-01 1.37760e+00 5.03526e+00 2.01232e-01 1.41560e+00 5.12867e+00 2.01181e-01 1.45390e+00 5.22193e+00 2.01130e-01 1.49240e+00 5.31504e+00 2.01081e-01 1.53120e+00 5.40801e+00 2.01032e-01 1.57020e+00 5.50085e+00 2.00985e-01 1.60950e+00 5.59356e+00 2.00938e-01 1.64900e+00 5.68614e+00 2.00892e-01 1.68870e+00 5.77861e+00 2.00846e-01 1.72860e+00 5.87096e+00 2.00802e-01 1.76860e+00 5.96319e+00 2.00759e-01 1.80890e+00 6.05532e+00 2.00716e-01 1.84930e+00 6.14735e+00 2.00675e-01 1.88980e+00 6.23928e+00 2.00634e-01 1.93060e+00 6.33112e+00 2.00594e-01 1.97140e+00 6.42288e+00 2.00556e-01 2.01240e+00 6.51454e+00 2.00518e-01 2.05350e+00 6.60613e+00 2.00482e-01 2.09470e+00 6.69764e+00 2.00446e-01 2.13600e+00 6.78908e+00 2.00411e-01 2.17750e+00 6.88046e+00 2.00378e-01 2.21900e+00 6.97177e+00 2.00345e-01 2.26060e+00 7.06302e+00 2.00314e-01 2.30220e+00 7.15421e+00 2.00283e-01 2.34400e+00 7.24535e+00 2.00254e-01 2.38580e+00 7.33645e+00 2.00226e-01 2.42760e+00 7.42750e+00 2.00198e-01 2.46960e+00 7.51850e+00 2.00172e-01 2.51150e+00 7.60947e+00 2.00147e-01 2.55350e+00 7.70040e+00 2.00123e-01 2.59560e+00 7.79130e+00 2.00101e-01 2.63770e+00 7.88217e+00 2.00079e-01 2.67980e+00 7.97301e+00 2.00059e-01 2.72190e+00 8.06383e+00 2.00039e-01 2.76400e+00 8.15462e+00 2.00021e-01 2.80620e+00 8.24540e+00 2.00004e-01 2.84840e+00 8.33616e+00 1.99988e-01 2.89060e+00 8.42691e+00 1.99973e-01 2.93280e+00 8.51764e+00 1.99960e-01 2.97500e+00 8.60836e+00 1.99948e-01 3.01720e+00 8.69907e+00 1.99937e-01 3.05940e+00 8.78978e+00 1.99927e-01 3.10160e+00 8.88048e+00 1.99918e-01 3.14380e+00 8.97118e+00 1.99911e-01 3.18600e+00 9.06188e+00 1.99904e-01 3.22810e+00 9.15257e+00 1.99899e-01 3.27030e+00 9.24327e+00 1.99894e-01 3.31250e+00 9.33396e+00 1.99889e-01 3.35460e+00 9.42466e+00 1.99885e-01 3.39680e+00 9.51536e+00 1.99880e-01 3.43890e+00 0.00000e+00 3.00000e-01 2.00000e-01 1.01320e-01 3.00947e-01 2.01480e-01 2.04436e-01 3.01636e-01 2.04872e-01 3.08087e-01 3.02001e-01 2.09136e-01 4.11634e-01 3.02252e-01 2.14132e-01 5.14908e-01 3.02348e-01 2.20485e-01 6.18114e-01 3.02440e-01 2.27806e-01 7.21057e-01 3.02451e-01 2.36381e-01 8.23907e-01 3.02464e-01 2.45991e-01 9.26513e-01 3.02442e-01 2.56770e-01 1.02899e+00 3.02422e-01 2.68590e-01 1.13122e+00 3.02387e-01 2.81512e-01 1.23329e+00 3.02353e-01 2.95452e-01 1.33512e+00 3.02315e-01 3.10430e-01 1.43676e+00 3.02276e-01 3.26400e-01 1.53816e+00 3.02236e-01 3.43350e-01 1.63935e+00 3.02196e-01 3.61240e-01 1.74030e+00 3.02155e-01 3.80060e-01 1.84102e+00 3.02114e-01 3.99780e-01 1.94150e+00 3.02073e-01 4.20370e-01 2.04175e+00 3.02032e-01 4.41820e-01 2.14175e+00 3.01990e-01 4.64100e-01 2.24152e+00 3.01949e-01 4.87180e-01 2.34103e+00 3.01907e-01 5.11050e-01 2.44030e+00 3.01865e-01 5.35670e-01 2.53933e+00 3.01824e-01 5.61040e-01 2.63812e+00 3.01782e-01 5.87120e-01 2.73666e+00 3.01741e-01 6.13900e-01 2.83496e+00 3.01700e-01 6.41350e-01 2.93301e+00 3.01658e-01 6.69460e-01 3.03083e+00 3.01617e-01 6.98190e-01 3.12841e+00 3.01576e-01 7.27550e-01 3.22576e+00 3.01535e-01 7.57500e-01 3.32287e+00 3.01495e-01 7.88020e-01 3.41975e+00 3.01454e-01 8.19100e-01 3.51641e+00 3.01414e-01 8.50710e-01 3.61284e+00 3.01374e-01 8.82850e-01 3.70905e+00 3.01335e-01 9.15480e-01 3.80504e+00 3.01295e-01 9.48600e-01 3.90082e+00 3.01256e-01 9.82190e-01 3.99640e+00 3.01218e-01 1.01623e+00 4.09176e+00 3.01179e-01 1.05070e+00 4.18693e+00 3.01141e-01 1.08559e+00 4.28190e+00 3.01103e-01 1.12089e+00 4.37668e+00 3.01066e-01 1.15657e+00 4.47127e+00 3.01029e-01 1.19262e+00 4.56568e+00 3.00993e-01 1.22900e+00 4.65991e+00 3.00957e-01 1.26580e+00 4.75397e+00 3.00921e-01 1.30290e+00 4.84786e+00 3.00886e-01 1.34030e+00 4.94158e+00 3.00851e-01 1.37800e+00 5.03514e+00 3.00817e-01 1.41600e+00 5.12856e+00 3.00783e-01 1.45420e+00 5.22182e+00 3.00750e-01 1.49270e+00 5.31493e+00 3.00717e-01 1.53150e+00 5.40791e+00 3.00685e-01 1.57050e+00 5.50075e+00 3.00653e-01 1.60980e+00 5.59347e+00 3.00622e-01 1.64930e+00 5.68606e+00 3.00592e-01 1.68890e+00 5.77852e+00 3.00562e-01 1.72880e+00 5.87088e+00 3.00532e-01 1.76890e+00 5.96312e+00 3.00503e-01 1.80910e+00 6.05525e+00 3.00475e-01 1.84950e+00 6.14729e+00 3.00448e-01 1.89010e+00 6.23922e+00 3.00421e-01 1.93080e+00 6.33107e+00 3.00395e-01 1.97160e+00 6.42282e+00 3.00369e-01 2.01260e+00 6.51449e+00 3.00344e-01 2.05370e+00 6.60608e+00 3.00320e-01 2.09490e+00 6.69760e+00 3.00296e-01 2.13620e+00 6.78904e+00 3.00273e-01 2.17760e+00 6.88042e+00 3.00251e-01 2.21910e+00 6.97173e+00 3.00229e-01 2.26070e+00 7.06299e+00 3.00208e-01 2.30230e+00 7.15418e+00 3.00188e-01 2.34410e+00 7.24533e+00 3.00169e-01 2.38590e+00 7.33643e+00 3.00150e-01 2.42770e+00 7.42748e+00 3.00132e-01 2.46960e+00 7.51848e+00 3.00114e-01 2.51160e+00 7.60945e+00 3.00098e-01 2.55360e+00 7.70039e+00 3.00082e-01 2.59560e+00 7.79129e+00 3.00067e-01 2.63770e+00 7.88216e+00 3.00052e-01 2.67980e+00 7.97300e+00 3.00039e-01 2.72190e+00 8.06382e+00 3.00026e-01 2.76410e+00 8.15462e+00 3.00014e-01 2.80620e+00 8.24540e+00 3.00003e-01 2.84840e+00 8.33616e+00 2.99992e-01 2.89060e+00 8.42691e+00 2.99982e-01 2.93280e+00 8.51764e+00 2.99973e-01 2.97500e+00 8.60836e+00 2.99965e-01 3.01720e+00 8.69908e+00 2.99958e-01 3.05940e+00 8.78979e+00 2.99952e-01 3.10160e+00 8.88049e+00 2.99946e-01 3.14380e+00 8.97119e+00 2.99941e-01 3.18590e+00 9.06188e+00 2.99937e-01 3.22810e+00 9.15258e+00 2.99933e-01 3.27030e+00 9.24327e+00 2.99930e-01 3.31250e+00 9.33397e+00 2.99927e-01 3.35460e+00 9.42467e+00 2.99924e-01 3.39680e+00 9.51537e+00 2.99921e-01 3.43890e+00 0.00000e+00 4.00000e-01 2.00000e-01 1.01361e-01 4.00437e-01 2.01622e-01 2.04295e-01 4.00752e-01 2.05151e-01 3.08017e-01 4.00971e-01 2.09523e-01 4.11485e-01 4.01082e-01 2.14593e-01 5.14813e-01 4.01168e-01 2.21022e-01 6.17995e-01 4.01198e-01 2.28389e-01 7.20962e-01 4.01224e-01 2.37010e-01 8.23804e-01 4.01221e-01 2.46644e-01 9.26419e-01 4.01219e-01 2.57444e-01 1.02889e+00 4.01204e-01 2.69272e-01 1.13113e+00 4.01190e-01 2.82198e-01 1.23319e+00 4.01172e-01 2.96136e-01 1.33502e+00 4.01154e-01 3.11110e-01 1.43666e+00 4.01134e-01 3.27070e-01 1.53806e+00 4.01114e-01 3.44010e-01 1.63924e+00 4.01094e-01 3.61890e-01 1.74019e+00 4.01074e-01 3.80690e-01 1.84091e+00 4.01053e-01 4.00400e-01 1.94139e+00 4.01033e-01 4.20980e-01 2.04164e+00 4.01012e-01 4.42410e-01 2.14164e+00 4.00992e-01 4.64670e-01 2.24140e+00 4.00971e-01 4.87740e-01 2.34091e+00 4.00950e-01 5.11590e-01 2.44019e+00 4.00930e-01 5.36210e-01 2.53921e+00 4.00909e-01 5.61560e-01 2.63800e+00 4.00888e-01 5.87630e-01 2.73654e+00 4.00868e-01 6.14390e-01 2.83484e+00 4.00847e-01 6.41830e-01 2.93290e+00 4.00827e-01 6.69920e-01 3.03071e+00 4.00806e-01 6.98650e-01 3.12830e+00 4.00786e-01 7.27990e-01 3.22564e+00 4.00766e-01 7.57920e-01 3.32275e+00 4.00745e-01 7.88430e-01 3.41964e+00 4.00725e-01 8.19500e-01 3.51629e+00 4.00705e-01 8.51100e-01 3.61273e+00 4.00685e-01 8.83220e-01 3.70894e+00 4.00666e-01 9.15850e-01 3.80494e+00 4.00646e-01 9.48960e-01 3.90072e+00 4.00627e-01 9.82530e-01 3.99629e+00 4.00607e-01 1.01656e+00 4.09166e+00 4.00588e-01 1.05102e+00 4.18683e+00 4.00569e-01 1.08590e+00 4.28181e+00 4.00550e-01 1.12118e+00 4.37659e+00 4.00532e-01 1.15685e+00 4.47118e+00 4.00513e-01 1.19290e+00 4.56559e+00 4.00495e-01 1.22930e+00 4.65983e+00 4.00477e-01 1.26600e+00 4.75388e+00 4.00460e-01 1.30310e+00 4.84778e+00 4.00442e-01 1.34050e+00 4.94150e+00 4.00425e-01 1.37820e+00 5.03507e+00 4.00408e-01 1.41620e+00 5.12848e+00 4.00391e-01 1.45440e+00 5.22175e+00 4.00374e-01 1.49290e+00 5.31487e+00 4.00358e-01 1.53170e+00 5.40785e+00 4.00342e-01 1.57070e+00 5.50069e+00 4.00326e-01 1.61000e+00 5.59341e+00 4.00311e-01 1.64940e+00 5.68600e+00 4.00295e-01 1.68910e+00 5.77847e+00 4.00280e-01 1.72900e+00 5.87083e+00 4.00266e-01 1.76900e+00 5.96307e+00 4.00251e-01 1.80920e+00 6.05521e+00 4.00237e-01 1.84960e+00 6.14724e+00 4.00224e-01 1.89020e+00 6.23918e+00 4.00210e-01 1.93090e+00 6.33103e+00 4.00197e-01 1.97170e+00 6.42279e+00 4.00184e-01 2.01270e+00 6.51446e+00 4.00172e-01 2.05380e+00 6.60605e+00 4.00160e-01 2.09500e+00 6.69757e+00 4.00148e-01 2.13630e+00 6.78902e+00 4.00136e-01 2.17770e+00 6.88040e+00 4.00125e-01 2.21920e+00 6.97171e+00 4.00114e-01 2.26070e+00 7.06297e+00 4.00104e-01 2.30240e+00 7.15417e+00 4.00094e-01 2.34410e+00 7.24531e+00 4.00084e-01 2.38590e+00 7.33641e+00 4.00075e-01 2.42780e+00 7.42746e+00 4.00066e-01 2.46970e+00 7.51847e+00 4.00057e-01 2.51160e+00 7.60944e+00 4.00049e-01 2.55360e+00 7.70038e+00 4.00041e-01 2.59570e+00 7.79128e+00 4.00033e-01 2.63770e+00 7.88215e+00 4.00026e-01 2.67980e+00 7.97300e+00 4.00019e-01 2.72200e+00 8.06382e+00 4.00013e-01 2.76410e+00 8.15462e+00 4.00007e-01 2.80630e+00 8.24540e+00 4.00001e-01 2.84840e+00 8.33616e+00 3.99996e-01 2.89060e+00 8.42691e+00 3.99991e-01 2.93280e+00 8.51764e+00 3.99987e-01 2.97500e+00 8.60836e+00 3.99983e-01 3.01720e+00 8.69908e+00 3.99979e-01 3.05940e+00 8.78979e+00 3.99976e-01 3.10160e+00 8.88049e+00 3.99973e-01 3.14380e+00 8.97119e+00 3.99970e-01 3.18590e+00 9.06189e+00 3.99968e-01 3.22810e+00 9.15258e+00 3.99967e-01 3.27030e+00 9.24328e+00 3.99965e-01 3.31250e+00 9.33397e+00 3.99963e-01 3.35460e+00 9.42467e+00 3.99962e-01 3.39680e+00 9.51537e+00 3.99961e-01 3.43890e+00 0.00000e+00 5.00000e-01 2.00000e-01 1.01296e-01 5.00000e-01 2.01670e-01 2.04324e-01 5.00000e-01 2.05231e-01 3.07941e-01 5.00000e-01 2.09643e-01 4.11481e-01 5.00000e-01 2.14745e-01 5.14753e-01 5.00000e-01 2.21193e-01 6.17976e-01 5.00000e-01 2.28582e-01 7.20917e-01 5.00000e-01 2.37213e-01 8.23778e-01 5.00000e-01 2.46861e-01 9.26382e-01 5.00000e-01 2.57666e-01 1.02886e+00 5.00000e-01 2.69499e-01 1.13109e+00 5.00000e-01 2.82426e-01 1.23316e+00 5.00000e-01 2.96364e-01 1.33499e+00 5.00000e-01 3.11340e-01 1.43662e+00 5.00000e-01 3.27290e-01 1.53802e+00 5.00000e-01 3.44230e-01 1.63921e+00 5.00000e-01 3.62100e-01 1.74015e+00 5.00000e-01 3.80910e-01 1.84087e+00 5.00000e-01 4.00600e-01 1.94135e+00 5.00000e-01 4.21180e-01 2.04160e+00 5.00000e-01 4.42610e-01 2.14160e+00 5.00000e-01 4.64870e-01 2.24136e+00 5.00000e-01 4.87930e-01 2.34087e+00 5.00000e-01 5.11780e-01 2.44015e+00 5.00000e-01 5.36380e-01 2.53917e+00 5.00000e-01 5.61730e-01 2.63796e+00 5.00000e-01 5.87790e-01 2.73650e+00 5.00000e-01 6.14550e-01 2.83480e+00 5.00000e-01 6.41990e-01 2.93286e+00 5.00000e-01 6.70080e-01 3.03067e+00 5.00000e-01 6.98800e-01 3.12826e+00 5.00000e-01 7.28130e-01 3.22560e+00 5.00000e-01 7.58060e-01 3.32272e+00 5.00000e-01 7.88570e-01 3.41960e+00 5.00000e-01 8.19630e-01 3.51626e+00 5.00000e-01 8.51230e-01 3.61269e+00 5.00000e-01 8.83350e-01 3.70890e+00 5.00000e-01 9.15970e-01 3.80490e+00 5.00000e-01 9.49070e-01 3.90068e+00 5.00000e-01 9.82650e-01 3.99626e+00 5.00000e-01 1.01667e+00 4.09163e+00 5.00000e-01 1.05113e+00 4.18680e+00 5.00000e-01 1.08600e+00 4.28177e+00 5.00000e-01 1.12128e+00 4.37656e+00 5.00000e-01 1.15695e+00 4.47115e+00 5.00000e-01 1.19299e+00 4.56556e+00 5.00000e-01 1.22940e+00 4.65980e+00 5.00000e-01 1.26610e+00 4.75386e+00 5.00000e-01 1.30320e+00 4.84775e+00 5.00000e-01 1.34060e+00 4.94148e+00 5.00000e-01 1.37830e+00 5.03504e+00 5.00000e-01 1.41620e+00 5.12846e+00 5.00000e-01 1.45450e+00 5.22173e+00 5.00000e-01 1.49300e+00 5.31485e+00 5.00000e-01 1.53180e+00 5.40783e+00 5.00000e-01 1.57080e+00 5.50067e+00 5.00000e-01 1.61000e+00 5.59339e+00 5.00000e-01 1.64950e+00 5.68598e+00 5.00000e-01 1.68920e+00 5.77845e+00 5.00000e-01 1.72900e+00 5.87081e+00 5.00000e-01 1.76910e+00 5.96305e+00 5.00000e-01 1.80930e+00 6.05519e+00 5.00000e-01 1.84970e+00 6.14723e+00 5.00000e-01 1.89020e+00 6.23917e+00 5.00000e-01 1.93090e+00 6.33102e+00 5.00000e-01 1.97170e+00 6.42277e+00 5.00000e-01 2.01270e+00 6.51445e+00 5.00000e-01 2.05380e+00 6.60604e+00 5.00000e-01 2.09500e+00 6.69756e+00 5.00000e-01 2.13630e+00 6.78901e+00 5.00000e-01 2.17770e+00 6.88039e+00 5.00000e-01 2.21920e+00 6.97170e+00 5.00000e-01 2.26080e+00 7.06296e+00 5.00000e-01 2.30240e+00 7.15416e+00 5.00000e-01 2.34410e+00 7.24531e+00 5.00000e-01 2.38590e+00 7.33641e+00 5.00000e-01 2.42780e+00 7.42746e+00 5.00000e-01 2.46970e+00 7.51847e+00 5.00000e-01 2.51160e+00 7.60944e+00 5.00000e-01 2.55360e+00 7.70038e+00 5.00000e-01 2.59570e+00 7.79128e+00 5.00000e-01 2.63770e+00 7.88215e+00 5.00000e-01 2.67980e+00 7.97300e+00 5.00000e-01 2.72200e+00 8.06382e+00 5.00000e-01 2.76410e+00 8.15462e+00 5.00000e-01 2.80630e+00 8.24540e+00 5.00000e-01 2.84840e+00 8.33616e+00 5.00000e-01 2.89060e+00 8.42691e+00 5.00000e-01 2.93280e+00 8.51764e+00 5.00000e-01 2.97500e+00 8.60836e+00 5.00000e-01 3.01720e+00 8.69908e+00 5.00000e-01 3.05940e+00 8.78979e+00 5.00000e-01 3.10160e+00 8.88049e+00 5.00000e-01 3.14380e+00 8.97119e+00 5.00000e-01 3.18590e+00 9.06189e+00 5.00000e-01 3.22810e+00 9.15258e+00 5.00000e-01 3.27030e+00 9.24328e+00 5.00000e-01 3.31250e+00 9.33397e+00 5.00000e-01 3.35460e+00 9.42467e+00 5.00000e-01 3.39680e+00 9.51537e+00 5.00000e-01 3.43890e+00 0.00000e+00 6.00000e-01 2.00000e-01 1.01361e-01 5.99563e-01 2.01622e-01 2.04295e-01 5.99248e-01 2.05151e-01 3.08017e-01 5.99029e-01 2.09523e-01 4.11485e-01 5.98918e-01 2.14593e-01 5.14813e-01 5.98832e-01 2.21022e-01 6.17995e-01 5.98802e-01 2.28389e-01 7.20962e-01 5.98776e-01 2.37010e-01 8.23804e-01 5.98779e-01 2.46644e-01 9.26419e-01 5.98781e-01 2.57444e-01 1.02889e+00 5.98796e-01 2.69272e-01 1.13113e+00 5.98810e-01 2.82198e-01 1.23319e+00 5.98828e-01 2.96136e-01 1.33502e+00 5.98846e-01 3.11110e-01 1.43666e+00 5.98866e-01 3.27070e-01 1.53806e+00 5.98886e-01 3.44010e-01 1.63924e+00 5.98906e-01 3.61890e-01 1.74019e+00 5.98926e-01 3.80690e-01 1.84091e+00 5.98947e-01 4.00400e-01 1.94139e+00 5.98967e-01 4.20980e-01 2.04164e+00 5.98988e-01 4.42410e-01 2.14164e+00 5.99008e-01 4.64670e-01 2.24140e+00 5.99029e-01 4.87740e-01 2.34091e+00 5.99050e-01 5.11590e-01 2.44019e+00 5.99070e-01 5.36210e-01 2.53921e+00 5.99091e-01 5.61560e-01 2.63800e+00 5.99112e-01 5.87630e-01 2.73654e+00 5.99132e-01 6.14390e-01 2.83484e+00 5.99153e-01 6.41830e-01 2.93290e+00 5.99173e-01 6.69920e-01 3.03071e+00 5.99194e-01 6.98650e-01 3.12830e+00 5.99214e-01 7.27990e-01 3.22564e+00 5.99234e-01 7.57920e-01 3.32275e+00 5.99255e-01 7.88430e-01 3.41964e+00 5.99275e-01 8.19500e-01 3.51629e+00 5.99295e-01 8.51100e-01 3.61273e+00 5.99314e-01 8.83220e-01 3.70894e+00 5.99334e-01 9.15850e-01 3.80494e+00 5.99354e-01 9.48960e-01 3.90072e+00 5.99373e-01 9.82530e-01 3.99629e+00 5.99393e-01 1.01656e+00 4.09166e+00 5.99412e-01 1.05102e+00 4.18683e+00 5.99431e-01 1.08590e+00 4.28181e+00 5.99449e-01 1.12118e+00 4.37659e+00 5.99468e-01 1.15685e+00 4.47118e+00 5.99486e-01 1.19290e+00 4.56559e+00 5.99505e-01 1.22930e+00 4.65983e+00 5.99523e-01 1.26600e+00 4.75388e+00 5.99540e-01 1.30310e+00 4.84778e+00 5.99558e-01 1.34050e+00 4.94150e+00 5.99575e-01 1.37820e+00 5.03507e+00 5.99592e-01 1.41620e+00 5.12848e+00 5.99609e-01 1.45440e+00 5.22175e+00 5.99626e-01 1.49290e+00 5.31487e+00 5.99642e-01 1.53170e+00 5.40785e+00 5.99658e-01 1.57070e+00 5.50069e+00 5.99674e-01 1.61000e+00 5.59341e+00 5.99689e-01 1.64940e+00 5.68600e+00 5.99705e-01 1.68910e+00 5.77847e+00 5.99719e-01 1.72900e+00 5.87083e+00 5.99734e-01 1.76900e+00 5.96307e+00 5.99748e-01 1.80920e+00 6.05521e+00 5.99763e-01 1.84960e+00 6.14724e+00 5.99776e-01 1.89020e+00 6.23918e+00 5.99790e-01 1.93090e+00 6.33103e+00 5.99803e-01 1.97170e+00 6.42279e+00 5.99816e-01 2.01270e+00 6.51446e+00 5.99828e-01 2.05380e+00 6.60605e+00 5.99840e-01 2.09500e+00 6.69757e+00 5.99852e-01 2.13630e+00 6.78902e+00 5.99863e-01 2.17770e+00 6.88040e+00 5.99875e-01 2.21920e+00 6.97171e+00 5.99885e-01 2.26070e+00 7.06297e+00 5.99896e-01 2.30240e+00 7.15417e+00 5.99906e-01 2.34410e+00 7.24531e+00 5.99916e-01 2.38590e+00 7.33641e+00 5.99925e-01 2.42780e+00 7.42746e+00 5.99934e-01 2.46970e+00 7.51847e+00 5.99943e-01 2.51160e+00 7.60944e+00 5.99951e-01 2.55360e+00 7.70038e+00 5.99959e-01 2.59570e+00 7.79128e+00 5.99966e-01 2.63770e+00 7.88215e+00 5.99974e-01 2.67980e+00 7.97300e+00 5.99980e-01 2.72200e+00 8.06382e+00 5.99987e-01 2.76410e+00 8.15462e+00 5.99993e-01 2.80630e+00 8.24540e+00 5.99998e-01 2.84840e+00 8.33616e+00 6.00004e-01 2.89060e+00 8.42691e+00 6.00008e-01 2.93280e+00 8.51764e+00 6.00013e-01 2.97500e+00 8.60836e+00 6.00017e-01 3.01720e+00 8.69908e+00 6.00021e-01 3.05940e+00 8.78979e+00 6.00024e-01 3.10160e+00 8.88049e+00 6.00027e-01 3.14380e+00 8.97119e+00 6.00029e-01 3.18590e+00 9.06189e+00 6.00031e-01 3.22810e+00 9.15258e+00 6.00033e-01 3.27030e+00 9.24328e+00 6.00035e-01 3.31250e+00 9.33397e+00 6.00036e-01 3.35460e+00 9.42467e+00 6.00038e-01 3.39680e+00 9.51537e+00 6.00039e-01 3.43890e+00 0.00000e+00 7.00000e-01 2.00000e-01 1.01320e-01 6.99053e-01 2.01480e-01 2.04436e-01 6.98364e-01 2.04872e-01 3.08087e-01 6.97999e-01 2.09136e-01 4.11634e-01 6.97748e-01 2.14132e-01 5.14908e-01 6.97652e-01 2.20485e-01 6.18114e-01 6.97560e-01 2.27806e-01 7.21057e-01 6.97549e-01 2.36381e-01 8.23907e-01 6.97536e-01 2.45991e-01 9.26513e-01 6.97558e-01 2.56770e-01 1.02899e+00 6.97578e-01 2.68590e-01 1.13122e+00 6.97613e-01 2.81512e-01 1.23329e+00 6.97647e-01 2.95452e-01 1.33512e+00 6.97685e-01 3.10430e-01 1.43676e+00 6.97724e-01 3.26400e-01 1.53816e+00 6.97764e-01 3.43350e-01 1.63935e+00 6.97804e-01 3.61240e-01 1.74030e+00 6.97845e-01 3.80060e-01 1.84102e+00 6.97886e-01 3.99780e-01 1.94150e+00 6.97927e-01 4.20370e-01 2.04175e+00 6.97968e-01 4.41820e-01 2.14175e+00 6.98010e-01 4.64100e-01 2.24152e+00 6.98051e-01 4.87180e-01 2.34103e+00 6.98093e-01 5.11050e-01 2.44030e+00 6.98135e-01 5.35670e-01 2.53933e+00 6.98176e-01 5.61040e-01 2.63812e+00 6.98218e-01 5.87120e-01 2.73666e+00 6.98259e-01 6.13900e-01 2.83496e+00 6.98300e-01 6.41350e-01 2.93301e+00 6.98342e-01 6.69460e-01 3.03083e+00 6.98383e-01 6.98190e-01 3.12841e+00 6.98424e-01 7.27550e-01 3.22576e+00 6.98464e-01 7.57500e-01 3.32287e+00 6.98505e-01 7.88020e-01 3.41975e+00 6.98545e-01 8.19100e-01 3.51641e+00 6.98586e-01 8.50710e-01 3.61284e+00 6.98626e-01 8.82850e-01 3.70905e+00 6.98665e-01 9.15480e-01 3.80504e+00 6.98704e-01 9.48600e-01 3.90082e+00 6.98744e-01 9.82190e-01 3.99640e+00 6.98782e-01 1.01623e+00 4.09176e+00 6.98821e-01 1.05070e+00 4.18693e+00 6.98859e-01 1.08559e+00 4.28190e+00 6.98896e-01 1.12089e+00 4.37668e+00 6.98934e-01 1.15657e+00 4.47127e+00 6.98971e-01 1.19262e+00 4.56568e+00 6.99007e-01 1.22900e+00 4.65991e+00 6.99043e-01 1.26580e+00 4.75397e+00 6.99079e-01 1.30290e+00 4.84786e+00 6.99114e-01 1.34030e+00 4.94158e+00 6.99149e-01 1.37800e+00 5.03514e+00 6.99183e-01 1.41600e+00 5.12856e+00 6.99217e-01 1.45420e+00 5.22182e+00 6.99250e-01 1.49270e+00 5.31493e+00 6.99283e-01 1.53150e+00 5.40791e+00 6.99315e-01 1.57050e+00 5.50075e+00 6.99347e-01 1.60980e+00 5.59347e+00 6.99378e-01 1.64930e+00 5.68606e+00 6.99408e-01 1.68890e+00 5.77852e+00 6.99438e-01 1.72880e+00 5.87088e+00 6.99468e-01 1.76890e+00 5.96312e+00 6.99496e-01 1.80910e+00 6.05525e+00 6.99524e-01 1.84950e+00 6.14729e+00 6.99552e-01 1.89010e+00 6.23922e+00 6.99579e-01 1.93080e+00 6.33107e+00 6.99605e-01 1.97160e+00 6.42282e+00 6.99631e-01 2.01260e+00 6.51449e+00 6.99656e-01 2.05370e+00 6.60608e+00 6.99680e-01 2.09490e+00 6.69760e+00 6.99704e-01 2.13620e+00 6.78904e+00 6.99727e-01 2.17760e+00 6.88042e+00 6.99749e-01 2.21910e+00 6.97173e+00 6.99771e-01 2.26070e+00 7.06299e+00 6.99792e-01 2.30230e+00 7.15418e+00 6.99812e-01 2.34410e+00 7.24533e+00 6.99831e-01 2.38590e+00 7.33643e+00 6.99850e-01 2.42770e+00 7.42748e+00 6.99868e-01 2.46960e+00 7.51848e+00 6.99885e-01 2.51160e+00 7.60945e+00 6.99902e-01 2.55360e+00 7.70039e+00 6.99918e-01 2.59560e+00 7.79129e+00 6.99933e-01 2.63770e+00 7.88216e+00 6.99947e-01 2.67980e+00 7.97300e+00 6.99961e-01 2.72190e+00 8.06382e+00 6.99974e-01 2.76410e+00 8.15462e+00 6.99986e-01 2.80620e+00 8.24540e+00 6.99997e-01 2.84840e+00 8.33616e+00 7.00008e-01 2.89060e+00 8.42691e+00 7.00017e-01 2.93280e+00 8.51764e+00 7.00026e-01 2.97500e+00 8.60836e+00 7.00034e-01 3.01720e+00 8.69908e+00 7.00042e-01 3.05940e+00 8.78979e+00 7.00048e-01 3.10160e+00 8.88049e+00 7.00054e-01 3.14380e+00 8.97119e+00 7.00059e-01 3.18590e+00 9.06188e+00 7.00063e-01 3.22810e+00 9.15258e+00 7.00067e-01 3.27030e+00 9.24327e+00 7.00070e-01 3.31250e+00 9.33397e+00 7.00073e-01 3.35460e+00 9.42467e+00 7.00076e-01 3.39680e+00 9.51537e+00 7.00079e-01 3.43890e+00 0.00000e+00 8.00000e-01 2.00000e-01 1.01470e-01 7.98271e-01 2.01163e-01 2.04561e-01 7.97253e-01 2.04375e-01 3.08386e-01 7.96714e-01 2.08433e-01 4.11834e-01 7.96546e-01 2.13286e-01 5.15118e-01 7.96345e-01 2.19533e-01 6.18287e-01 7.96305e-01 2.26768e-01 7.21226e-01 7.96256e-01 2.35282e-01 8.24063e-01 7.96275e-01 2.44852e-01 9.26669e-01 7.96294e-01 2.55606e-01 1.02914e+00 7.96339e-01 2.67417e-01 1.13138e+00 7.96385e-01 2.80338e-01 1.23344e+00 7.96441e-01 2.94286e-01 1.33528e+00 7.96497e-01 3.09280e-01 1.43692e+00 7.96557e-01 3.25260e-01 1.53833e+00 7.96617e-01 3.42230e-01 1.63952e+00 7.96679e-01 3.60140e-01 1.74048e+00 7.96740e-01 3.78990e-01 1.84120e+00 7.96803e-01 3.98730e-01 1.94169e+00 7.96865e-01 4.19350e-01 2.04194e+00 7.96928e-01 4.40820e-01 2.14194e+00 7.96991e-01 4.63120e-01 2.24171e+00 7.97054e-01 4.86230e-01 2.34122e+00 7.97117e-01 5.10120e-01 2.44050e+00 7.97180e-01 5.34770e-01 2.53953e+00 7.97243e-01 5.60160e-01 2.63831e+00 7.97306e-01 5.86270e-01 2.73686e+00 7.97369e-01 6.13070e-01 2.83515e+00 7.97432e-01 6.40540e-01 2.93321e+00 7.97495e-01 6.68670e-01 3.03103e+00 7.97557e-01 6.97440e-01 3.12860e+00 7.97619e-01 7.26810e-01 3.22595e+00 7.97681e-01 7.56780e-01 3.32306e+00 7.97743e-01 7.87320e-01 3.41994e+00 7.97804e-01 8.18420e-01 3.51659e+00 7.97865e-01 8.50060e-01 3.61302e+00 7.97925e-01 8.82220e-01 3.70923e+00 7.97985e-01 9.14870e-01 3.80522e+00 7.98045e-01 9.48010e-01 3.90100e+00 7.98104e-01 9.81620e-01 3.99656e+00 7.98162e-01 1.01568e+00 4.09193e+00 7.98220e-01 1.05017e+00 4.18709e+00 7.98278e-01 1.08508e+00 4.28206e+00 7.98335e-01 1.12039e+00 4.37683e+00 7.98392e-01 1.15609e+00 4.47142e+00 7.98447e-01 1.19216e+00 4.56582e+00 7.98503e-01 1.22860e+00 4.66005e+00 7.98557e-01 1.26540e+00 4.75410e+00 7.98611e-01 1.30250e+00 4.84798e+00 7.98664e-01 1.33990e+00 4.94170e+00 7.98717e-01 1.37760e+00 5.03526e+00 7.98768e-01 1.41560e+00 5.12867e+00 7.98819e-01 1.45390e+00 5.22193e+00 7.98870e-01 1.49240e+00 5.31504e+00 7.98919e-01 1.53120e+00 5.40801e+00 7.98968e-01 1.57020e+00 5.50085e+00 7.99015e-01 1.60950e+00 5.59356e+00 7.99062e-01 1.64900e+00 5.68614e+00 7.99108e-01 1.68870e+00 5.77861e+00 7.99153e-01 1.72860e+00 5.87096e+00 7.99198e-01 1.76860e+00 5.96319e+00 7.99241e-01 1.80890e+00 6.05532e+00 7.99284e-01 1.84930e+00 6.14735e+00 7.99325e-01 1.88980e+00 6.23928e+00 7.99366e-01 1.93060e+00 6.33112e+00 7.99405e-01 1.97140e+00 6.42288e+00 7.99444e-01 2.01240e+00 6.51454e+00 7.99482e-01 2.05350e+00 6.60613e+00 7.99518e-01 2.09470e+00 6.69764e+00 7.99554e-01 2.13600e+00 6.78908e+00 7.99589e-01 2.17750e+00 6.88046e+00 7.99622e-01 2.21900e+00 6.97177e+00 7.99655e-01 2.26060e+00 7.06302e+00 7.99686e-01 2.30220e+00 7.15421e+00 7.99717e-01 2.34400e+00 7.24535e+00 7.99746e-01 2.38580e+00 7.33645e+00 7.99774e-01 2.42760e+00 7.42750e+00 7.99801e-01 2.46960e+00 7.51850e+00 7.99828e-01 2.51150e+00 7.60947e+00 7.99852e-01 2.55350e+00 7.70040e+00 7.99876e-01 2.59560e+00 7.79130e+00 7.99899e-01 2.63770e+00 7.88217e+00 7.99921e-01 2.67980e+00 7.97301e+00 7.99941e-01 2.72190e+00 8.06383e+00 7.99961e-01 2.76400e+00 8.15462e+00 7.99979e-01 2.80620e+00 8.24540e+00 7.99996e-01 2.84840e+00 8.33616e+00 8.00012e-01 2.89060e+00 8.42691e+00 8.00026e-01 2.93280e+00 8.51764e+00 8.00040e-01 2.97500e+00 8.60836e+00 8.00052e-01 3.01720e+00 8.69907e+00 8.00063e-01 3.05940e+00 8.78978e+00 8.00073e-01 3.10160e+00 8.88048e+00 8.00081e-01 3.14380e+00 8.97118e+00 8.00089e-01 3.18600e+00 9.06188e+00 8.00095e-01 3.22810e+00 9.15257e+00 8.00101e-01 3.27030e+00 9.24327e+00 8.00106e-01 3.31250e+00 9.33396e+00 8.00110e-01 3.35460e+00 9.42466e+00 8.00115e-01 3.39680e+00 9.51536e+00 8.00119e-01 3.43890e+00 0.00000e+00 9.00000e-01 2.00000e-01 1.01526e-01 8.96908e-01 2.00801e-01 2.05165e-01 8.95604e-01 2.03564e-01 3.08792e-01 8.95504e-01 2.07305e-01 4.12139e-01 8.95138e-01 2.12007e-01 5.15397e-01 8.95068e-01 2.18088e-01 6.18507e-01 8.94957e-01 2.25229e-01 7.21446e-01 8.94956e-01 2.33667e-01 8.24258e-01 8.94960e-01 2.43200e-01 9.26869e-01 8.95007e-01 2.53933e-01 1.02933e+00 8.95059e-01 2.65743e-01 1.13158e+00 8.95128e-01 2.78672e-01 1.23365e+00 8.95200e-01 2.92639e-01 1.33549e+00 8.95278e-01 3.07660e-01 1.43714e+00 8.95357e-01 3.23670e-01 1.53855e+00 8.95440e-01 3.40670e-01 1.63975e+00 8.95522e-01 3.58610e-01 1.74071e+00 8.95606e-01 3.77490e-01 1.84144e+00 8.95690e-01 3.97270e-01 1.94193e+00 8.95776e-01 4.17920e-01 2.04219e+00 8.95861e-01 4.39430e-01 2.14220e+00 8.95946e-01 4.61770e-01 2.24196e+00 8.96032e-01 4.84910e-01 2.34148e+00 8.96118e-01 5.08840e-01 2.44076e+00 8.96203e-01 5.33520e-01 2.53979e+00 8.96289e-01 5.58950e-01 2.63857e+00 8.96374e-01 5.85080e-01 2.73712e+00 8.96460e-01 6.11920e-01 2.83541e+00 8.96545e-01 6.39430e-01 2.93347e+00 8.96629e-01 6.67590e-01 3.03128e+00 8.96714e-01 6.96380e-01 3.12886e+00 8.96798e-01 7.25790e-01 3.22620e+00 8.96881e-01 7.55790e-01 3.32331e+00 8.96965e-01 7.86360e-01 3.42018e+00 8.97047e-01 8.17490e-01 3.51683e+00 8.97130e-01 8.49160e-01 3.61326e+00 8.97211e-01 8.81340e-01 3.70946e+00 8.97292e-01 9.14030e-01 3.80545e+00 8.97373e-01 9.47190e-01 3.90122e+00 8.97453e-01 9.80830e-01 3.99678e+00 8.97532e-01 1.01491e+00 4.09214e+00 8.97610e-01 1.04943e+00 4.18730e+00 8.97688e-01 1.08437e+00 4.28226e+00 8.97765e-01 1.11970e+00 4.37703e+00 8.97841e-01 1.15542e+00 4.47161e+00 8.97916e-01 1.19152e+00 4.56601e+00 8.97990e-01 1.22800e+00 4.66023e+00 8.98064e-01 1.26480e+00 4.75427e+00 8.98136e-01 1.30190e+00 4.84815e+00 8.98208e-01 1.33930e+00 4.94187e+00 8.98278e-01 1.37710e+00 5.03542e+00 8.98348e-01 1.41510e+00 5.12882e+00 8.98416e-01 1.45340e+00 5.22207e+00 8.98484e-01 1.49190e+00 5.31518e+00 8.98550e-01 1.53080e+00 5.40815e+00 8.98615e-01 1.56980e+00 5.50098e+00 8.98680e-01 1.60910e+00 5.59368e+00 8.98743e-01 1.64860e+00 5.68626e+00 8.98805e-01 1.68830e+00 5.77872e+00 8.98865e-01 1.72820e+00 5.87106e+00 8.98925e-01 1.76830e+00 5.96329e+00 8.98983e-01 1.80860e+00 6.05541e+00 8.99040e-01 1.84900e+00 6.14744e+00 8.99096e-01 1.88960e+00 6.23936e+00 8.99150e-01 1.93030e+00 6.33120e+00 8.99203e-01 1.97120e+00 6.42295e+00 8.99255e-01 2.01220e+00 6.51461e+00 8.99305e-01 2.05330e+00 6.60619e+00 8.99355e-01 2.09450e+00 6.69770e+00 8.99402e-01 2.13580e+00 6.78913e+00 8.99449e-01 2.17730e+00 6.88050e+00 8.99494e-01 2.21880e+00 6.97181e+00 8.99537e-01 2.26040e+00 7.06306e+00 8.99580e-01 2.30210e+00 7.15425e+00 8.99620e-01 2.34380e+00 7.24538e+00 8.99660e-01 2.38570e+00 7.33647e+00 8.99698e-01 2.42750e+00 7.42752e+00 8.99734e-01 2.46950e+00 7.51852e+00 8.99769e-01 2.51140e+00 7.60948e+00 8.99802e-01 2.55340e+00 7.70041e+00 8.99834e-01 2.59550e+00 7.79131e+00 8.99865e-01 2.63760e+00 7.88218e+00 8.99894e-01 2.67970e+00 7.97302e+00 8.99921e-01 2.72180e+00 8.06383e+00 8.99947e-01 2.76400e+00 8.15462e+00 8.99971e-01 2.80620e+00 8.24540e+00 8.99994e-01 2.84830e+00 8.33616e+00 9.00015e-01 2.89050e+00 8.42690e+00 9.00035e-01 2.93270e+00 8.51763e+00 9.00053e-01 2.97500e+00 8.60835e+00 9.00070e-01 3.01720e+00 8.69907e+00 9.00084e-01 3.05940e+00 8.78977e+00 9.00098e-01 3.10160e+00 8.88047e+00 9.00109e-01 3.14380e+00 8.97117e+00 9.00119e-01 3.18600e+00 9.06187e+00 9.00128e-01 3.22810e+00 9.15256e+00 9.00135e-01 3.27030e+00 9.24326e+00 9.00141e-01 3.31250e+00 9.33395e+00 9.00148e-01 3.35460e+00 9.42465e+00 9.00154e-01 3.39680e+00 9.51535e+00 9.00161e-01 3.43890e+00 0.00000e+00 1.00000e+00 2.00000e-01 1.02521e-01 9.94309e-01 1.99999e-01 2.05930e-01 9.94640e-01 2.02181e-01 3.09102e-01 9.94054e-01 2.05504e-01 4.12530e-01 9.93969e-01 2.10011e-01 5.15646e-01 9.93751e-01 2.15902e-01 6.18776e-01 9.93711e-01 2.22971e-01 7.21669e-01 9.93664e-01 2.31353e-01 8.24490e-01 9.93700e-01 2.40877e-01 9.27092e-01 9.93738e-01 2.51613e-01 1.02956e+00 9.93814e-01 2.63446e-01 1.13182e+00 9.93889e-01 2.76406e-01 1.23390e+00 9.93984e-01 2.90413e-01 1.33575e+00 9.94077e-01 3.05470e-01 1.43741e+00 9.94179e-01 3.21530e-01 1.53883e+00 9.94279e-01 3.38580e-01 1.64004e+00 9.94385e-01 3.56570e-01 1.74101e+00 9.94489e-01 3.75500e-01 1.84175e+00 9.94596e-01 3.95330e-01 1.94224e+00 9.94703e-01 4.16030e-01 2.04250e+00 9.94811e-01 4.37590e-01 2.14251e+00 9.94919e-01 4.59970e-01 2.24229e+00 9.95027e-01 4.83160e-01 2.34181e+00 9.95135e-01 5.07140e-01 2.44109e+00 9.95244e-01 5.31870e-01 2.54012e+00 9.95352e-01 5.57340e-01 2.63890e+00 9.95460e-01 5.83520e-01 2.73744e+00 9.95567e-01 6.10400e-01 2.83574e+00 9.95675e-01 6.37950e-01 2.93379e+00 9.95781e-01 6.66160e-01 3.03161e+00 9.95888e-01 6.94990e-01 3.12918e+00 9.95994e-01 7.24440e-01 3.22652e+00 9.96099e-01 7.54480e-01 3.32362e+00 9.96204e-01 7.85090e-01 3.42049e+00 9.96308e-01 8.16260e-01 3.51714e+00 9.96411e-01 8.47970e-01 3.61356e+00 9.96514e-01 8.80190e-01 3.70975e+00 9.96616e-01 9.12910e-01 3.80573e+00 9.96717e-01 9.46120e-01 3.90150e+00 9.96817e-01 9.79790e-01 3.99706e+00 9.96916e-01 1.01391e+00 4.09241e+00 9.97015e-01 1.04846e+00 4.18756e+00 9.97112e-01 1.08343e+00 4.28252e+00 9.97208e-01 1.11880e+00 4.37728e+00 9.97304e-01 1.15455e+00 4.47185e+00 9.97398e-01 1.19068e+00 4.56624e+00 9.97491e-01 1.22720e+00 4.66045e+00 9.97583e-01 1.26400e+00 4.75449e+00 9.97674e-01 1.30110e+00 4.84836e+00 9.97763e-01 1.33860e+00 4.94207e+00 9.97852e-01 1.37640e+00 5.03561e+00 9.97939e-01 1.41440e+00 5.12901e+00 9.98024e-01 1.45280e+00 5.22225e+00 9.98109e-01 1.49130e+00 5.31535e+00 9.98192e-01 1.53020e+00 5.40831e+00 9.98273e-01 1.56930e+00 5.50113e+00 9.98354e-01 1.60860e+00 5.59383e+00 9.98432e-01 1.64810e+00 5.68640e+00 9.98510e-01 1.68780e+00 5.77885e+00 9.98585e-01 1.72780e+00 5.87118e+00 9.98660e-01 1.76790e+00 5.96340e+00 9.98732e-01 1.80810e+00 6.05552e+00 9.98803e-01 1.84860e+00 6.14754e+00 9.98873e-01 1.88920e+00 6.23946e+00 9.98941e-01 1.92990e+00 6.33129e+00 9.99007e-01 1.97080e+00 6.42303e+00 9.99072e-01 2.01180e+00 6.51468e+00 9.99135e-01 2.05300e+00 6.60626e+00 9.99196e-01 2.09420e+00 6.69776e+00 9.99256e-01 2.13560e+00 6.78919e+00 9.99313e-01 2.17700e+00 6.88055e+00 9.99370e-01 2.21860e+00 6.97186e+00 9.99424e-01 2.26020e+00 7.06310e+00 9.99476e-01 2.30190e+00 7.15428e+00 9.99527e-01 2.34370e+00 7.24542e+00 9.99576e-01 2.38550e+00 7.33650e+00 9.99623e-01 2.42740e+00 7.42754e+00 9.99669e-01 2.46930e+00 7.51854e+00 9.99712e-01 2.51130e+00 7.60950e+00 9.99754e-01 2.55330e+00 7.70042e+00 9.99794e-01 2.59540e+00 7.79132e+00 9.99832e-01 2.63750e+00 7.88218e+00 9.99868e-01 2.67960e+00 7.97302e+00 9.99902e-01 2.72180e+00 8.06383e+00 9.99934e-01 2.76390e+00 8.15462e+00 9.99964e-01 2.80610e+00 8.24539e+00 9.99993e-01 2.84830e+00 8.33615e+00 1.00002e+00 2.89050e+00 8.42689e+00 1.00004e+00 2.93270e+00 8.51762e+00 1.00007e+00 2.97490e+00 8.60834e+00 1.00009e+00 3.01710e+00 8.69906e+00 1.00011e+00 3.05940e+00 8.78976e+00 1.00012e+00 3.10160e+00 8.88046e+00 1.00014e+00 3.14380e+00 8.97116e+00 1.00015e+00 3.18600e+00 9.06185e+00 1.00016e+00 3.22810e+00 9.15255e+00 1.00017e+00 3.27030e+00 9.24324e+00 1.00018e+00 3.31250e+00 9.33394e+00 1.00018e+00 3.35460e+00 9.42464e+00 1.00019e+00 3.39680e+00 9.51534e+00 1.00020e+00 3.43890e+00 0.00000e+00 0.00000e+00 3.00000e-01 1.01557e-01 3.70200e-03 2.98795e-01 2.03694e-01 3.48120e-03 3.00403e-01 3.05672e-01 3.65840e-03 3.03489e-01 4.07966e-01 3.51330e-03 3.08085e-01 5.10050e-01 3.58950e-03 3.13869e-01 6.12079e-01 3.56480e-03 3.21009e-01 7.13949e-01 3.58560e-03 3.29287e-01 8.15682e-01 3.56420e-03 3.38820e-01 9.17269e-01 3.54730e-03 3.49452e-01 1.01868e+00 3.51610e-03 3.61250e-01 1.11994e+00 3.48190e-03 3.74102e-01 1.22100e+00 3.44390e-03 3.88041e-01 1.32189e+00 3.40190e-03 4.02990e-01 1.42257e+00 3.35920e-03 4.18950e-01 1.52306e+00 3.31280e-03 4.35880e-01 1.62333e+00 3.26620e-03 4.53760e-01 1.72341e+00 3.21670e-03 4.72560e-01 1.82326e+00 3.16680e-03 4.92260e-01 1.92290e+00 3.11470e-03 5.12830e-01 2.02231e+00 3.06220e-03 5.34250e-01 2.12151e+00 3.00800e-03 5.56490e-01 2.22048e+00 2.95350e-03 5.79540e-01 2.31923e+00 2.89770e-03 6.03360e-01 2.41775e+00 2.84170e-03 6.27950e-01 2.51604e+00 2.78480e-03 6.53270e-01 2.61411e+00 2.72770e-03 6.79300e-01 2.71196e+00 2.66990e-03 7.06020e-01 2.80957e+00 2.61200e-03 7.33420e-01 2.90697e+00 2.55370e-03 7.61470e-01 3.00414e+00 2.49520e-03 7.90150e-01 3.10109e+00 2.43650e-03 8.19450e-01 3.19783e+00 2.37770e-03 8.49340e-01 3.29435e+00 2.31870e-03 8.79800e-01 3.39065e+00 2.25980e-03 9.10820e-01 3.48674e+00 2.20080e-03 9.42370e-01 3.58263e+00 2.14190e-03 9.74450e-01 3.67831e+00 2.08300e-03 1.00703e+00 3.77379e+00 2.02430e-03 1.04009e+00 3.86908e+00 1.96580e-03 1.07362e+00 3.96417e+00 1.90740e-03 1.10760e+00 4.05907e+00 1.84930e-03 1.14202e+00 4.15378e+00 1.79140e-03 1.17685e+00 4.24831e+00 1.73390e-03 1.21209e+00 4.34267e+00 1.67670e-03 1.24772e+00 4.43685e+00 1.61990e-03 1.28372e+00 4.53086e+00 1.56350e-03 1.32010e+00 4.62471e+00 1.50750e-03 1.35680e+00 4.71840e+00 1.45210e-03 1.39380e+00 4.81193e+00 1.39710e-03 1.43120e+00 4.90531e+00 1.34270e-03 1.46880e+00 4.99855e+00 1.28890e-03 1.50680e+00 5.09164e+00 1.23580e-03 1.54500e+00 5.18460e+00 1.18320e-03 1.58350e+00 5.27742e+00 1.13140e-03 1.62230e+00 5.37012e+00 1.08020e-03 1.66120e+00 5.46269e+00 1.02980e-03 1.70050e+00 5.55515e+00 9.80080e-04 1.73990e+00 5.64749e+00 9.31190e-04 1.77960e+00 5.73972e+00 8.83100e-04 1.81940e+00 5.83185e+00 8.35850e-04 1.85940e+00 5.92387e+00 7.89470e-04 1.89970e+00 6.01580e+00 7.43960e-04 1.94000e+00 6.10764e+00 6.99360e-04 1.98060e+00 6.19939e+00 6.55690e-04 2.02130e+00 6.29106e+00 6.12970e-04 2.06210e+00 6.38265e+00 5.71220e-04 2.10310e+00 6.47416e+00 5.30460e-04 2.14410e+00 6.56560e+00 4.90720e-04 2.18530e+00 6.65698e+00 4.52000e-04 2.22660e+00 6.74829e+00 4.14330e-04 2.26810e+00 6.83954e+00 3.77730e-04 2.30960e+00 6.93073e+00 3.42210e-04 2.35110e+00 7.02188e+00 3.07790e-04 2.39280e+00 7.11297e+00 2.74490e-04 2.43450e+00 7.20402e+00 2.42320e-04 2.47630e+00 7.29503e+00 2.11300e-04 2.51820e+00 7.38600e+00 1.81430e-04 2.56010e+00 7.47693e+00 1.52740e-04 2.60210e+00 7.56783e+00 1.25230e-04 2.64410e+00 7.65870e+00 9.89260e-05 2.68610e+00 7.74954e+00 7.38310e-05 2.72820e+00 7.84036e+00 4.99590e-05 2.77030e+00 7.93116e+00 2.73220e-05 2.81250e+00 8.02193e+00 5.93080e-06 2.85460e+00 8.11269e+00 -1.42030e-05 2.89680e+00 8.20343e+00 -3.30660e-05 2.93900e+00 8.29416e+00 -5.06480e-05 2.98120e+00 8.38488e+00 -6.69340e-05 3.02340e+00 8.47560e+00 -8.19130e-05 3.06560e+00 8.56630e+00 -9.55710e-05 3.10780e+00 8.65700e+00 -1.07900e-04 3.15000e+00 8.74769e+00 -1.18890e-04 3.19220e+00 8.83838e+00 -1.28550e-04 3.23440e+00 8.92907e+00 -1.36930e-04 3.27660e+00 9.01976e+00 -1.44140e-04 3.31880e+00 9.11045e+00 -1.50380e-04 3.36100e+00 9.20114e+00 -1.56230e-04 3.40310e+00 9.29183e+00 -1.62270e-04 3.44530e+00 9.38253e+00 -1.70310e-04 3.48740e+00 9.47323e+00 -1.78670e-04 3.52960e+00 0.00000e+00 1.00000e-01 3.00000e-01 1.00884e-01 1.02095e-01 2.99722e-01 2.03237e-01 1.02895e-01 3.01883e-01 3.05525e-01 1.02761e-01 3.05356e-01 4.07740e-01 1.02834e-01 3.10169e-01 5.09876e-01 1.02803e-01 3.16095e-01 6.11852e-01 1.02834e-01 3.23323e-01 7.13738e-01 1.02820e-01 3.31639e-01 8.15439e-01 1.02816e-01 3.41186e-01 9.17023e-01 1.02792e-01 3.51807e-01 1.01842e+00 1.02770e-01 3.63581e-01 1.11966e+00 1.02740e-01 3.76398e-01 1.22071e+00 1.02710e-01 3.90296e-01 1.32158e+00 1.02677e-01 4.05200e-01 1.42225e+00 1.02643e-01 4.21120e-01 1.52273e+00 1.02608e-01 4.37990e-01 1.62300e+00 1.02571e-01 4.55830e-01 1.72306e+00 1.02533e-01 4.74570e-01 1.82291e+00 1.02495e-01 4.94220e-01 1.92254e+00 1.02455e-01 5.14740e-01 2.02195e+00 1.02414e-01 5.36110e-01 2.12114e+00 1.02373e-01 5.58300e-01 2.22011e+00 1.02331e-01 5.81300e-01 2.31886e+00 1.02288e-01 6.05080e-01 2.41738e+00 1.02245e-01 6.29610e-01 2.51567e+00 1.02201e-01 6.54890e-01 2.61374e+00 1.02157e-01 6.80870e-01 2.71158e+00 1.02112e-01 7.07550e-01 2.80920e+00 1.02067e-01 7.34910e-01 2.90660e+00 1.02022e-01 7.62910e-01 3.00378e+00 1.01976e-01 7.91550e-01 3.10073e+00 1.01931e-01 8.20810e-01 3.19747e+00 1.01885e-01 8.50650e-01 3.29399e+00 1.01839e-01 8.81070e-01 3.39030e+00 1.01793e-01 9.12050e-01 3.48640e+00 1.01746e-01 9.43570e-01 3.58229e+00 1.01700e-01 9.75610e-01 3.67798e+00 1.01654e-01 1.00815e+00 3.77347e+00 1.01608e-01 1.04117e+00 3.86876e+00 1.01562e-01 1.07466e+00 3.96386e+00 1.01516e-01 1.10861e+00 4.05876e+00 1.01470e-01 1.14299e+00 4.15349e+00 1.01425e-01 1.17779e+00 4.24803e+00 1.01379e-01 1.21300e+00 4.34239e+00 1.01334e-01 1.24859e+00 4.43658e+00 1.01289e-01 1.28456e+00 4.53060e+00 1.01245e-01 1.32090e+00 4.62446e+00 1.01201e-01 1.35760e+00 4.71815e+00 1.01157e-01 1.39460e+00 4.81169e+00 1.01113e-01 1.43190e+00 4.90508e+00 1.01070e-01 1.46950e+00 4.99833e+00 1.01027e-01 1.50740e+00 5.09143e+00 1.00985e-01 1.54560e+00 5.18440e+00 1.00944e-01 1.58410e+00 5.27723e+00 1.00902e-01 1.62280e+00 5.36993e+00 1.00862e-01 1.66180e+00 5.46252e+00 1.00822e-01 1.70100e+00 5.55498e+00 1.00782e-01 1.74040e+00 5.64733e+00 1.00743e-01 1.78000e+00 5.73957e+00 1.00705e-01 1.81990e+00 5.83170e+00 1.00667e-01 1.85990e+00 5.92374e+00 1.00630e-01 1.90010e+00 6.01567e+00 1.00594e-01 1.94040e+00 6.10752e+00 1.00559e-01 1.98090e+00 6.19928e+00 1.00524e-01 2.02160e+00 6.29095e+00 1.00490e-01 2.06240e+00 6.38255e+00 1.00456e-01 2.10340e+00 6.47407e+00 1.00424e-01 2.14440e+00 6.56552e+00 1.00392e-01 2.18560e+00 6.65690e+00 1.00361e-01 2.22690e+00 6.74821e+00 1.00331e-01 2.26830e+00 6.83947e+00 1.00302e-01 2.30980e+00 6.93067e+00 1.00273e-01 2.35130e+00 7.02182e+00 1.00246e-01 2.39300e+00 7.11292e+00 1.00219e-01 2.43470e+00 7.20398e+00 1.00194e-01 2.47650e+00 7.29499e+00 1.00169e-01 2.51840e+00 7.38596e+00 1.00145e-01 2.56030e+00 7.47690e+00 1.00122e-01 2.60220e+00 7.56780e+00 1.00100e-01 2.64420e+00 7.65868e+00 1.00079e-01 2.68620e+00 7.74952e+00 1.00059e-01 2.72830e+00 7.84035e+00 1.00040e-01 2.77040e+00 7.93114e+00 1.00021e-01 2.81250e+00 8.02192e+00 1.00004e-01 2.85470e+00 8.11269e+00 9.99882e-02 2.89680e+00 8.20343e+00 9.99731e-02 2.93900e+00 8.29417e+00 9.99590e-02 2.98120e+00 8.38489e+00 9.99460e-02 3.02340e+00 8.47560e+00 9.99340e-02 3.06560e+00 8.56631e+00 9.99230e-02 3.10780e+00 8.65701e+00 9.99132e-02 3.15000e+00 8.74770e+00 9.99044e-02 3.19220e+00 8.83839e+00 9.98967e-02 3.23440e+00 8.92908e+00 9.98900e-02 3.27660e+00 9.01977e+00 9.98843e-02 3.31880e+00 9.11046e+00 9.98793e-02 3.36100e+00 9.20115e+00 9.98747e-02 3.40310e+00 9.29185e+00 9.98698e-02 3.44530e+00 9.38254e+00 9.98641e-02 3.48740e+00 9.47324e+00 9.98583e-02 3.52960e+00 0.00000e+00 2.00000e-01 3.00000e-01 1.00822e-01 2.01218e-01 2.99808e-01 2.02810e-01 2.01802e-01 3.02467e-01 3.05215e-01 2.02036e-01 3.06352e-01 4.07511e-01 2.02038e-01 3.11431e-01 5.09673e-01 2.02100e-01 3.17519e-01 6.11665e-01 2.02093e-01 3.24876e-01 7.13549e-01 2.02108e-01 3.33259e-01 8.15248e-01 2.02091e-01 3.42857e-01 9.16825e-01 2.02082e-01 3.53493e-01 1.01821e+00 2.02060e-01 3.65274e-01 1.11945e+00 2.02040e-01 3.78079e-01 1.22048e+00 2.02015e-01 3.91961e-01 1.32135e+00 2.01991e-01 4.06840e-01 1.42201e+00 2.01965e-01 4.22730e-01 1.52248e+00 2.01939e-01 4.39570e-01 1.62274e+00 2.01912e-01 4.57370e-01 1.72280e+00 2.01884e-01 4.76080e-01 1.82264e+00 2.01856e-01 4.95700e-01 1.92227e+00 2.01827e-01 5.16180e-01 2.02168e+00 2.01797e-01 5.37510e-01 2.12087e+00 2.01766e-01 5.59670e-01 2.21983e+00 2.01735e-01 5.82630e-01 2.31857e+00 2.01704e-01 6.06370e-01 2.41709e+00 2.01672e-01 6.30870e-01 2.51539e+00 2.01640e-01 6.56110e-01 2.61345e+00 2.01607e-01 6.82060e-01 2.71130e+00 2.01574e-01 7.08710e-01 2.80892e+00 2.01541e-01 7.36030e-01 2.90632e+00 2.01508e-01 7.64010e-01 3.00350e+00 2.01474e-01 7.92610e-01 3.10045e+00 2.01440e-01 8.21830e-01 3.19720e+00 2.01406e-01 8.51650e-01 3.29372e+00 2.01372e-01 8.82040e-01 3.39003e+00 2.01338e-01 9.12990e-01 3.48614e+00 2.01304e-01 9.44480e-01 3.58203e+00 2.01270e-01 9.76480e-01 3.67773e+00 2.01236e-01 1.00900e+00 3.77322e+00 2.01201e-01 1.04199e+00 3.86851e+00 2.01167e-01 1.07546e+00 3.96362e+00 2.01133e-01 1.10938e+00 4.05853e+00 2.01099e-01 1.14373e+00 4.15326e+00 2.01065e-01 1.17851e+00 4.24780e+00 2.01032e-01 1.21369e+00 4.34217e+00 2.00998e-01 1.24926e+00 4.43637e+00 2.00965e-01 1.28520e+00 4.53039e+00 2.00931e-01 1.32150e+00 4.62426e+00 2.00898e-01 1.35820e+00 4.71796e+00 2.00866e-01 1.39510e+00 4.81151e+00 2.00833e-01 1.43240e+00 4.90491e+00 2.00801e-01 1.47010e+00 4.99816e+00 2.00769e-01 1.50800e+00 5.09127e+00 2.00738e-01 1.54610e+00 5.18424e+00 2.00707e-01 1.58460e+00 5.27708e+00 2.00676e-01 1.62330e+00 5.36979e+00 2.00646e-01 1.66220e+00 5.46238e+00 2.00616e-01 1.70140e+00 5.55485e+00 2.00586e-01 1.74080e+00 5.64720e+00 2.00557e-01 1.78040e+00 5.73945e+00 2.00528e-01 1.82020e+00 5.83159e+00 2.00500e-01 1.86020e+00 5.92363e+00 2.00473e-01 1.90040e+00 6.01557e+00 2.00445e-01 1.94070e+00 6.10742e+00 2.00419e-01 1.98120e+00 6.19919e+00 2.00393e-01 2.02190e+00 6.29087e+00 2.00367e-01 2.06270e+00 6.38247e+00 2.00342e-01 2.10360e+00 6.47399e+00 2.00318e-01 2.14470e+00 6.56545e+00 2.00294e-01 2.18580e+00 6.65683e+00 2.00271e-01 2.22710e+00 6.74815e+00 2.00248e-01 2.26850e+00 6.83942e+00 2.00227e-01 2.30990e+00 6.93062e+00 2.00205e-01 2.35150e+00 7.02178e+00 2.00185e-01 2.39310e+00 7.11288e+00 2.00165e-01 2.43490e+00 7.20394e+00 2.00145e-01 2.47660e+00 7.29496e+00 2.00127e-01 2.51850e+00 7.38593e+00 2.00109e-01 2.56040e+00 7.47688e+00 2.00092e-01 2.60230e+00 7.56778e+00 2.00075e-01 2.64430e+00 7.65866e+00 2.00059e-01 2.68630e+00 7.74951e+00 2.00044e-01 2.72840e+00 7.84033e+00 2.00030e-01 2.77050e+00 7.93113e+00 2.00016e-01 2.81260e+00 8.02192e+00 2.00003e-01 2.85470e+00 8.11268e+00 1.99991e-01 2.89690e+00 8.20343e+00 1.99980e-01 2.93910e+00 8.29416e+00 1.99969e-01 2.98120e+00 8.38489e+00 1.99960e-01 3.02340e+00 8.47560e+00 1.99951e-01 3.06560e+00 8.56631e+00 1.99942e-01 3.10780e+00 8.65701e+00 1.99935e-01 3.15000e+00 8.74771e+00 1.99928e-01 3.19220e+00 8.83840e+00 1.99923e-01 3.23440e+00 8.92909e+00 1.99918e-01 3.27660e+00 9.01978e+00 1.99913e-01 3.31880e+00 9.11047e+00 1.99910e-01 3.36100e+00 9.20116e+00 1.99906e-01 3.40310e+00 9.29186e+00 1.99903e-01 3.44530e+00 9.38255e+00 1.99899e-01 3.48740e+00 9.47325e+00 1.99895e-01 3.52960e+00 0.00000e+00 3.00000e-01 3.00000e-01 1.00692e-01 3.00639e-01 2.99915e-01 2.02693e-01 3.01066e-01 3.02762e-01 3.04984e-01 3.01235e-01 3.06872e-01 4.07343e-01 3.01334e-01 3.12167e-01 5.09509e-01 3.01352e-01 3.18396e-01 6.11521e-01 3.01386e-01 3.25868e-01 7.13405e-01 3.01381e-01 3.34321e-01 8.15105e-01 3.01384e-01 3.43971e-01 9.16679e-01 3.01371e-01 3.54633e-01 1.01806e+00 3.01361e-01 3.66430e-01 1.11929e+00 3.01345e-01 3.79236e-01 1.22032e+00 3.01331e-01 3.93113e-01 1.32118e+00 3.01314e-01 4.07970e-01 1.42184e+00 3.01297e-01 4.23850e-01 1.52231e+00 3.01279e-01 4.40670e-01 1.62256e+00 3.01262e-01 4.58450e-01 1.72261e+00 3.01243e-01 4.77140e-01 1.82245e+00 3.01225e-01 4.96730e-01 1.92207e+00 3.01206e-01 5.17190e-01 2.02148e+00 3.01186e-01 5.38500e-01 2.12067e+00 3.01166e-01 5.60630e-01 2.21963e+00 3.01146e-01 5.83570e-01 2.31837e+00 3.01126e-01 6.07280e-01 2.41689e+00 3.01105e-01 6.31760e-01 2.51518e+00 3.01084e-01 6.56970e-01 2.61325e+00 3.01062e-01 6.82900e-01 2.71110e+00 3.01041e-01 7.09530e-01 2.80872e+00 3.01019e-01 7.36820e-01 2.90612e+00 3.00997e-01 7.64780e-01 3.00330e+00 3.00975e-01 7.93360e-01 3.10026e+00 3.00953e-01 8.22560e-01 3.19700e+00 3.00930e-01 8.52350e-01 3.29353e+00 3.00908e-01 8.82720e-01 3.38984e+00 3.00886e-01 9.13650e-01 3.48595e+00 3.00863e-01 9.45120e-01 3.58185e+00 3.00841e-01 9.77110e-01 3.67754e+00 3.00818e-01 1.00960e+00 3.77304e+00 3.00795e-01 1.04257e+00 3.86834e+00 3.00773e-01 1.07602e+00 3.96344e+00 3.00750e-01 1.10992e+00 4.05836e+00 3.00728e-01 1.14426e+00 4.15309e+00 3.00706e-01 1.17901e+00 4.24764e+00 3.00683e-01 1.21418e+00 4.34202e+00 3.00661e-01 1.24973e+00 4.43622e+00 3.00639e-01 1.28566e+00 4.53025e+00 3.00617e-01 1.32190e+00 4.62411e+00 3.00595e-01 1.35860e+00 4.71782e+00 3.00574e-01 1.39550e+00 4.81137e+00 3.00552e-01 1.43280e+00 4.90478e+00 3.00531e-01 1.47040e+00 4.99803e+00 3.00510e-01 1.50830e+00 5.09114e+00 3.00489e-01 1.54650e+00 5.18412e+00 3.00469e-01 1.58490e+00 5.27697e+00 3.00448e-01 1.62360e+00 5.36968e+00 3.00428e-01 1.66250e+00 5.46227e+00 3.00408e-01 1.70170e+00 5.55475e+00 3.00389e-01 1.74110e+00 5.64711e+00 3.00370e-01 1.78070e+00 5.73936e+00 3.00351e-01 1.82050e+00 5.83150e+00 3.00332e-01 1.86040e+00 5.92355e+00 3.00314e-01 1.90060e+00 6.01550e+00 3.00296e-01 1.94090e+00 6.10735e+00 3.00278e-01 1.98140e+00 6.19912e+00 3.00261e-01 2.02210e+00 6.29080e+00 3.00244e-01 2.06290e+00 6.38241e+00 3.00227e-01 2.10380e+00 6.47394e+00 3.00211e-01 2.14480e+00 6.56539e+00 3.00195e-01 2.18600e+00 6.65678e+00 3.00180e-01 2.22720e+00 6.74811e+00 3.00165e-01 2.26860e+00 6.83938e+00 3.00150e-01 2.31010e+00 6.93059e+00 3.00136e-01 2.35160e+00 7.02174e+00 3.00123e-01 2.39320e+00 7.11285e+00 3.00109e-01 2.43490e+00 7.20391e+00 3.00096e-01 2.47670e+00 7.29493e+00 3.00084e-01 2.51860e+00 7.38591e+00 3.00072e-01 2.56040e+00 7.47686e+00 3.00061e-01 2.60240e+00 7.56777e+00 3.00050e-01 2.64440e+00 7.65864e+00 3.00039e-01 2.68640e+00 7.74950e+00 3.00029e-01 2.72840e+00 7.84032e+00 3.00020e-01 2.77050e+00 7.93113e+00 3.00011e-01 2.81260e+00 8.02191e+00 3.00002e-01 2.85480e+00 8.11267e+00 2.99994e-01 2.89690e+00 8.20342e+00 2.99987e-01 2.93910e+00 8.29416e+00 2.99980e-01 2.98130e+00 8.38489e+00 2.99973e-01 3.02340e+00 8.47560e+00 2.99967e-01 3.06560e+00 8.56631e+00 2.99962e-01 3.10780e+00 8.65701e+00 2.99957e-01 3.15000e+00 8.74771e+00 2.99952e-01 3.19220e+00 8.83840e+00 2.99949e-01 3.23440e+00 8.92909e+00 2.99945e-01 3.27660e+00 9.01978e+00 2.99942e-01 3.31880e+00 9.11048e+00 2.99940e-01 3.36100e+00 9.20117e+00 2.99938e-01 3.40310e+00 9.29186e+00 2.99935e-01 3.44530e+00 9.38256e+00 2.99933e-01 3.48740e+00 9.47326e+00 2.99931e-01 3.52960e+00 0.00000e+00 4.00000e-01 3.00000e-01 1.00714e-01 4.00284e-01 2.99988e-01 2.02584e-01 4.00476e-01 3.02925e-01 3.04915e-01 4.00594e-01 3.07151e-01 4.07220e-01 4.00637e-01 3.12561e-01 5.09427e-01 4.00672e-01 3.18883e-01 6.11420e-01 4.00678e-01 3.26426e-01 7.13322e-01 4.00689e-01 3.34930e-01 8.15012e-01 4.00684e-01 3.44617e-01 9.16591e-01 4.00683e-01 3.55301e-01 1.01796e+00 4.00675e-01 3.67111e-01 1.11920e+00 4.00669e-01 3.79921e-01 1.22022e+00 4.00661e-01 3.93797e-01 1.32108e+00 4.00653e-01 4.08650e-01 1.42173e+00 4.00644e-01 4.24520e-01 1.52220e+00 4.00636e-01 4.41330e-01 1.62245e+00 4.00627e-01 4.59100e-01 1.72250e+00 4.00618e-01 4.77770e-01 1.82233e+00 4.00609e-01 4.97350e-01 1.92196e+00 4.00599e-01 5.17790e-01 2.02136e+00 4.00589e-01 5.39090e-01 2.12054e+00 4.00580e-01 5.61210e-01 2.21951e+00 4.00570e-01 5.84130e-01 2.31825e+00 4.00559e-01 6.07830e-01 2.41676e+00 4.00549e-01 6.32300e-01 2.51506e+00 4.00539e-01 6.57490e-01 2.61313e+00 4.00528e-01 6.83410e-01 2.71097e+00 4.00517e-01 7.10020e-01 2.80859e+00 4.00507e-01 7.37300e-01 2.90599e+00 4.00496e-01 7.65240e-01 3.00317e+00 4.00485e-01 7.93810e-01 3.10013e+00 4.00474e-01 8.23000e-01 3.19688e+00 4.00463e-01 8.52780e-01 3.29341e+00 4.00452e-01 8.83140e-01 3.38972e+00 4.00441e-01 9.14050e-01 3.48583e+00 4.00429e-01 9.45500e-01 3.58173e+00 4.00418e-01 9.77480e-01 3.67743e+00 4.00407e-01 1.00996e+00 3.77293e+00 4.00396e-01 1.04292e+00 3.86823e+00 4.00385e-01 1.07636e+00 3.96334e+00 4.00374e-01 1.11025e+00 4.05826e+00 4.00362e-01 1.14457e+00 4.15299e+00 4.00351e-01 1.17932e+00 4.24754e+00 4.00340e-01 1.21447e+00 4.34192e+00 4.00329e-01 1.25001e+00 4.43612e+00 4.00318e-01 1.28593e+00 4.53016e+00 4.00307e-01 1.32220e+00 4.62403e+00 4.00297e-01 1.35880e+00 4.71774e+00 4.00286e-01 1.39580e+00 4.81129e+00 4.00275e-01 1.43310e+00 4.90470e+00 4.00265e-01 1.47070e+00 4.99795e+00 4.00254e-01 1.50850e+00 5.09107e+00 4.00244e-01 1.54670e+00 5.18405e+00 4.00233e-01 1.58510e+00 5.27690e+00 4.00223e-01 1.62380e+00 5.36962e+00 4.00213e-01 1.66270e+00 5.46221e+00 4.00203e-01 1.70190e+00 5.55469e+00 4.00194e-01 1.74120e+00 5.64705e+00 4.00184e-01 1.78080e+00 5.73930e+00 4.00175e-01 1.82060e+00 5.83145e+00 4.00165e-01 1.86060e+00 5.92350e+00 4.00156e-01 1.90070e+00 6.01545e+00 4.00147e-01 1.94110e+00 6.10731e+00 4.00139e-01 1.98150e+00 6.19908e+00 4.00130e-01 2.02220e+00 6.29076e+00 4.00121e-01 2.06300e+00 6.38237e+00 4.00113e-01 2.10390e+00 6.47390e+00 4.00105e-01 2.14490e+00 6.56536e+00 4.00097e-01 2.18610e+00 6.65675e+00 4.00090e-01 2.22730e+00 6.74808e+00 4.00082e-01 2.26870e+00 6.83935e+00 4.00075e-01 2.31010e+00 6.93056e+00 4.00068e-01 2.35170e+00 7.02172e+00 4.00061e-01 2.39330e+00 7.11283e+00 4.00054e-01 2.43500e+00 7.20390e+00 4.00048e-01 2.47680e+00 7.29492e+00 4.00042e-01 2.51860e+00 7.38590e+00 4.00036e-01 2.56050e+00 7.47684e+00 4.00030e-01 2.60240e+00 7.56775e+00 4.00025e-01 2.64440e+00 7.65863e+00 4.00020e-01 2.68640e+00 7.74949e+00 4.00015e-01 2.72850e+00 7.84031e+00 4.00010e-01 2.77050e+00 7.93112e+00 4.00005e-01 2.81270e+00 8.02190e+00 4.00001e-01 2.85480e+00 8.11267e+00 3.99997e-01 2.89690e+00 8.20342e+00 3.99993e-01 2.93910e+00 8.29416e+00 3.99990e-01 2.98130e+00 8.38489e+00 3.99987e-01 3.02350e+00 8.47560e+00 3.99984e-01 3.06560e+00 8.56631e+00 3.99981e-01 3.10780e+00 8.65701e+00 3.99978e-01 3.15000e+00 8.74771e+00 3.99976e-01 3.19220e+00 8.83840e+00 3.99974e-01 3.23440e+00 8.92910e+00 3.99973e-01 3.27660e+00 9.01979e+00 3.99971e-01 3.31880e+00 9.11048e+00 3.99970e-01 3.36090e+00 9.20117e+00 3.99969e-01 3.40310e+00 9.29187e+00 3.99968e-01 3.44530e+00 9.38256e+00 3.99967e-01 3.48740e+00 9.47326e+00 3.99966e-01 3.52960e+00 0.00000e+00 5.00000e-01 3.00000e-01 1.00667e-01 5.00000e-01 3.00010e-01 2.02600e-01 5.00000e-01 3.02982e-01 3.04857e-01 5.00000e-01 3.07237e-01 4.07210e-01 5.00000e-01 3.12684e-01 5.09381e-01 5.00000e-01 3.19035e-01 6.11401e-01 5.00000e-01 3.26605e-01 7.13285e-01 5.00000e-01 3.35125e-01 8.14986e-01 5.00000e-01 3.44826e-01 9.16558e-01 5.00000e-01 3.55517e-01 1.01794e+00 5.00000e-01 3.67333e-01 1.11916e+00 5.00000e-01 3.80144e-01 1.22019e+00 5.00000e-01 3.94022e-01 1.32105e+00 5.00000e-01 4.08880e-01 1.42170e+00 5.00000e-01 4.24740e-01 1.52216e+00 5.00000e-01 4.41550e-01 1.62241e+00 5.00000e-01 4.59310e-01 1.72246e+00 5.00000e-01 4.77980e-01 1.82229e+00 5.00000e-01 4.97560e-01 1.92192e+00 5.00000e-01 5.17990e-01 2.02132e+00 5.00000e-01 5.39280e-01 2.12051e+00 5.00000e-01 5.61400e-01 2.21947e+00 5.00000e-01 5.84320e-01 2.31821e+00 5.00000e-01 6.08010e-01 2.41672e+00 5.00000e-01 6.32470e-01 2.51502e+00 5.00000e-01 6.57660e-01 2.61308e+00 5.00000e-01 6.83580e-01 2.71093e+00 5.00000e-01 7.10180e-01 2.80855e+00 5.00000e-01 7.37460e-01 2.90595e+00 5.00000e-01 7.65390e-01 3.00313e+00 5.00000e-01 7.93960e-01 3.10009e+00 5.00000e-01 8.23140e-01 3.19684e+00 5.00000e-01 8.52920e-01 3.29337e+00 5.00000e-01 8.83270e-01 3.38969e+00 5.00000e-01 9.14180e-01 3.48579e+00 5.00000e-01 9.45630e-01 3.58170e+00 5.00000e-01 9.77600e-01 3.67739e+00 5.00000e-01 1.01008e+00 3.77289e+00 5.00000e-01 1.04304e+00 3.86819e+00 5.00000e-01 1.07647e+00 3.96330e+00 5.00000e-01 1.11036e+00 4.05822e+00 5.00000e-01 1.14468e+00 4.15296e+00 5.00000e-01 1.17942e+00 4.24751e+00 5.00000e-01 1.21457e+00 4.34189e+00 5.00000e-01 1.25011e+00 4.43609e+00 5.00000e-01 1.28602e+00 4.53013e+00 5.00000e-01 1.32230e+00 4.62400e+00 5.00000e-01 1.35890e+00 4.71771e+00 5.00000e-01 1.39590e+00 4.81126e+00 5.00000e-01 1.43310e+00 4.90467e+00 5.00000e-01 1.47070e+00 4.99793e+00 5.00000e-01 1.50860e+00 5.09105e+00 5.00000e-01 1.54670e+00 5.18403e+00 5.00000e-01 1.58520e+00 5.27687e+00 5.00000e-01 1.62380e+00 5.36959e+00 5.00000e-01 1.66280e+00 5.46219e+00 5.00000e-01 1.70190e+00 5.55467e+00 5.00000e-01 1.74130e+00 5.64703e+00 5.00000e-01 1.78090e+00 5.73929e+00 5.00000e-01 1.82070e+00 5.83143e+00 5.00000e-01 1.86060e+00 5.92348e+00 5.00000e-01 1.90080e+00 6.01543e+00 5.00000e-01 1.94110e+00 6.10729e+00 5.00000e-01 1.98160e+00 6.19906e+00 5.00000e-01 2.02220e+00 6.29075e+00 5.00000e-01 2.06300e+00 6.38236e+00 5.00000e-01 2.10390e+00 6.47389e+00 5.00000e-01 2.14490e+00 6.56535e+00 5.00000e-01 2.18610e+00 6.65674e+00 5.00000e-01 2.22730e+00 6.74807e+00 5.00000e-01 2.26870e+00 6.83934e+00 5.00000e-01 2.31020e+00 6.93055e+00 5.00000e-01 2.35170e+00 7.02171e+00 5.00000e-01 2.39330e+00 7.11282e+00 5.00000e-01 2.43500e+00 7.20389e+00 5.00000e-01 2.47680e+00 7.29491e+00 5.00000e-01 2.51860e+00 7.38589e+00 5.00000e-01 2.56050e+00 7.47684e+00 5.00000e-01 2.60240e+00 7.56775e+00 5.00000e-01 2.64440e+00 7.65863e+00 5.00000e-01 2.68640e+00 7.74948e+00 5.00000e-01 2.72850e+00 7.84031e+00 5.00000e-01 2.77060e+00 7.93112e+00 5.00000e-01 2.81270e+00 8.02190e+00 5.00000e-01 2.85480e+00 8.11267e+00 5.00000e-01 2.89690e+00 8.20342e+00 5.00000e-01 2.93910e+00 8.29416e+00 5.00000e-01 2.98130e+00 8.38488e+00 5.00000e-01 3.02350e+00 8.47560e+00 5.00000e-01 3.06570e+00 8.56631e+00 5.00000e-01 3.10780e+00 8.65701e+00 5.00000e-01 3.15000e+00 8.74771e+00 5.00000e-01 3.19220e+00 8.83840e+00 5.00000e-01 3.23440e+00 8.92910e+00 5.00000e-01 3.27660e+00 9.01979e+00 5.00000e-01 3.31880e+00 9.11048e+00 5.00000e-01 3.36090e+00 9.20117e+00 5.00000e-01 3.40310e+00 9.29187e+00 5.00000e-01 3.44530e+00 9.38256e+00 5.00000e-01 3.48740e+00 9.47326e+00 5.00000e-01 3.52950e+00 0.00000e+00 6.00000e-01 3.00000e-01 1.00714e-01 5.99716e-01 2.99988e-01 2.02584e-01 5.99524e-01 3.02925e-01 3.04915e-01 5.99406e-01 3.07151e-01 4.07220e-01 5.99363e-01 3.12561e-01 5.09427e-01 5.99328e-01 3.18883e-01 6.11420e-01 5.99322e-01 3.26426e-01 7.13322e-01 5.99311e-01 3.34930e-01 8.15012e-01 5.99316e-01 3.44617e-01 9.16591e-01 5.99317e-01 3.55301e-01 1.01796e+00 5.99325e-01 3.67111e-01 1.11920e+00 5.99331e-01 3.79921e-01 1.22022e+00 5.99339e-01 3.93797e-01 1.32108e+00 5.99347e-01 4.08650e-01 1.42173e+00 5.99356e-01 4.24520e-01 1.52220e+00 5.99364e-01 4.41330e-01 1.62245e+00 5.99373e-01 4.59100e-01 1.72250e+00 5.99382e-01 4.77770e-01 1.82233e+00 5.99391e-01 4.97350e-01 1.92196e+00 5.99401e-01 5.17790e-01 2.02136e+00 5.99410e-01 5.39090e-01 2.12054e+00 5.99420e-01 5.61210e-01 2.21951e+00 5.99430e-01 5.84130e-01 2.31825e+00 5.99441e-01 6.07830e-01 2.41676e+00 5.99451e-01 6.32300e-01 2.51506e+00 5.99461e-01 6.57490e-01 2.61313e+00 5.99472e-01 6.83410e-01 2.71097e+00 5.99483e-01 7.10020e-01 2.80859e+00 5.99493e-01 7.37300e-01 2.90599e+00 5.99504e-01 7.65240e-01 3.00317e+00 5.99515e-01 7.93810e-01 3.10013e+00 5.99526e-01 8.23000e-01 3.19688e+00 5.99537e-01 8.52780e-01 3.29341e+00 5.99548e-01 8.83140e-01 3.38972e+00 5.99559e-01 9.14050e-01 3.48583e+00 5.99570e-01 9.45500e-01 3.58173e+00 5.99582e-01 9.77480e-01 3.67743e+00 5.99593e-01 1.00996e+00 3.77293e+00 5.99604e-01 1.04292e+00 3.86823e+00 5.99615e-01 1.07636e+00 3.96334e+00 5.99626e-01 1.11025e+00 4.05826e+00 5.99637e-01 1.14457e+00 4.15299e+00 5.99649e-01 1.17932e+00 4.24754e+00 5.99660e-01 1.21447e+00 4.34192e+00 5.99671e-01 1.25001e+00 4.43612e+00 5.99682e-01 1.28593e+00 4.53016e+00 5.99693e-01 1.32220e+00 4.62403e+00 5.99703e-01 1.35880e+00 4.71774e+00 5.99714e-01 1.39580e+00 4.81129e+00 5.99725e-01 1.43310e+00 4.90470e+00 5.99735e-01 1.47070e+00 4.99795e+00 5.99746e-01 1.50850e+00 5.09107e+00 5.99756e-01 1.54670e+00 5.18405e+00 5.99766e-01 1.58510e+00 5.27690e+00 5.99777e-01 1.62380e+00 5.36962e+00 5.99787e-01 1.66270e+00 5.46221e+00 5.99796e-01 1.70190e+00 5.55469e+00 5.99806e-01 1.74120e+00 5.64705e+00 5.99816e-01 1.78080e+00 5.73930e+00 5.99825e-01 1.82060e+00 5.83145e+00 5.99834e-01 1.86060e+00 5.92350e+00 5.99844e-01 1.90070e+00 6.01545e+00 5.99853e-01 1.94110e+00 6.10731e+00 5.99861e-01 1.98150e+00 6.19908e+00 5.99870e-01 2.02220e+00 6.29076e+00 5.99878e-01 2.06300e+00 6.38237e+00 5.99887e-01 2.10390e+00 6.47390e+00 5.99895e-01 2.14490e+00 6.56536e+00 5.99902e-01 2.18610e+00 6.65675e+00 5.99910e-01 2.22730e+00 6.74808e+00 5.99918e-01 2.26870e+00 6.83935e+00 5.99925e-01 2.31010e+00 6.93056e+00 5.99932e-01 2.35170e+00 7.02172e+00 5.99939e-01 2.39330e+00 7.11283e+00 5.99945e-01 2.43500e+00 7.20390e+00 5.99952e-01 2.47680e+00 7.29492e+00 5.99958e-01 2.51860e+00 7.38590e+00 5.99964e-01 2.56050e+00 7.47684e+00 5.99969e-01 2.60240e+00 7.56775e+00 5.99975e-01 2.64440e+00 7.65863e+00 5.99980e-01 2.68640e+00 7.74949e+00 5.99985e-01 2.72850e+00 7.84031e+00 5.99990e-01 2.77050e+00 7.93112e+00 5.99994e-01 2.81270e+00 8.02190e+00 5.99999e-01 2.85480e+00 8.11267e+00 6.00003e-01 2.89690e+00 8.20342e+00 6.00006e-01 2.93910e+00 8.29416e+00 6.00010e-01 2.98130e+00 8.38489e+00 6.00013e-01 3.02350e+00 8.47560e+00 6.00016e-01 3.06560e+00 8.56631e+00 6.00019e-01 3.10780e+00 8.65701e+00 6.00021e-01 3.15000e+00 8.74771e+00 6.00023e-01 3.19220e+00 8.83840e+00 6.00025e-01 3.23440e+00 8.92910e+00 6.00027e-01 3.27660e+00 9.01979e+00 6.00028e-01 3.31880e+00 9.11048e+00 6.00030e-01 3.36090e+00 9.20117e+00 6.00031e-01 3.40310e+00 9.29187e+00 6.00032e-01 3.44530e+00 9.38256e+00 6.00033e-01 3.48740e+00 9.47326e+00 6.00034e-01 3.52960e+00 0.00000e+00 7.00000e-01 3.00000e-01 1.00692e-01 6.99361e-01 2.99915e-01 2.02693e-01 6.98934e-01 3.02762e-01 3.04984e-01 6.98765e-01 3.06872e-01 4.07343e-01 6.98666e-01 3.12167e-01 5.09509e-01 6.98648e-01 3.18396e-01 6.11521e-01 6.98614e-01 3.25868e-01 7.13405e-01 6.98619e-01 3.34321e-01 8.15105e-01 6.98616e-01 3.43971e-01 9.16679e-01 6.98629e-01 3.54633e-01 1.01806e+00 6.98639e-01 3.66430e-01 1.11929e+00 6.98655e-01 3.79236e-01 1.22032e+00 6.98669e-01 3.93113e-01 1.32118e+00 6.98686e-01 4.07970e-01 1.42184e+00 6.98703e-01 4.23850e-01 1.52231e+00 6.98720e-01 4.40670e-01 1.62256e+00 6.98738e-01 4.58450e-01 1.72261e+00 6.98756e-01 4.77140e-01 1.82245e+00 6.98775e-01 4.96730e-01 1.92207e+00 6.98794e-01 5.17190e-01 2.02148e+00 6.98814e-01 5.38500e-01 2.12067e+00 6.98834e-01 5.60630e-01 2.21963e+00 6.98854e-01 5.83570e-01 2.31837e+00 6.98874e-01 6.07280e-01 2.41689e+00 6.98895e-01 6.31760e-01 2.51518e+00 6.98916e-01 6.56970e-01 2.61325e+00 6.98938e-01 6.82900e-01 2.71110e+00 6.98959e-01 7.09530e-01 2.80872e+00 6.98981e-01 7.36820e-01 2.90612e+00 6.99003e-01 7.64780e-01 3.00330e+00 6.99025e-01 7.93360e-01 3.10026e+00 6.99047e-01 8.22560e-01 3.19700e+00 6.99070e-01 8.52350e-01 3.29353e+00 6.99092e-01 8.82720e-01 3.38984e+00 6.99114e-01 9.13650e-01 3.48595e+00 6.99137e-01 9.45120e-01 3.58185e+00 6.99159e-01 9.77110e-01 3.67754e+00 6.99182e-01 1.00960e+00 3.77304e+00 6.99204e-01 1.04257e+00 3.86834e+00 6.99227e-01 1.07602e+00 3.96344e+00 6.99249e-01 1.10992e+00 4.05836e+00 6.99272e-01 1.14426e+00 4.15309e+00 6.99294e-01 1.17901e+00 4.24764e+00 6.99316e-01 1.21418e+00 4.34202e+00 6.99339e-01 1.24973e+00 4.43622e+00 6.99361e-01 1.28566e+00 4.53025e+00 6.99383e-01 1.32190e+00 4.62411e+00 6.99404e-01 1.35860e+00 4.71782e+00 6.99426e-01 1.39550e+00 4.81137e+00 6.99447e-01 1.43280e+00 4.90478e+00 6.99469e-01 1.47040e+00 4.99803e+00 6.99490e-01 1.50830e+00 5.09114e+00 6.99511e-01 1.54650e+00 5.18412e+00 6.99531e-01 1.58490e+00 5.27697e+00 6.99552e-01 1.62360e+00 5.36968e+00 6.99572e-01 1.66250e+00 5.46227e+00 6.99591e-01 1.70170e+00 5.55475e+00 6.99611e-01 1.74110e+00 5.64711e+00 6.99630e-01 1.78070e+00 5.73936e+00 6.99649e-01 1.82050e+00 5.83150e+00 6.99668e-01 1.86040e+00 5.92355e+00 6.99686e-01 1.90060e+00 6.01550e+00 6.99704e-01 1.94090e+00 6.10735e+00 6.99722e-01 1.98140e+00 6.19912e+00 6.99739e-01 2.02210e+00 6.29080e+00 6.99756e-01 2.06290e+00 6.38241e+00 6.99773e-01 2.10380e+00 6.47394e+00 6.99789e-01 2.14480e+00 6.56539e+00 6.99804e-01 2.18600e+00 6.65678e+00 6.99820e-01 2.22720e+00 6.74811e+00 6.99835e-01 2.26860e+00 6.83938e+00 6.99849e-01 2.31010e+00 6.93059e+00 6.99863e-01 2.35160e+00 7.02174e+00 6.99877e-01 2.39320e+00 7.11285e+00 6.99890e-01 2.43490e+00 7.20391e+00 6.99903e-01 2.47670e+00 7.29493e+00 6.99916e-01 2.51860e+00 7.38591e+00 6.99928e-01 2.56040e+00 7.47686e+00 6.99939e-01 2.60240e+00 7.56777e+00 6.99950e-01 2.64440e+00 7.65864e+00 6.99960e-01 2.68640e+00 7.74950e+00 6.99970e-01 2.72840e+00 7.84032e+00 6.99980e-01 2.77050e+00 7.93113e+00 6.99989e-01 2.81260e+00 8.02191e+00 6.99998e-01 2.85480e+00 8.11267e+00 7.00006e-01 2.89690e+00 8.20342e+00 7.00013e-01 2.93910e+00 8.29416e+00 7.00020e-01 2.98130e+00 8.38489e+00 7.00027e-01 3.02340e+00 8.47560e+00 7.00033e-01 3.06560e+00 8.56631e+00 7.00038e-01 3.10780e+00 8.65701e+00 7.00043e-01 3.15000e+00 8.74771e+00 7.00047e-01 3.19220e+00 8.83840e+00 7.00051e-01 3.23440e+00 8.92909e+00 7.00054e-01 3.27660e+00 9.01978e+00 7.00057e-01 3.31880e+00 9.11048e+00 7.00060e-01 3.36100e+00 9.20117e+00 7.00062e-01 3.40310e+00 9.29186e+00 7.00064e-01 3.44530e+00 9.38256e+00 7.00066e-01 3.48740e+00 9.47326e+00 7.00069e-01 3.52960e+00 0.00000e+00 8.00000e-01 3.00000e-01 1.00822e-01 7.98782e-01 2.99808e-01 2.02810e-01 7.98198e-01 3.02467e-01 3.05215e-01 7.97964e-01 3.06352e-01 4.07511e-01 7.97962e-01 3.11431e-01 5.09673e-01 7.97900e-01 3.17519e-01 6.11665e-01 7.97907e-01 3.24876e-01 7.13549e-01 7.97892e-01 3.33259e-01 8.15248e-01 7.97909e-01 3.42857e-01 9.16825e-01 7.97918e-01 3.53493e-01 1.01821e+00 7.97940e-01 3.65274e-01 1.11945e+00 7.97960e-01 3.78079e-01 1.22048e+00 7.97985e-01 3.91961e-01 1.32135e+00 7.98009e-01 4.06840e-01 1.42201e+00 7.98035e-01 4.22730e-01 1.52248e+00 7.98061e-01 4.39570e-01 1.62274e+00 7.98088e-01 4.57370e-01 1.72280e+00 7.98116e-01 4.76080e-01 1.82264e+00 7.98144e-01 4.95700e-01 1.92227e+00 7.98173e-01 5.16180e-01 2.02168e+00 7.98203e-01 5.37510e-01 2.12087e+00 7.98234e-01 5.59670e-01 2.21983e+00 7.98265e-01 5.82630e-01 2.31857e+00 7.98296e-01 6.06370e-01 2.41709e+00 7.98328e-01 6.30870e-01 2.51539e+00 7.98360e-01 6.56110e-01 2.61345e+00 7.98393e-01 6.82060e-01 2.71130e+00 7.98426e-01 7.08710e-01 2.80892e+00 7.98459e-01 7.36030e-01 2.90632e+00 7.98492e-01 7.64010e-01 3.00350e+00 7.98526e-01 7.92610e-01 3.10045e+00 7.98560e-01 8.21830e-01 3.19720e+00 7.98594e-01 8.51650e-01 3.29372e+00 7.98628e-01 8.82040e-01 3.39003e+00 7.98662e-01 9.12990e-01 3.48614e+00 7.98696e-01 9.44480e-01 3.58203e+00 7.98730e-01 9.76480e-01 3.67773e+00 7.98764e-01 1.00900e+00 3.77322e+00 7.98799e-01 1.04199e+00 3.86851e+00 7.98833e-01 1.07546e+00 3.96362e+00 7.98867e-01 1.10938e+00 4.05853e+00 7.98901e-01 1.14373e+00 4.15326e+00 7.98935e-01 1.17851e+00 4.24780e+00 7.98968e-01 1.21369e+00 4.34217e+00 7.99002e-01 1.24926e+00 4.43637e+00 7.99035e-01 1.28520e+00 4.53039e+00 7.99069e-01 1.32150e+00 4.62426e+00 7.99102e-01 1.35820e+00 4.71796e+00 7.99134e-01 1.39510e+00 4.81151e+00 7.99167e-01 1.43240e+00 4.90491e+00 7.99199e-01 1.47010e+00 4.99816e+00 7.99231e-01 1.50800e+00 5.09127e+00 7.99262e-01 1.54610e+00 5.18424e+00 7.99293e-01 1.58460e+00 5.27708e+00 7.99324e-01 1.62330e+00 5.36979e+00 7.99354e-01 1.66220e+00 5.46238e+00 7.99384e-01 1.70140e+00 5.55485e+00 7.99414e-01 1.74080e+00 5.64720e+00 7.99443e-01 1.78040e+00 5.73945e+00 7.99471e-01 1.82020e+00 5.83159e+00 7.99500e-01 1.86020e+00 5.92363e+00 7.99527e-01 1.90040e+00 6.01557e+00 7.99554e-01 1.94070e+00 6.10742e+00 7.99581e-01 1.98120e+00 6.19919e+00 7.99607e-01 2.02190e+00 6.29087e+00 7.99633e-01 2.06270e+00 6.38247e+00 7.99657e-01 2.10360e+00 6.47399e+00 7.99682e-01 2.14470e+00 6.56545e+00 7.99706e-01 2.18580e+00 6.65683e+00 7.99729e-01 2.22710e+00 6.74815e+00 7.99751e-01 2.26850e+00 6.83942e+00 7.99773e-01 2.30990e+00 6.93062e+00 7.99795e-01 2.35150e+00 7.02178e+00 7.99815e-01 2.39310e+00 7.11288e+00 7.99835e-01 2.43490e+00 7.20394e+00 7.99854e-01 2.47660e+00 7.29496e+00 7.99873e-01 2.51850e+00 7.38593e+00 7.99891e-01 2.56040e+00 7.47688e+00 7.99908e-01 2.60230e+00 7.56778e+00 7.99925e-01 2.64430e+00 7.65866e+00 7.99940e-01 2.68630e+00 7.74951e+00 7.99956e-01 2.72840e+00 7.84033e+00 7.99970e-01 2.77050e+00 7.93113e+00 7.99984e-01 2.81260e+00 8.02192e+00 7.99996e-01 2.85470e+00 8.11268e+00 8.00008e-01 2.89690e+00 8.20343e+00 8.00020e-01 2.93910e+00 8.29416e+00 8.00030e-01 2.98120e+00 8.38489e+00 8.00040e-01 3.02340e+00 8.47560e+00 8.00049e-01 3.06560e+00 8.56631e+00 8.00057e-01 3.10780e+00 8.65701e+00 8.00065e-01 3.15000e+00 8.74771e+00 8.00071e-01 3.19220e+00 8.83840e+00 8.00077e-01 3.23440e+00 8.92909e+00 8.00082e-01 3.27660e+00 9.01978e+00 8.00086e-01 3.31880e+00 9.11047e+00 8.00090e-01 3.36100e+00 9.20116e+00 8.00094e-01 3.40310e+00 9.29186e+00 8.00097e-01 3.44530e+00 9.38255e+00 8.00101e-01 3.48740e+00 9.47325e+00 8.00104e-01 3.52960e+00 0.00000e+00 9.00000e-01 3.00000e-01 1.00884e-01 8.97905e-01 2.99722e-01 2.03237e-01 8.97105e-01 3.01883e-01 3.05525e-01 8.97239e-01 3.05356e-01 4.07740e-01 8.97166e-01 3.10169e-01 5.09876e-01 8.97197e-01 3.16095e-01 6.11852e-01 8.97166e-01 3.23323e-01 7.13738e-01 8.97181e-01 3.31639e-01 8.15439e-01 8.97184e-01 3.41186e-01 9.17024e-01 8.97208e-01 3.51807e-01 1.01842e+00 8.97230e-01 3.63581e-01 1.11966e+00 8.97260e-01 3.76398e-01 1.22071e+00 8.97290e-01 3.90296e-01 1.32158e+00 8.97323e-01 4.05200e-01 1.42225e+00 8.97357e-01 4.21120e-01 1.52273e+00 8.97393e-01 4.37990e-01 1.62300e+00 8.97429e-01 4.55830e-01 1.72306e+00 8.97467e-01 4.74570e-01 1.82291e+00 8.97505e-01 4.94220e-01 1.92254e+00 8.97545e-01 5.14740e-01 2.02195e+00 8.97586e-01 5.36110e-01 2.12114e+00 8.97627e-01 5.58300e-01 2.22011e+00 8.97669e-01 5.81300e-01 2.31886e+00 8.97712e-01 6.05080e-01 2.41738e+00 8.97755e-01 6.29610e-01 2.51567e+00 8.97799e-01 6.54890e-01 2.61374e+00 8.97843e-01 6.80870e-01 2.71158e+00 8.97888e-01 7.07550e-01 2.80920e+00 8.97933e-01 7.34910e-01 2.90660e+00 8.97978e-01 7.62910e-01 3.00378e+00 8.98024e-01 7.91550e-01 3.10073e+00 8.98070e-01 8.20810e-01 3.19747e+00 8.98115e-01 8.50650e-01 3.29399e+00 8.98161e-01 8.81070e-01 3.39030e+00 8.98207e-01 9.12050e-01 3.48640e+00 8.98254e-01 9.43570e-01 3.58229e+00 8.98300e-01 9.75610e-01 3.67798e+00 8.98346e-01 1.00815e+00 3.77347e+00 8.98392e-01 1.04117e+00 3.86876e+00 8.98438e-01 1.07466e+00 3.96386e+00 8.98484e-01 1.10861e+00 4.05876e+00 8.98530e-01 1.14299e+00 4.15349e+00 8.98575e-01 1.17779e+00 4.24803e+00 8.98621e-01 1.21300e+00 4.34239e+00 8.98666e-01 1.24859e+00 4.43658e+00 8.98710e-01 1.28456e+00 4.53060e+00 8.98755e-01 1.32090e+00 4.62446e+00 8.98799e-01 1.35760e+00 4.71815e+00 8.98843e-01 1.39460e+00 4.81169e+00 8.98887e-01 1.43190e+00 4.90508e+00 8.98930e-01 1.46950e+00 4.99833e+00 8.98972e-01 1.50740e+00 5.09143e+00 8.99015e-01 1.54560e+00 5.18440e+00 8.99056e-01 1.58410e+00 5.27723e+00 8.99097e-01 1.62280e+00 5.36993e+00 8.99138e-01 1.66180e+00 5.46252e+00 8.99178e-01 1.70100e+00 5.55498e+00 8.99218e-01 1.74040e+00 5.64733e+00 8.99257e-01 1.78000e+00 5.73957e+00 8.99295e-01 1.81990e+00 5.83170e+00 8.99332e-01 1.85990e+00 5.92374e+00 8.99369e-01 1.90010e+00 6.01567e+00 8.99406e-01 1.94040e+00 6.10752e+00 8.99441e-01 1.98090e+00 6.19928e+00 8.99476e-01 2.02160e+00 6.29095e+00 8.99510e-01 2.06240e+00 6.38255e+00 8.99543e-01 2.10340e+00 6.47407e+00 8.99576e-01 2.14440e+00 6.56552e+00 8.99608e-01 2.18560e+00 6.65690e+00 8.99639e-01 2.22690e+00 6.74821e+00 8.99669e-01 2.26830e+00 6.83947e+00 8.99698e-01 2.30980e+00 6.93067e+00 8.99726e-01 2.35130e+00 7.02182e+00 8.99754e-01 2.39300e+00 7.11292e+00 8.99780e-01 2.43470e+00 7.20398e+00 8.99806e-01 2.47650e+00 7.29499e+00 8.99831e-01 2.51840e+00 7.38596e+00 8.99855e-01 2.56030e+00 7.47690e+00 8.99878e-01 2.60220e+00 7.56780e+00 8.99900e-01 2.64420e+00 7.65868e+00 8.99921e-01 2.68620e+00 7.74952e+00 8.99941e-01 2.72830e+00 7.84035e+00 8.99960e-01 2.77040e+00 7.93114e+00 8.99978e-01 2.81250e+00 8.02192e+00 8.99995e-01 2.85470e+00 8.11269e+00 9.00012e-01 2.89680e+00 8.20343e+00 9.00027e-01 2.93900e+00 8.29417e+00 9.00041e-01 2.98120e+00 8.38489e+00 9.00054e-01 3.02340e+00 8.47560e+00 9.00066e-01 3.06560e+00 8.56631e+00 9.00077e-01 3.10780e+00 8.65701e+00 9.00086e-01 3.15000e+00 8.74770e+00 9.00095e-01 3.19220e+00 8.83839e+00 9.00103e-01 3.23440e+00 8.92908e+00 9.00110e-01 3.27660e+00 9.01977e+00 9.00115e-01 3.31880e+00 9.11046e+00 9.00120e-01 3.36100e+00 9.20115e+00 9.00125e-01 3.40310e+00 9.29185e+00 9.00130e-01 3.44530e+00 9.38254e+00 9.00135e-01 3.48740e+00 9.47324e+00 9.00141e-01 3.52960e+00 0.00000e+00 1.00000e+00 3.00000e-01 1.01557e-01 9.96298e-01 2.98795e-01 2.03694e-01 9.96519e-01 3.00403e-01 3.05672e-01 9.96342e-01 3.03489e-01 4.07966e-01 9.96487e-01 3.08085e-01 5.10050e-01 9.96410e-01 3.13869e-01 6.12079e-01 9.96435e-01 3.21009e-01 7.13949e-01 9.96414e-01 3.29287e-01 8.15682e-01 9.96436e-01 3.38820e-01 9.17269e-01 9.96453e-01 3.49452e-01 1.01868e+00 9.96484e-01 3.61250e-01 1.11994e+00 9.96518e-01 3.74102e-01 1.22100e+00 9.96556e-01 3.88041e-01 1.32189e+00 9.96598e-01 4.02990e-01 1.42257e+00 9.96641e-01 4.18950e-01 1.52306e+00 9.96687e-01 4.35880e-01 1.62333e+00 9.96734e-01 4.53760e-01 1.72341e+00 9.96783e-01 4.72560e-01 1.82326e+00 9.96833e-01 4.92260e-01 1.92290e+00 9.96885e-01 5.12830e-01 2.02231e+00 9.96938e-01 5.34250e-01 2.12151e+00 9.96992e-01 5.56490e-01 2.22048e+00 9.97046e-01 5.79540e-01 2.31923e+00 9.97102e-01 6.03360e-01 2.41775e+00 9.97158e-01 6.27950e-01 2.51604e+00 9.97215e-01 6.53270e-01 2.61411e+00 9.97272e-01 6.79300e-01 2.71196e+00 9.97330e-01 7.06020e-01 2.80957e+00 9.97388e-01 7.33420e-01 2.90697e+00 9.97446e-01 7.61470e-01 3.00414e+00 9.97505e-01 7.90150e-01 3.10109e+00 9.97564e-01 8.19450e-01 3.19783e+00 9.97622e-01 8.49340e-01 3.29435e+00 9.97681e-01 8.79800e-01 3.39065e+00 9.97740e-01 9.10820e-01 3.48674e+00 9.97799e-01 9.42370e-01 3.58263e+00 9.97858e-01 9.74450e-01 3.67831e+00 9.97917e-01 1.00703e+00 3.77379e+00 9.97976e-01 1.04009e+00 3.86908e+00 9.98034e-01 1.07362e+00 3.96417e+00 9.98093e-01 1.10760e+00 4.05907e+00 9.98151e-01 1.14202e+00 4.15378e+00 9.98209e-01 1.17685e+00 4.24831e+00 9.98266e-01 1.21209e+00 4.34267e+00 9.98323e-01 1.24772e+00 4.43685e+00 9.98380e-01 1.28372e+00 4.53086e+00 9.98436e-01 1.32010e+00 4.62471e+00 9.98492e-01 1.35680e+00 4.71840e+00 9.98548e-01 1.39380e+00 4.81193e+00 9.98603e-01 1.43120e+00 4.90531e+00 9.98657e-01 1.46880e+00 4.99855e+00 9.98711e-01 1.50680e+00 5.09164e+00 9.98764e-01 1.54500e+00 5.18460e+00 9.98817e-01 1.58350e+00 5.27742e+00 9.98869e-01 1.62230e+00 5.37012e+00 9.98920e-01 1.66120e+00 5.46269e+00 9.98970e-01 1.70050e+00 5.55515e+00 9.99020e-01 1.73990e+00 5.64749e+00 9.99069e-01 1.77960e+00 5.73972e+00 9.99117e-01 1.81940e+00 5.83185e+00 9.99164e-01 1.85940e+00 5.92387e+00 9.99210e-01 1.89970e+00 6.01580e+00 9.99256e-01 1.94000e+00 6.10764e+00 9.99300e-01 1.98060e+00 6.19939e+00 9.99344e-01 2.02130e+00 6.29106e+00 9.99387e-01 2.06210e+00 6.38265e+00 9.99429e-01 2.10310e+00 6.47416e+00 9.99469e-01 2.14410e+00 6.56560e+00 9.99509e-01 2.18530e+00 6.65698e+00 9.99548e-01 2.22660e+00 6.74829e+00 9.99585e-01 2.26810e+00 6.83954e+00 9.99622e-01 2.30960e+00 6.93074e+00 9.99658e-01 2.35110e+00 7.02188e+00 9.99692e-01 2.39280e+00 7.11297e+00 9.99725e-01 2.43450e+00 7.20402e+00 9.99757e-01 2.47630e+00 7.29503e+00 9.99788e-01 2.51820e+00 7.38600e+00 9.99818e-01 2.56010e+00 7.47693e+00 9.99847e-01 2.60210e+00 7.56783e+00 9.99874e-01 2.64410e+00 7.65870e+00 9.99901e-01 2.68610e+00 7.74954e+00 9.99926e-01 2.72820e+00 7.84036e+00 9.99950e-01 2.77030e+00 7.93116e+00 9.99972e-01 2.81250e+00 8.02193e+00 9.99994e-01 2.85460e+00 8.11269e+00 1.00001e+00 2.89680e+00 8.20343e+00 1.00003e+00 2.93900e+00 8.29416e+00 1.00005e+00 2.98120e+00 8.38488e+00 1.00007e+00 3.02340e+00 8.47560e+00 1.00008e+00 3.06560e+00 8.56630e+00 1.00010e+00 3.10780e+00 8.65700e+00 1.00011e+00 3.15000e+00 8.74769e+00 1.00012e+00 3.19220e+00 8.83838e+00 1.00013e+00 3.23440e+00 8.92907e+00 1.00014e+00 3.27660e+00 9.01976e+00 1.00014e+00 3.31880e+00 9.11045e+00 1.00015e+00 3.36100e+00 9.20114e+00 1.00016e+00 3.40310e+00 9.29183e+00 1.00016e+00 3.44530e+00 9.38253e+00 1.00017e+00 3.48740e+00 9.47323e+00 1.00018e+00 3.52960e+00 0.00000e+00 0.00000e+00 4.00000e-01 1.00667e-01 1.43480e-03 3.98086e-01 2.01590e-01 1.19270e-03 3.99241e-01 3.02558e-01 1.09190e-03 4.02201e-01 4.03647e-01 9.17710e-04 4.06665e-01 5.04636e-01 8.67310e-04 4.12500e-01 6.05562e-01 8.27330e-04 4.19535e-01 7.06347e-01 8.23060e-04 4.27838e-01 8.07024e-01 8.21420e-04 4.37260e-01 9.07545e-01 8.32030e-04 4.47874e-01 1.00793e+00 8.42320e-04 4.59556e-01 1.10815e+00 8.57720e-04 4.72354e-01 1.20822e+00 8.71220e-04 4.86172e-01 1.30811e+00 8.86180e-04 5.01040e-01 1.40783e+00 8.98360e-04 5.16870e-01 1.50737e+00 9.10070e-04 5.33690e-01 1.60672e+00 9.18830e-04 5.51440e-01 1.70588e+00 9.26300e-04 5.70110e-01 1.80485e+00 9.31090e-04 5.89670e-01 1.90362e+00 9.34420e-04 6.10100e-01 2.00220e+00 9.35500e-04 6.31370e-01 2.10057e+00 9.35190e-04 6.53460e-01 2.19874e+00 9.33060e-04 6.76350e-01 2.29671e+00 9.29680e-04 7.00020e-01 2.39447e+00 9.24830e-04 7.24450e-01 2.49203e+00 9.18880e-04 7.49600e-01 2.58938e+00 9.11690e-04 7.75480e-01 2.68652e+00 9.03530e-04 8.02040e-01 2.78346e+00 8.94310e-04 8.29270e-01 2.88019e+00 8.84200e-04 8.57160e-01 2.97673e+00 8.73180e-04 8.85680e-01 3.07306e+00 8.61360e-04 9.14820e-01 3.16918e+00 8.48720e-04 9.44540e-01 3.26512e+00 8.35360e-04 9.74850e-01 3.36085e+00 8.21280e-04 1.00571e+00 3.45640e+00 8.06540e-04 1.03710e+00 3.55175e+00 7.91170e-04 1.06902e+00 3.64691e+00 7.75210e-04 1.10145e+00 3.74189e+00 7.58700e-04 1.13436e+00 3.83669e+00 7.41680e-04 1.16774e+00 3.93131e+00 7.24180e-04 1.20158e+00 4.02576e+00 7.06240e-04 1.23585e+00 4.12004e+00 6.87890e-04 1.27054e+00 4.21415e+00 6.69180e-04 1.30564e+00 4.30810e+00 6.50130e-04 1.34114e+00 4.40189e+00 6.30780e-04 1.37701e+00 4.49552e+00 6.11170e-04 1.41320e+00 4.58900e+00 5.91330e-04 1.44980e+00 4.68234e+00 5.71300e-04 1.48670e+00 4.77554e+00 5.51090e-04 1.52400e+00 4.86860e+00 5.30760e-04 1.56150e+00 4.96152e+00 5.10320e-04 1.59940e+00 5.05432e+00 4.89810e-04 1.63750e+00 5.14699e+00 4.69260e-04 1.67590e+00 5.23954e+00 4.48700e-04 1.71450e+00 5.33197e+00 4.28160e-04 1.75340e+00 5.42429e+00 4.07660e-04 1.79250e+00 5.51651e+00 3.87240e-04 1.83190e+00 5.60862e+00 3.66910e-04 1.87140e+00 5.70063e+00 3.46710e-04 1.91120e+00 5.79255e+00 3.26660e-04 1.95120e+00 5.88438e+00 3.06790e-04 1.99130e+00 5.97612e+00 2.87120e-04 2.03160e+00 6.06778e+00 2.67670e-04 2.07210e+00 6.15936e+00 2.48470e-04 2.11270e+00 6.25086e+00 2.29540e-04 2.15350e+00 6.34230e+00 2.10890e-04 2.19440e+00 6.43367e+00 1.92570e-04 2.23540e+00 6.52498e+00 1.74570e-04 2.27660e+00 6.61622e+00 1.56920e-04 2.31780e+00 6.70742e+00 1.39650e-04 2.35920e+00 6.79856e+00 1.22760e-04 2.40060e+00 6.88965e+00 1.06280e-04 2.44220e+00 6.98069e+00 9.02320e-05 2.48380e+00 7.07170e+00 7.46190e-05 2.52550e+00 7.16266e+00 5.94640e-05 2.56730e+00 7.25359e+00 4.47810e-05 2.60910e+00 7.34448e+00 3.05850e-05 2.65100e+00 7.43535e+00 1.68900e-05 2.69290e+00 7.52619e+00 3.71030e-06 2.73490e+00 7.61700e+00 -8.94170e-06 2.77690e+00 7.70779e+00 -2.10530e-05 2.81900e+00 7.79856e+00 -3.26120e-05 2.86110e+00 7.88932e+00 -4.36070e-05 2.90320e+00 7.98005e+00 -5.40270e-05 2.94540e+00 8.07078e+00 -6.38600e-05 2.98750e+00 8.16149e+00 -7.30960e-05 3.02970e+00 8.25220e+00 -8.17230e-05 3.07190e+00 8.34289e+00 -8.97320e-05 3.11410e+00 8.43358e+00 -9.71110e-05 3.15630e+00 8.52427e+00 -1.03850e-04 3.19850e+00 8.61495e+00 -1.09940e-04 3.24070e+00 8.70563e+00 -1.15370e-04 3.28290e+00 8.79631e+00 -1.20160e-04 3.32510e+00 8.88699e+00 -1.24320e-04 3.36730e+00 8.97768e+00 -1.27930e-04 3.40950e+00 9.06836e+00 -1.31100e-04 3.45160e+00 9.15905e+00 -1.34190e-04 3.49380e+00 9.24973e+00 -1.37550e-04 3.53600e+00 9.34043e+00 -1.42180e-04 3.57810e+00 9.43113e+00 -1.46990e-04 3.62020e+00 0.00000e+00 1.00000e-01 4.00000e-01 1.00425e-01 1.00832e-01 3.99103e-01 2.01462e-01 1.01011e-01 4.00799e-01 3.02537e-01 1.00805e-01 4.04146e-01 4.03554e-01 1.00717e-01 4.08773e-01 5.04517e-01 1.00637e-01 4.14753e-01 6.05385e-01 1.00617e-01 4.21839e-01 7.06139e-01 1.00600e-01 4.30189e-01 8.06780e-01 1.00603e-01 4.39607e-01 9.07276e-01 1.00607e-01 4.50215e-01 1.00764e+00 1.00618e-01 4.61865e-01 1.10784e+00 1.00629e-01 4.74629e-01 1.20789e+00 1.00643e-01 4.88403e-01 1.30777e+00 1.00655e-01 5.03220e-01 1.40747e+00 1.00668e-01 5.19010e-01 1.50700e+00 1.00678e-01 5.35780e-01 1.60634e+00 1.00688e-01 5.53470e-01 1.70549e+00 1.00695e-01 5.72100e-01 1.80446e+00 1.00702e-01 5.91600e-01 1.90323e+00 1.00706e-01 6.11980e-01 2.00180e+00 1.00709e-01 6.33200e-01 2.10017e+00 1.00711e-01 6.55250e-01 2.19834e+00 1.00711e-01 6.78090e-01 2.29630e+00 1.00710e-01 7.01720e-01 2.39406e+00 1.00708e-01 7.26090e-01 2.49162e+00 1.00705e-01 7.51200e-01 2.58897e+00 1.00701e-01 7.77030e-01 2.68611e+00 1.00696e-01 8.03550e-01 2.78305e+00 1.00691e-01 8.30740e-01 2.87979e+00 1.00684e-01 8.58590e-01 2.97632e+00 1.00677e-01 8.87060e-01 3.07266e+00 1.00669e-01 9.16160e-01 3.16879e+00 1.00660e-01 9.45840e-01 3.26473e+00 1.00650e-01 9.76100e-01 3.36047e+00 1.00640e-01 1.00692e+00 3.45602e+00 1.00630e-01 1.03828e+00 3.55138e+00 1.00618e-01 1.07016e+00 3.64655e+00 1.00607e-01 1.10255e+00 3.74154e+00 1.00594e-01 1.13543e+00 3.83634e+00 1.00582e-01 1.16877e+00 3.93097e+00 1.00569e-01 1.20257e+00 4.02543e+00 1.00555e-01 1.23681e+00 4.11971e+00 1.00541e-01 1.27147e+00 4.21383e+00 1.00527e-01 1.30654e+00 4.30779e+00 1.00513e-01 1.34200e+00 4.40159e+00 1.00498e-01 1.37784e+00 4.49523e+00 1.00483e-01 1.41400e+00 4.58872e+00 1.00467e-01 1.45060e+00 4.68207e+00 1.00452e-01 1.48750e+00 4.77527e+00 1.00436e-01 1.52470e+00 4.86834e+00 1.00420e-01 1.56220e+00 4.96127e+00 1.00404e-01 1.60000e+00 5.05408e+00 1.00388e-01 1.63810e+00 5.14676e+00 1.00372e-01 1.67650e+00 5.23932e+00 1.00356e-01 1.71510e+00 5.33176e+00 1.00340e-01 1.75390e+00 5.42409e+00 1.00324e-01 1.79300e+00 5.51632e+00 1.00308e-01 1.83240e+00 5.60844e+00 1.00292e-01 1.87190e+00 5.70046e+00 1.00276e-01 1.91170e+00 5.79238e+00 1.00260e-01 1.95160e+00 5.88422e+00 1.00244e-01 1.99170e+00 5.97597e+00 1.00229e-01 2.03200e+00 6.06764e+00 1.00213e-01 2.07240e+00 6.15922e+00 1.00198e-01 2.11300e+00 6.25074e+00 1.00183e-01 2.15380e+00 6.34218e+00 1.00168e-01 2.19470e+00 6.43356e+00 1.00154e-01 2.23570e+00 6.52487e+00 1.00139e-01 2.27680e+00 6.61613e+00 1.00125e-01 2.31810e+00 6.70733e+00 1.00112e-01 2.35940e+00 6.79847e+00 1.00098e-01 2.40080e+00 6.88957e+00 1.00085e-01 2.44240e+00 6.98062e+00 1.00072e-01 2.48400e+00 7.07163e+00 1.00060e-01 2.52570e+00 7.16260e+00 1.00048e-01 2.56740e+00 7.25354e+00 1.00036e-01 2.60920e+00 7.34444e+00 1.00024e-01 2.65110e+00 7.43531e+00 1.00013e-01 2.69310e+00 7.52615e+00 1.00003e-01 2.73500e+00 7.61697e+00 9.99928e-02 2.77700e+00 7.70776e+00 9.99831e-02 2.81910e+00 7.79854e+00 9.99738e-02 2.86120e+00 7.88930e+00 9.99650e-02 2.90330e+00 7.98004e+00 9.99566e-02 2.94540e+00 8.07077e+00 9.99487e-02 2.98760e+00 8.16148e+00 9.99413e-02 3.02970e+00 8.25219e+00 9.99344e-02 3.07190e+00 8.34289e+00 9.99279e-02 3.11410e+00 8.43358e+00 9.99220e-02 3.15630e+00 8.52427e+00 9.99166e-02 3.19850e+00 8.61496e+00 9.99117e-02 3.24070e+00 8.70564e+00 9.99074e-02 3.28290e+00 8.79632e+00 9.99036e-02 3.32510e+00 8.88700e+00 9.99002e-02 3.36730e+00 8.97768e+00 9.98973e-02 3.40950e+00 9.06837e+00 9.98948e-02 3.45160e+00 9.15906e+00 9.98924e-02 3.49380e+00 9.24975e+00 9.98896e-02 3.53590e+00 9.34044e+00 9.98864e-02 3.57810e+00 9.43114e+00 9.98832e-02 3.62020e+00 0.00000e+00 2.00000e-01 4.00000e-01 1.00393e-01 2.00477e-01 3.99148e-01 2.01263e-01 2.00619e-01 4.01265e-01 3.02391e-01 2.00592e-01 4.05090e-01 4.03437e-01 2.00498e-01 4.10012e-01 5.04390e-01 2.00468e-01 4.16197e-01 6.05248e-01 2.00437e-01 4.23398e-01 7.05975e-01 2.00433e-01 4.31832e-01 8.06600e-01 2.00428e-01 4.41287e-01 9.07073e-01 2.00434e-01 4.51918e-01 1.00742e+00 2.00440e-01 4.63566e-01 1.10761e+00 2.00449e-01 4.76322e-01 1.20764e+00 2.00459e-01 4.90073e-01 1.30751e+00 2.00469e-01 5.04870e-01 1.40720e+00 2.00478e-01 5.20620e-01 1.50672e+00 2.00487e-01 5.37360e-01 1.60606e+00 2.00495e-01 5.55020e-01 1.70520e+00 2.00501e-01 5.73610e-01 1.80416e+00 2.00507e-01 5.93080e-01 1.90292e+00 2.00511e-01 6.13420e-01 2.00149e+00 2.00514e-01 6.34610e-01 2.09986e+00 2.00516e-01 6.56620e-01 2.19802e+00 2.00517e-01 6.79420e-01 2.29599e+00 2.00517e-01 7.03010e-01 2.39375e+00 2.00516e-01 7.27350e-01 2.49130e+00 2.00515e-01 7.52430e-01 2.58865e+00 2.00513e-01 7.78220e-01 2.68580e+00 2.00510e-01 8.04710e-01 2.78274e+00 2.00506e-01 8.31860e-01 2.87948e+00 2.00502e-01 8.59680e-01 2.97602e+00 2.00497e-01 8.88120e-01 3.07235e+00 2.00491e-01 9.17180e-01 3.16849e+00 2.00485e-01 9.46840e-01 3.26443e+00 2.00479e-01 9.77070e-01 3.36018e+00 2.00472e-01 1.00786e+00 3.45573e+00 2.00464e-01 1.03919e+00 3.55109e+00 2.00457e-01 1.07104e+00 3.64627e+00 2.00448e-01 1.10340e+00 3.74126e+00 2.00439e-01 1.13624e+00 3.83608e+00 2.00430e-01 1.16956e+00 3.93071e+00 2.00421e-01 1.20333e+00 4.02517e+00 2.00411e-01 1.23755e+00 4.11946e+00 2.00401e-01 1.27218e+00 4.21359e+00 2.00391e-01 1.30722e+00 4.30755e+00 2.00380e-01 1.34266e+00 4.40136e+00 2.00369e-01 1.37847e+00 4.49501e+00 2.00358e-01 1.41460e+00 4.58851e+00 2.00347e-01 1.45120e+00 4.68186e+00 2.00336e-01 1.48800e+00 4.77507e+00 2.00324e-01 1.52520e+00 4.86814e+00 2.00313e-01 1.56270e+00 4.96108e+00 2.00301e-01 1.60050e+00 5.05390e+00 2.00289e-01 1.63860e+00 5.14658e+00 2.00277e-01 1.67690e+00 5.23915e+00 2.00266e-01 1.71550e+00 5.33160e+00 2.00254e-01 1.75440e+00 5.42394e+00 2.00242e-01 1.79340e+00 5.51617e+00 2.00230e-01 1.83280e+00 5.60829e+00 2.00218e-01 1.87230e+00 5.70032e+00 2.00206e-01 1.91200e+00 5.79225e+00 2.00194e-01 1.95190e+00 5.88410e+00 2.00183e-01 1.99200e+00 5.97585e+00 2.00171e-01 2.03230e+00 6.06753e+00 2.00159e-01 2.07270e+00 6.15912e+00 2.00148e-01 2.11330e+00 6.25064e+00 2.00137e-01 2.15400e+00 6.34209e+00 2.00126e-01 2.19490e+00 6.43347e+00 2.00115e-01 2.23590e+00 6.52479e+00 2.00104e-01 2.27700e+00 6.61605e+00 2.00094e-01 2.31830e+00 6.70726e+00 2.00084e-01 2.35960e+00 6.79841e+00 2.00073e-01 2.40100e+00 6.88951e+00 2.00064e-01 2.44250e+00 6.98057e+00 2.00054e-01 2.48410e+00 7.07158e+00 2.00045e-01 2.52580e+00 7.16256e+00 2.00036e-01 2.56760e+00 7.25350e+00 2.00027e-01 2.60940e+00 7.34440e+00 2.00018e-01 2.65120e+00 7.43528e+00 2.00010e-01 2.69310e+00 7.52612e+00 2.00002e-01 2.73510e+00 7.61694e+00 1.99995e-01 2.77710e+00 7.70774e+00 1.99987e-01 2.81920e+00 7.79852e+00 1.99980e-01 2.86120e+00 7.88928e+00 1.99974e-01 2.90330e+00 7.98003e+00 1.99967e-01 2.94550e+00 8.07076e+00 1.99962e-01 2.98760e+00 8.16148e+00 1.99956e-01 3.02980e+00 8.25219e+00 1.99951e-01 3.07190e+00 8.34289e+00 1.99946e-01 3.11410e+00 8.43358e+00 1.99942e-01 3.15630e+00 8.52427e+00 1.99937e-01 3.19850e+00 8.61496e+00 1.99934e-01 3.24070e+00 8.70564e+00 1.99931e-01 3.28290e+00 8.79632e+00 1.99928e-01 3.32510e+00 8.88701e+00 1.99925e-01 3.36730e+00 8.97769e+00 1.99923e-01 3.40940e+00 9.06838e+00 1.99921e-01 3.45160e+00 9.15906e+00 1.99919e-01 3.49380e+00 9.24975e+00 1.99917e-01 3.53590e+00 9.34045e+00 1.99915e-01 3.57810e+00 9.43115e+00 1.99913e-01 3.62020e+00 0.00000e+00 3.00000e-01 4.00000e-01 1.00332e-01 3.00241e-01 3.99162e-01 2.01187e-01 3.00352e-01 4.01447e-01 3.02266e-01 3.00348e-01 4.05538e-01 4.03341e-01 3.00327e-01 4.10704e-01 5.04288e-01 3.00296e-01 4.17065e-01 6.05144e-01 3.00289e-01 4.24386e-01 7.05858e-01 3.00279e-01 4.32903e-01 8.06472e-01 3.00281e-01 4.42407e-01 9.06932e-01 3.00281e-01 4.53070e-01 1.00727e+00 3.00287e-01 4.64730e-01 1.10744e+00 3.00291e-01 4.77489e-01 1.20747e+00 3.00298e-01 4.91232e-01 1.30732e+00 3.00305e-01 5.06010e-01 1.40702e+00 3.00311e-01 5.21750e-01 1.50652e+00 3.00317e-01 5.38470e-01 1.60586e+00 3.00323e-01 5.56110e-01 1.70500e+00 3.00327e-01 5.74670e-01 1.80395e+00 3.00331e-01 5.94120e-01 1.90271e+00 3.00334e-01 6.14440e-01 2.00128e+00 3.00336e-01 6.35590e-01 2.09964e+00 3.00338e-01 6.57580e-01 2.19781e+00 3.00339e-01 6.80360e-01 2.29577e+00 3.00339e-01 7.03920e-01 2.39353e+00 3.00339e-01 7.28240e-01 2.49108e+00 3.00338e-01 7.53290e-01 2.58843e+00 3.00337e-01 7.79060e-01 2.68558e+00 3.00335e-01 8.05520e-01 2.78252e+00 3.00333e-01 8.32660e-01 2.87926e+00 3.00330e-01 8.60450e-01 2.97580e+00 3.00327e-01 8.88870e-01 3.07214e+00 3.00324e-01 9.17910e-01 3.16828e+00 3.00320e-01 9.47540e-01 3.26422e+00 3.00316e-01 9.77750e-01 3.35997e+00 3.00312e-01 1.00852e+00 3.45553e+00 3.00307e-01 1.03983e+00 3.55089e+00 3.00302e-01 1.07166e+00 3.64607e+00 3.00296e-01 1.10400e+00 3.74107e+00 3.00291e-01 1.13682e+00 3.83588e+00 3.00285e-01 1.17012e+00 3.93052e+00 3.00279e-01 1.20388e+00 4.02499e+00 3.00272e-01 1.23807e+00 4.11929e+00 3.00266e-01 1.27268e+00 4.21341e+00 3.00259e-01 1.30771e+00 4.30738e+00 3.00252e-01 1.34313e+00 4.40119e+00 3.00245e-01 1.37892e+00 4.49485e+00 3.00238e-01 1.41510e+00 4.58835e+00 3.00230e-01 1.45160e+00 4.68171e+00 3.00223e-01 1.48840e+00 4.77492e+00 3.00215e-01 1.52560e+00 4.86800e+00 3.00208e-01 1.56310e+00 4.96095e+00 3.00200e-01 1.60090e+00 5.05376e+00 3.00192e-01 1.63890e+00 5.14646e+00 3.00184e-01 1.67720e+00 5.23903e+00 3.00176e-01 1.71580e+00 5.33148e+00 3.00168e-01 1.75470e+00 5.42382e+00 3.00161e-01 1.79370e+00 5.51606e+00 3.00153e-01 1.83300e+00 5.60819e+00 3.00145e-01 1.87250e+00 5.70022e+00 3.00137e-01 1.91220e+00 5.79216e+00 3.00129e-01 1.95210e+00 5.88401e+00 3.00121e-01 1.99220e+00 5.97577e+00 3.00114e-01 2.03250e+00 6.06745e+00 3.00106e-01 2.07290e+00 6.15905e+00 3.00099e-01 2.11350e+00 6.25057e+00 3.00091e-01 2.15420e+00 6.34202e+00 3.00084e-01 2.19510e+00 6.43341e+00 3.00077e-01 2.23610e+00 6.52473e+00 3.00069e-01 2.27720e+00 6.61600e+00 3.00062e-01 2.31840e+00 6.70721e+00 3.00056e-01 2.35970e+00 6.79836e+00 3.00049e-01 2.40110e+00 6.88947e+00 3.00042e-01 2.44260e+00 6.98053e+00 3.00036e-01 2.48420e+00 7.07155e+00 3.00030e-01 2.52590e+00 7.16252e+00 3.00024e-01 2.56760e+00 7.25347e+00 3.00018e-01 2.60940e+00 7.34437e+00 3.00012e-01 2.65130e+00 7.43525e+00 3.00007e-01 2.69320e+00 7.52610e+00 3.00001e-01 2.73520e+00 7.61692e+00 2.99996e-01 2.77720e+00 7.70773e+00 2.99992e-01 2.81920e+00 7.79851e+00 2.99987e-01 2.86130e+00 7.88927e+00 2.99982e-01 2.90340e+00 7.98002e+00 2.99978e-01 2.94550e+00 8.07075e+00 2.99974e-01 2.98760e+00 8.16147e+00 2.99971e-01 3.02980e+00 8.25218e+00 2.99967e-01 3.07200e+00 8.34288e+00 2.99964e-01 3.11410e+00 8.43358e+00 2.99961e-01 3.15630e+00 8.52427e+00 2.99958e-01 3.19850e+00 8.61496e+00 2.99956e-01 3.24070e+00 8.70564e+00 2.99954e-01 3.28290e+00 8.79633e+00 2.99952e-01 3.32510e+00 8.88701e+00 2.99950e-01 3.36730e+00 8.97769e+00 2.99949e-01 3.40940e+00 9.06838e+00 2.99947e-01 3.45160e+00 9.15907e+00 2.99946e-01 3.49380e+00 9.24976e+00 2.99945e-01 3.53590e+00 9.34045e+00 2.99944e-01 3.57810e+00 9.43115e+00 2.99943e-01 3.62020e+00 0.00000e+00 4.00000e-01 4.00000e-01 1.00334e-01 4.00100e-01 3.99177e-01 2.01127e-01 4.00151e-01 4.01538e-01 3.02220e-01 4.00165e-01 4.05757e-01 4.03272e-01 4.00152e-01 4.11049e-01 5.04231e-01 4.00147e-01 4.17529e-01 6.05077e-01 4.00139e-01 4.24926e-01 7.05790e-01 4.00138e-01 4.33506e-01 8.06395e-01 4.00136e-01 4.43046e-01 9.06849e-01 4.00138e-01 4.53736e-01 1.00718e+00 4.00140e-01 4.65407e-01 1.10735e+00 4.00143e-01 4.78173e-01 1.20737e+00 4.00146e-01 4.91914e-01 1.30722e+00 4.00150e-01 5.06690e-01 1.40690e+00 4.00153e-01 5.22420e-01 1.50641e+00 4.00156e-01 5.39130e-01 1.60574e+00 4.00159e-01 5.56750e-01 1.70488e+00 4.00161e-01 5.75300e-01 1.80383e+00 4.00163e-01 5.94730e-01 1.90258e+00 4.00165e-01 6.15040e-01 2.00115e+00 4.00166e-01 6.36180e-01 2.09951e+00 4.00167e-01 6.58150e-01 2.19768e+00 4.00167e-01 6.80920e-01 2.29564e+00 4.00168e-01 7.04470e-01 2.39340e+00 4.00167e-01 7.28770e-01 2.49095e+00 4.00167e-01 7.53810e-01 2.58830e+00 4.00167e-01 7.79560e-01 2.68545e+00 4.00166e-01 8.06010e-01 2.78239e+00 4.00165e-01 8.33130e-01 2.87913e+00 4.00164e-01 8.60910e-01 2.97567e+00 4.00162e-01 8.89320e-01 3.07201e+00 4.00160e-01 9.18340e-01 3.16815e+00 4.00159e-01 9.47960e-01 3.26410e+00 4.00157e-01 9.78160e-01 3.35985e+00 4.00154e-01 1.00891e+00 3.45540e+00 4.00152e-01 1.04021e+00 3.55077e+00 4.00150e-01 1.07203e+00 3.64595e+00 4.00147e-01 1.10436e+00 3.74095e+00 4.00144e-01 1.13717e+00 3.83577e+00 4.00141e-01 1.17046e+00 3.93041e+00 4.00138e-01 1.20420e+00 4.02488e+00 4.00135e-01 1.23838e+00 4.11918e+00 4.00132e-01 1.27299e+00 4.21331e+00 4.00129e-01 1.30800e+00 4.30728e+00 4.00125e-01 1.34341e+00 4.40109e+00 4.00122e-01 1.37919e+00 4.49475e+00 4.00118e-01 1.41530e+00 4.58826e+00 4.00114e-01 1.45180e+00 4.68162e+00 4.00111e-01 1.48870e+00 4.77484e+00 4.00107e-01 1.52580e+00 4.86792e+00 4.00103e-01 1.56330e+00 4.96087e+00 4.00099e-01 1.60110e+00 5.05369e+00 4.00096e-01 1.63910e+00 5.14638e+00 4.00092e-01 1.67740e+00 5.23895e+00 4.00088e-01 1.71600e+00 5.33141e+00 4.00084e-01 1.75480e+00 5.42376e+00 4.00080e-01 1.79390e+00 5.51599e+00 4.00076e-01 1.83320e+00 5.60813e+00 4.00072e-01 1.87270e+00 5.70016e+00 4.00068e-01 1.91240e+00 5.79211e+00 4.00064e-01 1.95230e+00 5.88396e+00 4.00060e-01 1.99240e+00 5.97572e+00 4.00057e-01 2.03260e+00 6.06740e+00 4.00053e-01 2.07300e+00 6.15900e+00 4.00049e-01 2.11360e+00 6.25053e+00 4.00045e-01 2.15430e+00 6.34198e+00 4.00042e-01 2.19520e+00 6.43337e+00 4.00038e-01 2.23620e+00 6.52470e+00 4.00035e-01 2.27730e+00 6.61597e+00 4.00031e-01 2.31850e+00 6.70718e+00 4.00028e-01 2.35980e+00 6.79833e+00 4.00024e-01 2.40120e+00 6.88944e+00 4.00021e-01 2.44270e+00 6.98050e+00 4.00018e-01 2.48430e+00 7.07152e+00 4.00015e-01 2.52600e+00 7.16250e+00 4.00012e-01 2.56770e+00 7.25345e+00 4.00009e-01 2.60950e+00 7.34436e+00 4.00006e-01 2.65130e+00 7.43524e+00 4.00003e-01 2.69330e+00 7.52609e+00 4.00001e-01 2.73520e+00 7.61691e+00 3.99998e-01 2.77720e+00 7.70771e+00 3.99996e-01 2.81920e+00 7.79850e+00 3.99993e-01 2.86130e+00 7.88926e+00 3.99991e-01 2.90340e+00 7.98001e+00 3.99989e-01 2.94550e+00 8.07074e+00 3.99987e-01 2.98770e+00 8.16146e+00 3.99985e-01 3.02980e+00 8.25218e+00 3.99984e-01 3.07200e+00 8.34288e+00 3.99982e-01 3.11410e+00 8.43358e+00 3.99980e-01 3.15630e+00 8.52427e+00 3.99979e-01 3.19850e+00 8.61496e+00 3.99978e-01 3.24070e+00 8.70564e+00 3.99977e-01 3.28290e+00 8.79633e+00 3.99976e-01 3.32510e+00 8.88701e+00 3.99975e-01 3.36730e+00 8.97770e+00 3.99974e-01 3.40940e+00 9.06838e+00 3.99974e-01 3.45160e+00 9.15907e+00 3.99973e-01 3.49380e+00 9.24976e+00 3.99973e-01 3.53590e+00 9.34045e+00 3.99972e-01 3.57810e+00 9.43115e+00 3.99971e-01 3.62020e+00 0.00000e+00 5.00000e-01 4.00000e-01 1.00314e-01 5.00000e-01 3.99187e-01 2.01129e-01 5.00000e-01 4.01568e-01 3.02190e-01 5.00000e-01 4.05825e-01 4.03261e-01 5.00000e-01 4.11162e-01 5.04205e-01 5.00000e-01 4.17675e-01 6.05059e-01 5.00000e-01 4.25104e-01 7.05764e-01 5.00000e-01 4.33702e-01 8.06371e-01 5.00000e-01 4.43257e-01 9.06820e-01 5.00000e-01 4.53956e-01 1.00715e+00 5.00000e-01 4.65632e-01 1.10731e+00 5.00000e-01 4.78400e-01 1.20734e+00 5.00000e-01 4.92141e-01 1.30718e+00 5.00000e-01 5.06920e-01 1.40687e+00 5.00000e-01 5.22640e-01 1.50637e+00 5.00000e-01 5.39350e-01 1.60570e+00 5.00000e-01 5.56970e-01 1.70483e+00 5.00000e-01 5.75510e-01 1.80379e+00 5.00000e-01 5.94940e-01 1.90254e+00 5.00000e-01 6.15240e-01 2.00110e+00 5.00000e-01 6.36380e-01 2.09947e+00 5.00000e-01 6.58340e-01 2.19763e+00 5.00000e-01 6.81110e-01 2.29559e+00 5.00000e-01 7.04650e-01 2.39335e+00 5.00000e-01 7.28950e-01 2.49091e+00 5.00000e-01 7.53980e-01 2.58826e+00 5.00000e-01 7.79730e-01 2.68540e+00 5.00000e-01 8.06170e-01 2.78235e+00 5.00000e-01 8.33290e-01 2.87909e+00 5.00000e-01 8.61060e-01 2.97563e+00 5.00000e-01 8.89470e-01 3.07197e+00 5.00000e-01 9.18490e-01 3.16811e+00 5.00000e-01 9.48100e-01 3.26405e+00 5.00000e-01 9.78290e-01 3.35980e+00 5.00000e-01 1.00905e+00 3.45536e+00 5.00000e-01 1.04034e+00 3.55073e+00 5.00000e-01 1.07215e+00 3.64591e+00 5.00000e-01 1.10448e+00 3.74091e+00 5.00000e-01 1.13729e+00 3.83573e+00 5.00000e-01 1.17057e+00 3.93038e+00 5.00000e-01 1.20431e+00 4.02484e+00 5.00000e-01 1.23849e+00 4.11914e+00 5.00000e-01 1.27309e+00 4.21328e+00 5.00000e-01 1.30810e+00 4.30725e+00 5.00000e-01 1.34350e+00 4.40106e+00 5.00000e-01 1.37928e+00 4.49472e+00 5.00000e-01 1.41540e+00 4.58823e+00 5.00000e-01 1.45190e+00 4.68159e+00 5.00000e-01 1.48880e+00 4.77481e+00 5.00000e-01 1.52590e+00 4.86789e+00 5.00000e-01 1.56340e+00 4.96084e+00 5.00000e-01 1.60110e+00 5.05366e+00 5.00000e-01 1.63920e+00 5.14635e+00 5.00000e-01 1.67750e+00 5.23893e+00 5.00000e-01 1.71610e+00 5.33139e+00 5.00000e-01 1.75490e+00 5.42373e+00 5.00000e-01 1.79400e+00 5.51597e+00 5.00000e-01 1.83320e+00 5.60811e+00 5.00000e-01 1.87270e+00 5.70014e+00 5.00000e-01 1.91240e+00 5.79209e+00 5.00000e-01 1.95230e+00 5.88394e+00 5.00000e-01 1.99240e+00 5.97570e+00 5.00000e-01 2.03270e+00 6.06738e+00 5.00000e-01 2.07310e+00 6.15899e+00 5.00000e-01 2.11360e+00 6.25051e+00 5.00000e-01 2.15440e+00 6.34197e+00 5.00000e-01 2.19520e+00 6.43336e+00 5.00000e-01 2.23620e+00 6.52469e+00 5.00000e-01 2.27730e+00 6.61595e+00 5.00000e-01 2.31850e+00 6.70716e+00 5.00000e-01 2.35980e+00 6.79832e+00 5.00000e-01 2.40120e+00 6.88943e+00 5.00000e-01 2.44270e+00 6.98050e+00 5.00000e-01 2.48430e+00 7.07152e+00 5.00000e-01 2.52600e+00 7.16250e+00 5.00000e-01 2.56770e+00 7.25344e+00 5.00000e-01 2.60950e+00 7.34435e+00 5.00000e-01 2.65140e+00 7.43523e+00 5.00000e-01 2.69330e+00 7.52608e+00 5.00000e-01 2.73520e+00 7.61691e+00 5.00000e-01 2.77720e+00 7.70771e+00 5.00000e-01 2.81920e+00 7.79849e+00 5.00000e-01 2.86130e+00 7.88926e+00 5.00000e-01 2.90340e+00 7.98001e+00 5.00000e-01 2.94550e+00 8.07074e+00 5.00000e-01 2.98770e+00 8.16146e+00 5.00000e-01 3.02980e+00 8.25218e+00 5.00000e-01 3.07200e+00 8.34288e+00 5.00000e-01 3.11420e+00 8.43358e+00 5.00000e-01 3.15630e+00 8.52427e+00 5.00000e-01 3.19850e+00 8.61496e+00 5.00000e-01 3.24070e+00 8.70564e+00 5.00000e-01 3.28290e+00 8.79633e+00 5.00000e-01 3.32510e+00 8.88701e+00 5.00000e-01 3.36730e+00 8.97770e+00 5.00000e-01 3.40940e+00 9.06838e+00 5.00000e-01 3.45160e+00 9.15907e+00 5.00000e-01 3.49380e+00 9.24976e+00 5.00000e-01 3.53590e+00 9.34046e+00 5.00000e-01 3.57810e+00 9.43116e+00 5.00000e-01 3.62020e+00 0.00000e+00 6.00000e-01 4.00000e-01 1.00334e-01 5.99900e-01 3.99177e-01 2.01127e-01 5.99849e-01 4.01538e-01 3.02220e-01 5.99835e-01 4.05757e-01 4.03272e-01 5.99848e-01 4.11049e-01 5.04231e-01 5.99853e-01 4.17529e-01 6.05077e-01 5.99861e-01 4.24926e-01 7.05790e-01 5.99862e-01 4.33506e-01 8.06395e-01 5.99864e-01 4.43046e-01 9.06849e-01 5.99862e-01 4.53736e-01 1.00718e+00 5.99860e-01 4.65407e-01 1.10735e+00 5.99857e-01 4.78173e-01 1.20737e+00 5.99854e-01 4.91914e-01 1.30722e+00 5.99850e-01 5.06690e-01 1.40690e+00 5.99847e-01 5.22420e-01 1.50641e+00 5.99844e-01 5.39130e-01 1.60574e+00 5.99841e-01 5.56750e-01 1.70488e+00 5.99839e-01 5.75300e-01 1.80383e+00 5.99837e-01 5.94730e-01 1.90258e+00 5.99835e-01 6.15040e-01 2.00115e+00 5.99834e-01 6.36180e-01 2.09951e+00 5.99833e-01 6.58150e-01 2.19768e+00 5.99833e-01 6.80920e-01 2.29564e+00 5.99832e-01 7.04470e-01 2.39340e+00 5.99832e-01 7.28770e-01 2.49095e+00 5.99833e-01 7.53810e-01 2.58830e+00 5.99833e-01 7.79560e-01 2.68545e+00 5.99834e-01 8.06010e-01 2.78239e+00 5.99835e-01 8.33130e-01 2.87913e+00 5.99836e-01 8.60910e-01 2.97567e+00 5.99838e-01 8.89320e-01 3.07201e+00 5.99839e-01 9.18340e-01 3.16815e+00 5.99841e-01 9.47960e-01 3.26410e+00 5.99843e-01 9.78160e-01 3.35985e+00 5.99845e-01 1.00891e+00 3.45540e+00 5.99848e-01 1.04021e+00 3.55077e+00 5.99850e-01 1.07203e+00 3.64595e+00 5.99853e-01 1.10436e+00 3.74095e+00 5.99856e-01 1.13717e+00 3.83577e+00 5.99859e-01 1.17046e+00 3.93041e+00 5.99862e-01 1.20420e+00 4.02488e+00 5.99865e-01 1.23838e+00 4.11918e+00 5.99868e-01 1.27299e+00 4.21331e+00 5.99871e-01 1.30800e+00 4.30728e+00 5.99875e-01 1.34341e+00 4.40109e+00 5.99878e-01 1.37919e+00 4.49475e+00 5.99882e-01 1.41530e+00 4.58826e+00 5.99885e-01 1.45180e+00 4.68162e+00 5.99889e-01 1.48870e+00 4.77484e+00 5.99893e-01 1.52580e+00 4.86792e+00 5.99897e-01 1.56330e+00 4.96087e+00 5.99900e-01 1.60110e+00 5.05369e+00 5.99904e-01 1.63910e+00 5.14638e+00 5.99908e-01 1.67740e+00 5.23895e+00 5.99912e-01 1.71600e+00 5.33141e+00 5.99916e-01 1.75480e+00 5.42376e+00 5.99920e-01 1.79390e+00 5.51599e+00 5.99924e-01 1.83320e+00 5.60813e+00 5.99928e-01 1.87270e+00 5.70016e+00 5.99932e-01 1.91240e+00 5.79211e+00 5.99936e-01 1.95230e+00 5.88396e+00 5.99939e-01 1.99240e+00 5.97572e+00 5.99943e-01 2.03260e+00 6.06740e+00 5.99947e-01 2.07300e+00 6.15900e+00 5.99951e-01 2.11360e+00 6.25053e+00 5.99954e-01 2.15430e+00 6.34198e+00 5.99958e-01 2.19520e+00 6.43337e+00 5.99962e-01 2.23620e+00 6.52470e+00 5.99965e-01 2.27730e+00 6.61597e+00 5.99969e-01 2.31850e+00 6.70718e+00 5.99972e-01 2.35980e+00 6.79833e+00 5.99975e-01 2.40120e+00 6.88944e+00 5.99979e-01 2.44270e+00 6.98050e+00 5.99982e-01 2.48430e+00 7.07152e+00 5.99985e-01 2.52600e+00 7.16250e+00 5.99988e-01 2.56770e+00 7.25345e+00 5.99991e-01 2.60950e+00 7.34436e+00 5.99994e-01 2.65130e+00 7.43524e+00 5.99996e-01 2.69330e+00 7.52609e+00 5.99999e-01 2.73520e+00 7.61691e+00 6.00002e-01 2.77720e+00 7.70771e+00 6.00004e-01 2.81920e+00 7.79850e+00 6.00006e-01 2.86130e+00 7.88926e+00 6.00009e-01 2.90340e+00 7.98001e+00 6.00011e-01 2.94550e+00 8.07074e+00 6.00013e-01 2.98770e+00 8.16146e+00 6.00014e-01 3.02980e+00 8.25218e+00 6.00016e-01 3.07200e+00 8.34288e+00 6.00018e-01 3.11410e+00 8.43358e+00 6.00019e-01 3.15630e+00 8.52427e+00 6.00021e-01 3.19850e+00 8.61496e+00 6.00022e-01 3.24070e+00 8.70564e+00 6.00023e-01 3.28290e+00 8.79633e+00 6.00024e-01 3.32510e+00 8.88701e+00 6.00025e-01 3.36730e+00 8.97770e+00 6.00025e-01 3.40940e+00 9.06838e+00 6.00026e-01 3.45160e+00 9.15907e+00 6.00027e-01 3.49380e+00 9.24976e+00 6.00027e-01 3.53590e+00 9.34045e+00 6.00028e-01 3.57810e+00 9.43115e+00 6.00028e-01 3.62020e+00 0.00000e+00 7.00000e-01 4.00000e-01 1.00332e-01 6.99759e-01 3.99162e-01 2.01187e-01 6.99648e-01 4.01447e-01 3.02266e-01 6.99652e-01 4.05538e-01 4.03341e-01 6.99673e-01 4.10704e-01 5.04288e-01 6.99704e-01 4.17065e-01 6.05144e-01 6.99711e-01 4.24386e-01 7.05858e-01 6.99721e-01 4.32903e-01 8.06472e-01 6.99719e-01 4.42407e-01 9.06932e-01 6.99719e-01 4.53070e-01 1.00727e+00 6.99713e-01 4.64730e-01 1.10744e+00 6.99709e-01 4.77489e-01 1.20747e+00 6.99702e-01 4.91232e-01 1.30732e+00 6.99695e-01 5.06010e-01 1.40702e+00 6.99689e-01 5.21750e-01 1.50652e+00 6.99683e-01 5.38470e-01 1.60586e+00 6.99677e-01 5.56110e-01 1.70500e+00 6.99673e-01 5.74670e-01 1.80395e+00 6.99669e-01 5.94120e-01 1.90271e+00 6.99666e-01 6.14440e-01 2.00128e+00 6.99664e-01 6.35590e-01 2.09964e+00 6.99662e-01 6.57580e-01 2.19781e+00 6.99661e-01 6.80360e-01 2.29577e+00 6.99661e-01 7.03920e-01 2.39353e+00 6.99661e-01 7.28240e-01 2.49108e+00 6.99662e-01 7.53290e-01 2.58843e+00 6.99663e-01 7.79060e-01 2.68558e+00 6.99665e-01 8.05520e-01 2.78252e+00 6.99667e-01 8.32660e-01 2.87926e+00 6.99669e-01 8.60450e-01 2.97580e+00 6.99673e-01 8.88870e-01 3.07214e+00 6.99676e-01 9.17910e-01 3.16828e+00 6.99680e-01 9.47540e-01 3.26422e+00 6.99684e-01 9.77750e-01 3.35997e+00 6.99688e-01 1.00852e+00 3.45553e+00 6.99693e-01 1.03983e+00 3.55089e+00 6.99698e-01 1.07166e+00 3.64607e+00 6.99704e-01 1.10400e+00 3.74107e+00 6.99709e-01 1.13682e+00 3.83588e+00 6.99715e-01 1.17012e+00 3.93052e+00 6.99721e-01 1.20388e+00 4.02499e+00 6.99728e-01 1.23807e+00 4.11929e+00 6.99734e-01 1.27268e+00 4.21341e+00 6.99741e-01 1.30771e+00 4.30738e+00 6.99748e-01 1.34313e+00 4.40119e+00 6.99755e-01 1.37892e+00 4.49485e+00 6.99762e-01 1.41510e+00 4.58835e+00 6.99770e-01 1.45160e+00 4.68171e+00 6.99777e-01 1.48840e+00 4.77492e+00 6.99785e-01 1.52560e+00 4.86800e+00 6.99792e-01 1.56310e+00 4.96095e+00 6.99800e-01 1.60090e+00 5.05376e+00 6.99808e-01 1.63890e+00 5.14646e+00 6.99816e-01 1.67720e+00 5.23903e+00 6.99823e-01 1.71580e+00 5.33148e+00 6.99831e-01 1.75470e+00 5.42382e+00 6.99839e-01 1.79370e+00 5.51606e+00 6.99847e-01 1.83300e+00 5.60819e+00 6.99855e-01 1.87250e+00 5.70022e+00 6.99863e-01 1.91220e+00 5.79216e+00 6.99871e-01 1.95210e+00 5.88401e+00 6.99878e-01 1.99220e+00 5.97577e+00 6.99886e-01 2.03250e+00 6.06745e+00 6.99894e-01 2.07290e+00 6.15905e+00 6.99901e-01 2.11350e+00 6.25057e+00 6.99909e-01 2.15420e+00 6.34202e+00 6.99916e-01 2.19510e+00 6.43341e+00 6.99923e-01 2.23610e+00 6.52473e+00 6.99930e-01 2.27720e+00 6.61600e+00 6.99937e-01 2.31840e+00 6.70721e+00 6.99944e-01 2.35970e+00 6.79836e+00 6.99951e-01 2.40110e+00 6.88947e+00 6.99957e-01 2.44260e+00 6.98053e+00 6.99964e-01 2.48420e+00 7.07155e+00 6.99970e-01 2.52590e+00 7.16252e+00 6.99976e-01 2.56760e+00 7.25347e+00 6.99982e-01 2.60940e+00 7.34437e+00 6.99988e-01 2.65130e+00 7.43525e+00 6.99993e-01 2.69320e+00 7.52610e+00 6.99998e-01 2.73520e+00 7.61692e+00 7.00003e-01 2.77720e+00 7.70773e+00 7.00008e-01 2.81920e+00 7.79851e+00 7.00013e-01 2.86130e+00 7.88927e+00 7.00017e-01 2.90340e+00 7.98002e+00 7.00021e-01 2.94550e+00 8.07075e+00 7.00025e-01 2.98760e+00 8.16147e+00 7.00029e-01 3.02980e+00 8.25218e+00 7.00032e-01 3.07200e+00 8.34288e+00 7.00036e-01 3.11410e+00 8.43358e+00 7.00039e-01 3.15630e+00 8.52427e+00 7.00041e-01 3.19850e+00 8.61496e+00 7.00044e-01 3.24070e+00 8.70564e+00 7.00046e-01 3.28290e+00 8.79633e+00 7.00048e-01 3.32510e+00 8.88701e+00 7.00050e-01 3.36730e+00 8.97769e+00 7.00051e-01 3.40940e+00 9.06838e+00 7.00052e-01 3.45160e+00 9.15907e+00 7.00053e-01 3.49380e+00 9.24976e+00 7.00055e-01 3.53590e+00 9.34045e+00 7.00056e-01 3.57810e+00 9.43115e+00 7.00057e-01 3.62020e+00 0.00000e+00 8.00000e-01 4.00000e-01 1.00393e-01 7.99523e-01 3.99148e-01 2.01263e-01 7.99381e-01 4.01265e-01 3.02391e-01 7.99408e-01 4.05090e-01 4.03437e-01 7.99502e-01 4.10012e-01 5.04390e-01 7.99532e-01 4.16197e-01 6.05248e-01 7.99563e-01 4.23398e-01 7.05975e-01 7.99567e-01 4.31832e-01 8.06600e-01 7.99572e-01 4.41287e-01 9.07073e-01 7.99566e-01 4.51918e-01 1.00742e+00 7.99560e-01 4.63566e-01 1.10761e+00 7.99551e-01 4.76322e-01 1.20764e+00 7.99541e-01 4.90073e-01 1.30751e+00 7.99531e-01 5.04870e-01 1.40720e+00 7.99522e-01 5.20620e-01 1.50672e+00 7.99513e-01 5.37360e-01 1.60606e+00 7.99505e-01 5.55020e-01 1.70520e+00 7.99499e-01 5.73610e-01 1.80416e+00 7.99493e-01 5.93080e-01 1.90292e+00 7.99489e-01 6.13420e-01 2.00149e+00 7.99486e-01 6.34610e-01 2.09986e+00 7.99484e-01 6.56620e-01 2.19802e+00 7.99483e-01 6.79420e-01 2.29599e+00 7.99483e-01 7.03010e-01 2.39375e+00 7.99484e-01 7.27350e-01 2.49130e+00 7.99485e-01 7.52430e-01 2.58865e+00 7.99487e-01 7.78220e-01 2.68580e+00 7.99490e-01 8.04710e-01 2.78274e+00 7.99494e-01 8.31860e-01 2.87948e+00 7.99498e-01 8.59680e-01 2.97602e+00 7.99503e-01 8.88120e-01 3.07235e+00 7.99509e-01 9.17180e-01 3.16849e+00 7.99515e-01 9.46840e-01 3.26443e+00 7.99521e-01 9.77070e-01 3.36018e+00 7.99528e-01 1.00786e+00 3.45573e+00 7.99536e-01 1.03919e+00 3.55109e+00 7.99543e-01 1.07104e+00 3.64627e+00 7.99552e-01 1.10340e+00 3.74126e+00 7.99560e-01 1.13624e+00 3.83608e+00 7.99570e-01 1.16956e+00 3.93071e+00 7.99579e-01 1.20333e+00 4.02517e+00 7.99589e-01 1.23755e+00 4.11946e+00 7.99599e-01 1.27218e+00 4.21359e+00 7.99609e-01 1.30722e+00 4.30755e+00 7.99620e-01 1.34266e+00 4.40136e+00 7.99630e-01 1.37847e+00 4.49501e+00 7.99641e-01 1.41460e+00 4.58851e+00 7.99653e-01 1.45120e+00 4.68186e+00 7.99664e-01 1.48800e+00 4.77507e+00 7.99675e-01 1.52520e+00 4.86814e+00 7.99687e-01 1.56270e+00 4.96108e+00 7.99699e-01 1.60050e+00 5.05390e+00 7.99711e-01 1.63860e+00 5.14658e+00 7.99722e-01 1.67690e+00 5.23915e+00 7.99734e-01 1.71550e+00 5.33160e+00 7.99746e-01 1.75440e+00 5.42394e+00 7.99758e-01 1.79340e+00 5.51617e+00 7.99770e-01 1.83280e+00 5.60829e+00 7.99782e-01 1.87230e+00 5.70032e+00 7.99794e-01 1.91200e+00 5.79225e+00 7.99806e-01 1.95190e+00 5.88410e+00 7.99817e-01 1.99200e+00 5.97585e+00 7.99829e-01 2.03230e+00 6.06753e+00 7.99840e-01 2.07270e+00 6.15912e+00 7.99852e-01 2.11330e+00 6.25064e+00 7.99863e-01 2.15400e+00 6.34209e+00 7.99874e-01 2.19490e+00 6.43347e+00 7.99885e-01 2.23590e+00 6.52479e+00 7.99895e-01 2.27700e+00 6.61605e+00 7.99906e-01 2.31830e+00 6.70726e+00 7.99916e-01 2.35960e+00 6.79841e+00 7.99926e-01 2.40100e+00 6.88951e+00 7.99936e-01 2.44250e+00 6.98057e+00 7.99946e-01 2.48410e+00 7.07158e+00 7.99955e-01 2.52580e+00 7.16256e+00 7.99964e-01 2.56760e+00 7.25350e+00 7.99973e-01 2.60940e+00 7.34440e+00 7.99981e-01 2.65120e+00 7.43528e+00 7.99990e-01 2.69310e+00 7.52612e+00 7.99998e-01 2.73510e+00 7.61694e+00 8.00005e-01 2.77710e+00 7.70774e+00 8.00012e-01 2.81920e+00 7.79852e+00 8.00019e-01 2.86120e+00 7.88928e+00 8.00026e-01 2.90330e+00 7.98003e+00 8.00032e-01 2.94550e+00 8.07076e+00 8.00038e-01 2.98760e+00 8.16148e+00 8.00044e-01 3.02980e+00 8.25219e+00 8.00049e-01 3.07190e+00 8.34289e+00 8.00054e-01 3.11410e+00 8.43358e+00 8.00058e-01 3.15630e+00 8.52427e+00 8.00062e-01 3.19850e+00 8.61496e+00 8.00066e-01 3.24070e+00 8.70564e+00 8.00069e-01 3.28290e+00 8.79632e+00 8.00072e-01 3.32510e+00 8.88701e+00 8.00074e-01 3.36730e+00 8.97769e+00 8.00077e-01 3.40940e+00 9.06838e+00 8.00079e-01 3.45160e+00 9.15906e+00 8.00080e-01 3.49380e+00 9.24975e+00 8.00082e-01 3.53590e+00 9.34045e+00 8.00084e-01 3.57810e+00 9.43115e+00 8.00086e-01 3.62020e+00 0.00000e+00 9.00000e-01 4.00000e-01 1.00425e-01 8.99168e-01 3.99103e-01 2.01462e-01 8.98989e-01 4.00799e-01 3.02537e-01 8.99195e-01 4.04146e-01 4.03554e-01 8.99283e-01 4.08773e-01 5.04517e-01 8.99363e-01 4.14753e-01 6.05385e-01 8.99383e-01 4.21839e-01 7.06139e-01 8.99400e-01 4.30189e-01 8.06780e-01 8.99397e-01 4.39607e-01 9.07276e-01 8.99393e-01 4.50215e-01 1.00764e+00 8.99382e-01 4.61865e-01 1.10784e+00 8.99371e-01 4.74629e-01 1.20789e+00 8.99357e-01 4.88403e-01 1.30777e+00 8.99345e-01 5.03220e-01 1.40747e+00 8.99332e-01 5.19010e-01 1.50700e+00 8.99322e-01 5.35780e-01 1.60634e+00 8.99312e-01 5.53470e-01 1.70549e+00 8.99305e-01 5.72100e-01 1.80446e+00 8.99298e-01 5.91600e-01 1.90323e+00 8.99294e-01 6.11980e-01 2.00180e+00 8.99291e-01 6.33200e-01 2.10017e+00 8.99289e-01 6.55250e-01 2.19834e+00 8.99289e-01 6.78090e-01 2.29630e+00 8.99290e-01 7.01720e-01 2.39406e+00 8.99292e-01 7.26090e-01 2.49162e+00 8.99295e-01 7.51200e-01 2.58897e+00 8.99299e-01 7.77030e-01 2.68611e+00 8.99304e-01 8.03550e-01 2.78305e+00 8.99309e-01 8.30740e-01 2.87979e+00 8.99316e-01 8.58590e-01 2.97632e+00 8.99323e-01 8.87060e-01 3.07266e+00 8.99331e-01 9.16160e-01 3.16879e+00 8.99340e-01 9.45840e-01 3.26473e+00 8.99350e-01 9.76100e-01 3.36047e+00 8.99360e-01 1.00692e+00 3.45602e+00 8.99370e-01 1.03828e+00 3.55138e+00 8.99381e-01 1.07016e+00 3.64655e+00 8.99393e-01 1.10255e+00 3.74154e+00 8.99405e-01 1.13543e+00 3.83634e+00 8.99418e-01 1.16877e+00 3.93097e+00 8.99431e-01 1.20257e+00 4.02543e+00 8.99445e-01 1.23681e+00 4.11971e+00 8.99459e-01 1.27147e+00 4.21383e+00 8.99473e-01 1.30654e+00 4.30779e+00 8.99487e-01 1.34200e+00 4.40159e+00 8.99502e-01 1.37784e+00 4.49523e+00 8.99517e-01 1.41400e+00 4.58872e+00 8.99533e-01 1.45060e+00 4.68207e+00 8.99548e-01 1.48750e+00 4.77527e+00 8.99564e-01 1.52470e+00 4.86834e+00 8.99579e-01 1.56220e+00 4.96127e+00 8.99595e-01 1.60000e+00 5.05408e+00 8.99611e-01 1.63810e+00 5.14676e+00 8.99627e-01 1.67650e+00 5.23932e+00 8.99644e-01 1.71510e+00 5.33176e+00 8.99660e-01 1.75390e+00 5.42409e+00 8.99676e-01 1.79300e+00 5.51632e+00 8.99692e-01 1.83240e+00 5.60844e+00 8.99708e-01 1.87190e+00 5.70046e+00 8.99724e-01 1.91170e+00 5.79238e+00 8.99740e-01 1.95160e+00 5.88422e+00 8.99755e-01 1.99170e+00 5.97597e+00 8.99771e-01 2.03200e+00 6.06764e+00 8.99786e-01 2.07240e+00 6.15923e+00 8.99802e-01 2.11300e+00 6.25074e+00 8.99817e-01 2.15380e+00 6.34218e+00 8.99831e-01 2.19470e+00 6.43356e+00 8.99846e-01 2.23570e+00 6.52487e+00 8.99860e-01 2.27680e+00 6.61613e+00 8.99874e-01 2.31810e+00 6.70733e+00 8.99888e-01 2.35940e+00 6.79847e+00 8.99902e-01 2.40080e+00 6.88957e+00 8.99915e-01 2.44240e+00 6.98062e+00 8.99928e-01 2.48400e+00 7.07163e+00 8.99940e-01 2.52570e+00 7.16260e+00 8.99952e-01 2.56740e+00 7.25354e+00 8.99964e-01 2.60920e+00 7.34444e+00 8.99975e-01 2.65110e+00 7.43531e+00 8.99986e-01 2.69310e+00 7.52615e+00 8.99997e-01 2.73500e+00 7.61697e+00 9.00007e-01 2.77700e+00 7.70776e+00 9.00017e-01 2.81910e+00 7.79854e+00 9.00026e-01 2.86120e+00 7.88930e+00 9.00035e-01 2.90330e+00 7.98004e+00 9.00043e-01 2.94540e+00 8.07077e+00 9.00051e-01 2.98760e+00 8.16148e+00 9.00058e-01 3.02970e+00 8.25219e+00 9.00065e-01 3.07190e+00 8.34289e+00 9.00072e-01 3.11410e+00 8.43358e+00 9.00078e-01 3.15630e+00 8.52427e+00 9.00083e-01 3.19850e+00 8.61496e+00 9.00088e-01 3.24070e+00 8.70564e+00 9.00092e-01 3.28290e+00 8.79632e+00 9.00096e-01 3.32510e+00 8.88700e+00 9.00099e-01 3.36730e+00 8.97768e+00 9.00102e-01 3.40950e+00 9.06837e+00 9.00105e-01 3.45160e+00 9.15906e+00 9.00107e-01 3.49380e+00 9.24975e+00 9.00110e-01 3.53590e+00 9.34044e+00 9.00113e-01 3.57810e+00 9.43114e+00 9.00116e-01 3.62020e+00 0.00000e+00 1.00000e+00 4.00000e-01 1.00667e-01 9.98565e-01 3.98086e-01 2.01590e-01 9.98807e-01 3.99241e-01 3.02558e-01 9.98908e-01 4.02201e-01 4.03647e-01 9.99082e-01 4.06665e-01 5.04636e-01 9.99133e-01 4.12500e-01 6.05562e-01 9.99173e-01 4.19535e-01 7.06347e-01 9.99177e-01 4.27838e-01 8.07024e-01 9.99179e-01 4.37260e-01 9.07545e-01 9.99168e-01 4.47874e-01 1.00793e+00 9.99158e-01 4.59556e-01 1.10815e+00 9.99142e-01 4.72354e-01 1.20822e+00 9.99129e-01 4.86172e-01 1.30811e+00 9.99114e-01 5.01040e-01 1.40783e+00 9.99102e-01 5.16870e-01 1.50737e+00 9.99090e-01 5.33690e-01 1.60672e+00 9.99081e-01 5.51440e-01 1.70588e+00 9.99074e-01 5.70110e-01 1.80485e+00 9.99069e-01 5.89670e-01 1.90362e+00 9.99066e-01 6.10100e-01 2.00220e+00 9.99064e-01 6.31370e-01 2.10057e+00 9.99065e-01 6.53460e-01 2.19874e+00 9.99067e-01 6.76350e-01 2.29671e+00 9.99070e-01 7.00020e-01 2.39447e+00 9.99075e-01 7.24450e-01 2.49203e+00 9.99081e-01 7.49600e-01 2.58938e+00 9.99088e-01 7.75480e-01 2.68652e+00 9.99096e-01 8.02040e-01 2.78346e+00 9.99106e-01 8.29270e-01 2.88019e+00 9.99116e-01 8.57160e-01 2.97673e+00 9.99127e-01 8.85680e-01 3.07306e+00 9.99139e-01 9.14820e-01 3.16918e+00 9.99151e-01 9.44540e-01 3.26512e+00 9.99165e-01 9.74850e-01 3.36085e+00 9.99179e-01 1.00571e+00 3.45640e+00 9.99193e-01 1.03710e+00 3.55175e+00 9.99209e-01 1.06902e+00 3.64691e+00 9.99225e-01 1.10145e+00 3.74189e+00 9.99241e-01 1.13436e+00 3.83669e+00 9.99258e-01 1.16774e+00 3.93131e+00 9.99276e-01 1.20158e+00 4.02576e+00 9.99294e-01 1.23585e+00 4.12004e+00 9.99312e-01 1.27054e+00 4.21415e+00 9.99331e-01 1.30564e+00 4.30810e+00 9.99350e-01 1.34114e+00 4.40189e+00 9.99369e-01 1.37701e+00 4.49552e+00 9.99389e-01 1.41320e+00 4.58900e+00 9.99409e-01 1.44980e+00 4.68234e+00 9.99429e-01 1.48670e+00 4.77554e+00 9.99449e-01 1.52400e+00 4.86860e+00 9.99469e-01 1.56150e+00 4.96152e+00 9.99490e-01 1.59940e+00 5.05432e+00 9.99510e-01 1.63750e+00 5.14699e+00 9.99531e-01 1.67590e+00 5.23954e+00 9.99551e-01 1.71450e+00 5.33197e+00 9.99572e-01 1.75340e+00 5.42429e+00 9.99592e-01 1.79250e+00 5.51651e+00 9.99613e-01 1.83190e+00 5.60862e+00 9.99633e-01 1.87140e+00 5.70063e+00 9.99653e-01 1.91120e+00 5.79255e+00 9.99673e-01 1.95120e+00 5.88438e+00 9.99693e-01 1.99130e+00 5.97612e+00 9.99713e-01 2.03160e+00 6.06778e+00 9.99732e-01 2.07210e+00 6.15936e+00 9.99751e-01 2.11270e+00 6.25086e+00 9.99770e-01 2.15350e+00 6.34230e+00 9.99789e-01 2.19440e+00 6.43367e+00 9.99807e-01 2.23540e+00 6.52498e+00 9.99825e-01 2.27660e+00 6.61622e+00 9.99843e-01 2.31780e+00 6.70742e+00 9.99860e-01 2.35920e+00 6.79856e+00 9.99877e-01 2.40060e+00 6.88965e+00 9.99893e-01 2.44220e+00 6.98069e+00 9.99910e-01 2.48380e+00 7.07170e+00 9.99925e-01 2.52550e+00 7.16266e+00 9.99940e-01 2.56730e+00 7.25359e+00 9.99955e-01 2.60910e+00 7.34448e+00 9.99969e-01 2.65100e+00 7.43535e+00 9.99983e-01 2.69290e+00 7.52619e+00 9.99996e-01 2.73490e+00 7.61700e+00 1.00001e+00 2.77690e+00 7.70779e+00 1.00002e+00 2.81900e+00 7.79856e+00 1.00003e+00 2.86110e+00 7.88932e+00 1.00004e+00 2.90320e+00 7.98005e+00 1.00005e+00 2.94540e+00 8.07078e+00 1.00006e+00 2.98750e+00 8.16149e+00 1.00007e+00 3.02970e+00 8.25220e+00 1.00008e+00 3.07190e+00 8.34289e+00 1.00009e+00 3.11410e+00 8.43358e+00 1.00010e+00 3.15630e+00 8.52427e+00 1.00010e+00 3.19850e+00 8.61495e+00 1.00011e+00 3.24070e+00 8.70563e+00 1.00012e+00 3.28290e+00 8.79631e+00 1.00012e+00 3.32510e+00 8.88699e+00 1.00012e+00 3.36730e+00 8.97768e+00 1.00013e+00 3.40950e+00 9.06836e+00 1.00013e+00 3.45160e+00 9.15905e+00 1.00013e+00 3.49380e+00 9.24973e+00 1.00014e+00 3.53600e+00 9.34043e+00 1.00014e+00 3.57810e+00 9.43113e+00 1.00015e+00 3.62020e+00 0.00000e+00 0.00000e+00 5.00000e-01 9.97334e-02 -9.57800e-04 4.97742e-01 1.99565e-01 -1.25140e-03 4.98727e-01 2.99552e-01 -1.59030e-03 5.01503e-01 3.99448e-01 -1.73300e-03 5.05963e-01 4.99330e-01 -1.85060e-03 5.11664e-01 5.99111e-01 -1.88870e-03 5.18711e-01 6.98815e-01 -1.90190e-03 5.26885e-01 7.98398e-01 -1.87760e-03 5.36296e-01 8.97868e-01 -1.83710e-03 5.46784e-01 9.97201e-01 -1.78060e-03 5.58422e-01 1.09640e+00 -1.71720e-03 5.71091e-01 1.19545e+00 -1.64940e-03 5.84833e-01 1.29435e+00 -1.58050e-03 5.99561e-01 1.39309e+00 -1.51240e-03 6.15300e-01 1.49168e+00 -1.44590e-03 6.31970e-01 1.59010e+00 -1.38200e-03 6.49590e-01 1.68835e+00 -1.32070e-03 6.68110e-01 1.78643e+00 -1.26220e-03 6.87530e-01 1.88434e+00 -1.20620e-03 7.07800e-01 1.98207e+00 -1.15290e-03 7.28920e-01 2.07962e+00 -1.10180e-03 7.50850e-01 2.17699e+00 -1.05290e-03 7.73580e-01 2.27417e+00 -1.00610e-03 7.97080e-01 2.37117e+00 -9.61200e-04 8.21340e-01 2.46799e+00 -9.18080e-04 8.46330e-01 2.56462e+00 -8.76710e-04 8.72030e-01 2.66106e+00 -8.36940e-04 8.98420e-01 2.75732e+00 -7.98780e-04 9.25480e-01 2.85339e+00 -7.62100e-04 9.53200e-01 2.94928e+00 -7.26920e-04 9.81550e-01 3.04499e+00 -6.93140e-04 1.01051e+00 3.14051e+00 -6.60760e-04 1.04007e+00 3.23586e+00 -6.29720e-04 1.07020e+00 3.33102e+00 -6.00000e-04 1.10089e+00 3.42602e+00 -5.71550e-04 1.13213e+00 3.52084e+00 -5.44350e-04 1.16388e+00 3.61548e+00 -5.18360e-04 1.19615e+00 3.70996e+00 -4.93550e-04 1.22890e+00 3.80428e+00 -4.69870e-04 1.26212e+00 3.89844e+00 -4.47310e-04 1.29580e+00 3.99243e+00 -4.25820e-04 1.32993e+00 4.08627e+00 -4.05380e-04 1.36447e+00 4.17996e+00 -3.85940e-04 1.39943e+00 4.27350e+00 -3.67490e-04 1.43478e+00 4.36690e+00 -3.49970e-04 1.47051e+00 4.46016e+00 -3.33380e-04 1.50660e+00 4.55328e+00 -3.17660e-04 1.54310e+00 4.64627e+00 -3.02790e-04 1.57980e+00 4.73913e+00 -2.88740e-04 1.61700e+00 4.83186e+00 -2.75480e-04 1.65440e+00 4.92448e+00 -2.62990e-04 1.69210e+00 5.01697e+00 -2.51220e-04 1.73010e+00 5.10936e+00 -2.40150e-04 1.76840e+00 5.20164e+00 -2.29750e-04 1.80690e+00 5.29381e+00 -2.20000e-04 1.84570e+00 5.38588e+00 -2.10870e-04 1.88470e+00 5.47786e+00 -2.02330e-04 1.92400e+00 5.56974e+00 -1.94350e-04 1.96350e+00 5.66153e+00 -1.86920e-04 2.00310e+00 5.75324e+00 -1.80000e-04 2.04300e+00 5.84487e+00 -1.73570e-04 2.08310e+00 5.93643e+00 -1.67600e-04 2.12330e+00 6.02791e+00 -1.62080e-04 2.16370e+00 6.11932e+00 -1.56980e-04 2.20430e+00 6.21067e+00 -1.52270e-04 2.24500e+00 6.30195e+00 -1.47950e-04 2.28580e+00 6.39318e+00 -1.43980e-04 2.32680e+00 6.48435e+00 -1.40340e-04 2.36790e+00 6.57547e+00 -1.37020e-04 2.40910e+00 6.66655e+00 -1.34000e-04 2.45040e+00 6.75757e+00 -1.31260e-04 2.49180e+00 6.84856e+00 -1.28770e-04 2.53330e+00 6.93951e+00 -1.26530e-04 2.57490e+00 7.03042e+00 -1.24510e-04 2.61650e+00 7.12130e+00 -1.22710e-04 2.65830e+00 7.21215e+00 -1.21100e-04 2.70010e+00 7.30298e+00 -1.19670e-04 2.74190e+00 7.39377e+00 -1.18410e-04 2.78380e+00 7.48455e+00 -1.17290e-04 2.82580e+00 7.57531e+00 -1.16320e-04 2.86780e+00 7.66605e+00 -1.15470e-04 2.90980e+00 7.75677e+00 -1.14740e-04 2.95190e+00 7.84748e+00 -1.14110e-04 2.99400e+00 7.93818e+00 -1.13580e-04 3.03610e+00 8.02887e+00 -1.13120e-04 3.07830e+00 8.11956e+00 -1.12750e-04 3.12040e+00 8.21023e+00 -1.12430e-04 3.16260e+00 8.30091e+00 -1.12170e-04 3.20480e+00 8.39158e+00 -1.11960e-04 3.24700e+00 8.48224e+00 -1.11800e-04 3.28920e+00 8.57291e+00 -1.11660e-04 3.33140e+00 8.66358e+00 -1.11560e-04 3.37360e+00 8.75425e+00 -1.11480e-04 3.41580e+00 8.84492e+00 -1.11420e-04 3.45800e+00 8.93559e+00 -1.11380e-04 3.50010e+00 9.02627e+00 -1.11350e-04 3.54230e+00 9.11695e+00 -1.11330e-04 3.58450e+00 9.20764e+00 -1.11310e-04 3.62660e+00 9.29833e+00 -1.11290e-04 3.66880e+00 9.38903e+00 -1.11280e-04 3.71090e+00 0.00000e+00 1.00000e-01 5.00000e-01 9.99801e-02 9.94736e-02 4.98810e-01 1.99800e-01 9.89537e-02 5.00321e-01 2.99642e-01 9.87121e-02 5.03479e-01 3.99468e-01 9.85269e-02 5.08107e-01 4.99250e-01 9.84471e-02 5.13917e-01 5.98970e-01 9.83990e-02 5.21026e-01 6.98608e-01 9.83968e-02 5.29220e-01 7.98146e-01 9.84127e-02 5.38635e-01 8.97574e-01 9.84510e-02 5.49100e-01 9.96876e-01 9.84972e-02 5.60710e-01 1.09605e+00 9.85526e-02 5.73337e-01 1.19508e+00 9.86094e-02 5.87037e-01 1.29396e+00 9.86684e-02 6.01720e-01 1.39269e+00 9.87258e-02 6.17400e-01 1.49127e+00 9.87822e-02 6.34030e-01 1.58968e+00 9.88361e-02 6.51600e-01 1.68792e+00 9.88881e-02 6.70070e-01 1.78600e+00 9.89375e-02 6.89440e-01 1.88390e+00 9.89848e-02 7.09660e-01 1.98162e+00 9.90299e-02 7.30730e-01 2.07917e+00 9.90731e-02 7.52610e-01 2.17654e+00 9.91145e-02 7.75290e-01 2.27372e+00 9.91541e-02 7.98750e-01 2.37072e+00 9.91921e-02 8.22960e-01 2.46754e+00 9.92286e-02 8.47900e-01 2.56417e+00 9.92637e-02 8.73560e-01 2.66061e+00 9.92974e-02 8.99910e-01 2.75687e+00 9.93297e-02 9.26930e-01 2.85295e+00 9.93608e-02 9.54600e-01 2.94884e+00 9.93906e-02 9.82910e-01 3.04455e+00 9.94192e-02 1.01183e+00 3.14009e+00 9.94467e-02 1.04135e+00 3.23544e+00 9.94730e-02 1.07144e+00 3.33061e+00 9.94981e-02 1.10209e+00 3.42561e+00 9.95222e-02 1.13329e+00 3.52043e+00 9.95453e-02 1.16501e+00 3.61509e+00 9.95673e-02 1.19723e+00 3.70958e+00 9.95883e-02 1.22995e+00 3.80390e+00 9.96084e-02 1.26314e+00 3.89806e+00 9.96275e-02 1.29678e+00 3.99207e+00 9.96457e-02 1.33087e+00 4.08592e+00 9.96630e-02 1.36538e+00 4.17962e+00 9.96794e-02 1.40031e+00 4.27317e+00 9.96950e-02 1.43563e+00 4.36657e+00 9.97098e-02 1.47132e+00 4.45984e+00 9.97239e-02 1.50740e+00 4.55297e+00 9.97372e-02 1.54380e+00 4.64597e+00 9.97498e-02 1.58060e+00 4.73884e+00 9.97616e-02 1.61760e+00 4.83158e+00 9.97728e-02 1.65500e+00 4.92420e+00 9.97834e-02 1.69270e+00 5.01671e+00 9.97934e-02 1.73070e+00 5.10911e+00 9.98027e-02 1.76900e+00 5.20139e+00 9.98115e-02 1.80750e+00 5.29357e+00 9.98197e-02 1.84620e+00 5.38566e+00 9.98274e-02 1.88520e+00 5.47764e+00 9.98346e-02 1.92450e+00 5.56953e+00 9.98414e-02 1.96390e+00 5.66134e+00 9.98476e-02 2.00360e+00 5.75306e+00 9.98535e-02 2.04340e+00 5.84470e+00 9.98589e-02 2.08350e+00 5.93626e+00 9.98639e-02 2.12370e+00 6.02775e+00 9.98686e-02 2.16400e+00 6.11917e+00 9.98728e-02 2.20460e+00 6.21052e+00 9.98768e-02 2.24530e+00 6.30182e+00 9.98805e-02 2.28610e+00 6.39305e+00 9.98838e-02 2.32700e+00 6.48423e+00 9.98868e-02 2.36810e+00 6.57536e+00 9.98896e-02 2.40930e+00 6.66644e+00 9.98921e-02 2.45060e+00 6.75748e+00 9.98945e-02 2.49200e+00 6.84847e+00 9.98965e-02 2.53350e+00 6.93943e+00 9.98984e-02 2.57500e+00 7.03034e+00 9.99001e-02 2.61670e+00 7.12123e+00 9.99016e-02 2.65840e+00 7.21209e+00 9.99029e-02 2.70020e+00 7.30292e+00 9.99041e-02 2.74200e+00 7.39372e+00 9.99052e-02 2.78390e+00 7.48450e+00 9.99061e-02 2.82590e+00 7.57527e+00 9.99069e-02 2.86790e+00 7.66601e+00 9.99076e-02 2.90990e+00 7.75674e+00 9.99082e-02 2.95200e+00 7.84746e+00 9.99087e-02 2.99410e+00 7.93816e+00 9.99091e-02 3.03620e+00 8.02885e+00 9.99095e-02 3.07830e+00 8.11954e+00 9.99098e-02 3.12050e+00 8.21022e+00 9.99101e-02 3.16260e+00 8.30090e+00 9.99103e-02 3.20480e+00 8.39157e+00 9.99104e-02 3.24700e+00 8.48224e+00 9.99106e-02 3.28920e+00 8.57291e+00 9.99107e-02 3.33140e+00 8.66358e+00 9.99107e-02 3.37360e+00 8.75425e+00 9.99108e-02 3.41580e+00 8.84492e+00 9.99108e-02 3.45790e+00 8.93560e+00 9.99109e-02 3.50010e+00 9.02628e+00 9.99109e-02 3.54230e+00 9.11696e+00 9.99109e-02 3.58450e+00 9.20765e+00 9.99109e-02 3.62660e+00 9.29834e+00 9.99109e-02 3.66880e+00 9.38904e+00 9.99109e-02 3.71090e+00 0.00000e+00 2.00000e-01 5.00000e-01 9.99528e-02 1.99646e-01 4.98882e-01 1.99866e-01 1.99310e-01 5.00802e-01 2.99695e-01 1.99034e-01 5.04413e-01 3.99477e-01 1.98900e-01 5.09369e-01 4.99213e-01 1.98807e-01 5.15366e-01 5.98880e-01 1.98775e-01 5.22609e-01 6.98475e-01 1.98764e-01 5.30866e-01 7.97974e-01 1.98779e-01 5.40329e-01 8.97370e-01 1.98806e-01 5.50802e-01 9.96644e-01 1.98843e-01 5.62416e-01 1.09579e+00 1.98884e-01 5.75026e-01 1.19481e+00 1.98929e-01 5.88705e-01 1.29367e+00 1.98974e-01 6.03350e-01 1.39239e+00 1.99018e-01 6.19010e-01 1.49096e+00 1.99062e-01 6.35600e-01 1.58936e+00 1.99104e-01 6.53140e-01 1.68760e+00 1.99144e-01 6.71570e-01 1.78567e+00 1.99182e-01 6.90900e-01 1.88357e+00 1.99218e-01 7.11090e-01 1.98129e+00 1.99253e-01 7.32120e-01 2.07883e+00 1.99286e-01 7.53970e-01 2.17620e+00 1.99318e-01 7.76610e-01 2.27338e+00 1.99349e-01 8.00030e-01 2.37038e+00 1.99378e-01 8.24210e-01 2.46720e+00 1.99406e-01 8.49120e-01 2.56383e+00 1.99434e-01 8.74740e-01 2.66027e+00 1.99460e-01 9.01050e-01 2.75654e+00 1.99485e-01 9.28040e-01 2.85262e+00 1.99509e-01 9.55680e-01 2.94851e+00 1.99532e-01 9.83960e-01 3.04423e+00 1.99554e-01 1.01285e+00 3.13976e+00 1.99575e-01 1.04233e+00 3.23511e+00 1.99595e-01 1.07240e+00 3.33029e+00 1.99615e-01 1.10302e+00 3.42530e+00 1.99633e-01 1.13418e+00 3.52013e+00 1.99651e-01 1.16587e+00 3.61479e+00 1.99668e-01 1.19807e+00 3.70928e+00 1.99684e-01 1.23076e+00 3.80361e+00 1.99700e-01 1.26392e+00 3.89778e+00 1.99715e-01 1.29754e+00 3.99179e+00 1.99729e-01 1.33160e+00 4.08564e+00 1.99742e-01 1.36609e+00 4.17935e+00 1.99755e-01 1.40098e+00 4.27291e+00 1.99767e-01 1.43628e+00 4.36632e+00 1.99778e-01 1.47195e+00 4.45959e+00 1.99789e-01 1.50800e+00 4.55273e+00 1.99799e-01 1.54440e+00 4.64574e+00 1.99809e-01 1.58110e+00 4.73861e+00 1.99818e-01 1.61820e+00 4.83136e+00 1.99827e-01 1.65560e+00 4.92400e+00 1.99835e-01 1.69320e+00 5.01651e+00 1.99843e-01 1.73120e+00 5.10891e+00 1.99850e-01 1.76940e+00 5.20121e+00 1.99857e-01 1.80790e+00 5.29339e+00 1.99863e-01 1.84670e+00 5.38548e+00 1.99869e-01 1.88560e+00 5.47748e+00 1.99875e-01 1.92490e+00 5.56938e+00 1.99880e-01 1.96430e+00 5.66119e+00 1.99885e-01 2.00390e+00 5.75291e+00 1.99889e-01 2.04370e+00 5.84456e+00 1.99893e-01 2.08380e+00 5.93613e+00 1.99897e-01 2.12400e+00 6.02763e+00 1.99901e-01 2.16430e+00 6.11905e+00 1.99904e-01 2.20480e+00 6.21041e+00 1.99907e-01 2.24550e+00 6.30171e+00 1.99910e-01 2.28630e+00 6.39295e+00 1.99912e-01 2.32730e+00 6.48414e+00 1.99915e-01 2.36830e+00 6.57527e+00 1.99917e-01 2.40950e+00 6.66636e+00 1.99919e-01 2.45080e+00 6.75740e+00 1.99921e-01 2.49210e+00 6.84840e+00 1.99922e-01 2.53360e+00 6.93936e+00 1.99924e-01 2.57520e+00 7.03028e+00 1.99925e-01 2.61680e+00 7.12118e+00 1.99926e-01 2.65850e+00 7.21204e+00 1.99927e-01 2.70030e+00 7.30287e+00 1.99928e-01 2.74210e+00 7.39368e+00 1.99929e-01 2.78400e+00 7.48447e+00 1.99930e-01 2.82600e+00 7.57523e+00 1.99930e-01 2.86800e+00 7.66598e+00 1.99931e-01 2.91000e+00 7.75671e+00 1.99931e-01 2.95200e+00 7.84743e+00 1.99932e-01 2.99410e+00 7.93814e+00 1.99932e-01 3.03620e+00 8.02884e+00 1.99932e-01 3.07840e+00 8.11953e+00 1.99932e-01 3.12050e+00 8.21021e+00 1.99933e-01 3.16270e+00 8.30089e+00 1.99933e-01 3.20480e+00 8.39156e+00 1.99933e-01 3.24700e+00 8.48224e+00 1.99933e-01 3.28920e+00 8.57291e+00 1.99933e-01 3.33140e+00 8.66358e+00 1.99933e-01 3.37360e+00 8.75425e+00 1.99933e-01 3.41580e+00 8.84493e+00 1.99933e-01 3.45790e+00 8.93560e+00 1.99933e-01 3.50010e+00 9.02628e+00 1.99933e-01 3.54230e+00 9.11696e+00 1.99933e-01 3.58450e+00 9.20765e+00 1.99933e-01 3.62660e+00 9.29834e+00 1.99933e-01 3.66880e+00 9.38904e+00 1.99933e-01 3.71090e+00 0.00000e+00 3.00000e-01 5.00000e-01 9.99702e-02 2.99781e-01 4.98890e-01 1.99850e-01 2.99558e-01 5.00979e-01 2.99712e-01 2.99388e-01 5.04848e-01 3.99470e-01 2.99267e-01 5.10070e-01 4.99188e-01 2.99209e-01 5.16243e-01 5.98822e-01 2.99175e-01 5.23616e-01 6.98390e-01 2.99170e-01 5.31949e-01 7.97862e-01 2.99175e-01 5.41465e-01 8.97235e-01 2.99195e-01 5.51964e-01 9.96489e-01 2.99218e-01 5.63591e-01 1.09562e+00 2.99247e-01 5.76199e-01 1.19462e+00 2.99276e-01 5.89872e-01 1.29348e+00 2.99307e-01 6.04510e-01 1.39219e+00 2.99337e-01 6.20140e-01 1.49074e+00 2.99366e-01 6.36710e-01 1.58914e+00 2.99394e-01 6.54230e-01 1.68737e+00 2.99421e-01 6.72640e-01 1.78544e+00 2.99447e-01 6.91940e-01 1.88333e+00 2.99472e-01 7.12100e-01 1.98105e+00 2.99495e-01 7.33110e-01 2.07859e+00 2.99518e-01 7.54930e-01 2.17596e+00 2.99540e-01 7.77550e-01 2.27314e+00 2.99560e-01 8.00950e-01 2.37014e+00 2.99580e-01 8.25100e-01 2.46696e+00 2.99599e-01 8.49980e-01 2.56359e+00 2.99617e-01 8.75580e-01 2.66004e+00 2.99635e-01 9.01870e-01 2.75630e+00 2.99652e-01 9.28830e-01 2.85238e+00 2.99668e-01 9.56450e-01 2.94828e+00 2.99684e-01 9.84700e-01 3.04399e+00 2.99699e-01 1.01357e+00 3.13953e+00 2.99713e-01 1.04303e+00 3.23489e+00 2.99727e-01 1.07308e+00 3.33007e+00 2.99740e-01 1.10368e+00 3.42507e+00 2.99753e-01 1.13482e+00 3.51991e+00 2.99765e-01 1.16649e+00 3.61457e+00 2.99776e-01 1.19867e+00 3.70907e+00 2.99787e-01 1.23133e+00 3.80340e+00 2.99798e-01 1.26448e+00 3.89758e+00 2.99808e-01 1.29808e+00 3.99159e+00 2.99817e-01 1.33212e+00 4.08545e+00 2.99826e-01 1.36659e+00 4.17916e+00 2.99835e-01 1.40147e+00 4.27272e+00 2.99843e-01 1.43674e+00 4.36614e+00 2.99851e-01 1.47240e+00 4.45942e+00 2.99858e-01 1.50840e+00 4.55256e+00 2.99865e-01 1.54480e+00 4.64557e+00 2.99872e-01 1.58150e+00 4.73845e+00 2.99878e-01 1.61860e+00 4.83121e+00 2.99884e-01 1.65590e+00 4.92385e+00 2.99889e-01 1.69360e+00 5.01637e+00 2.99894e-01 1.73150e+00 5.10877e+00 2.99899e-01 1.76970e+00 5.20107e+00 2.99904e-01 1.80820e+00 5.29327e+00 2.99908e-01 1.84690e+00 5.38536e+00 2.99912e-01 1.88590e+00 5.47736e+00 2.99916e-01 1.92510e+00 5.56926e+00 2.99919e-01 1.96450e+00 5.66108e+00 2.99923e-01 2.00420e+00 5.75281e+00 2.99926e-01 2.04400e+00 5.84446e+00 2.99929e-01 2.08400e+00 5.93604e+00 2.99931e-01 2.12420e+00 6.02754e+00 2.99934e-01 2.16450e+00 6.11897e+00 2.99936e-01 2.20500e+00 6.21033e+00 2.99938e-01 2.24570e+00 6.30164e+00 2.99940e-01 2.28650e+00 6.39288e+00 2.99941e-01 2.32740e+00 6.48407e+00 2.99943e-01 2.36850e+00 6.57521e+00 2.99945e-01 2.40960e+00 6.66630e+00 2.99946e-01 2.45090e+00 6.75735e+00 2.99947e-01 2.49230e+00 6.84835e+00 2.99948e-01 2.53370e+00 6.93931e+00 2.99949e-01 2.57530e+00 7.03024e+00 2.99950e-01 2.61690e+00 7.12114e+00 2.99951e-01 2.65860e+00 7.21200e+00 2.99951e-01 2.70040e+00 7.30284e+00 2.99952e-01 2.74220e+00 7.39365e+00 2.99953e-01 2.78410e+00 7.48444e+00 2.99953e-01 2.82600e+00 7.57521e+00 2.99953e-01 2.86800e+00 7.66596e+00 2.99954e-01 2.91000e+00 7.75669e+00 2.99954e-01 2.95210e+00 7.84742e+00 2.99954e-01 2.99410e+00 7.93813e+00 2.99955e-01 3.03630e+00 8.02883e+00 2.99955e-01 3.07840e+00 8.11952e+00 2.99955e-01 3.12050e+00 8.21020e+00 2.99955e-01 3.16270e+00 8.30088e+00 2.99955e-01 3.20480e+00 8.39156e+00 2.99955e-01 3.24700e+00 8.48223e+00 2.99955e-01 3.28920e+00 8.57291e+00 2.99955e-01 3.33140e+00 8.66358e+00 2.99955e-01 3.37360e+00 8.75425e+00 2.99955e-01 3.41580e+00 8.84493e+00 2.99955e-01 3.45790e+00 8.93560e+00 2.99955e-01 3.50010e+00 9.02628e+00 2.99955e-01 3.54230e+00 9.11697e+00 2.99955e-01 3.58440e+00 9.20766e+00 2.99955e-01 3.62660e+00 9.29835e+00 2.99955e-01 3.66870e+00 9.38904e+00 2.99955e-01 3.71090e+00 0.00000e+00 4.00000e-01 5.00000e-01 9.99546e-02 3.99892e-01 4.98898e-01 1.99858e-01 3.99789e-01 5.01058e-01 2.99700e-01 3.99698e-01 5.05063e-01 3.99468e-01 3.99642e-01 5.10424e-01 4.99166e-01 3.99604e-01 5.16714e-01 5.98792e-01 3.99589e-01 5.24173e-01 6.98341e-01 3.99583e-01 5.32563e-01 7.97799e-01 3.99587e-01 5.42119e-01 8.97158e-01 3.99595e-01 5.52640e-01 9.96401e-01 3.99607e-01 5.64281e-01 1.09552e+00 3.99621e-01 5.76892e-01 1.19451e+00 3.99636e-01 5.90563e-01 1.29336e+00 3.99651e-01 6.05190e-01 1.39206e+00 3.99666e-01 6.20820e-01 1.49062e+00 3.99681e-01 6.37370e-01 1.58901e+00 3.99695e-01 6.54880e-01 1.68724e+00 3.99709e-01 6.73270e-01 1.78530e+00 3.99722e-01 6.92560e-01 1.88319e+00 3.99734e-01 7.12710e-01 1.98091e+00 3.99746e-01 7.33700e-01 2.07845e+00 3.99758e-01 7.55510e-01 2.17582e+00 3.99768e-01 7.78110e-01 2.27300e+00 3.99779e-01 8.01490e-01 2.37000e+00 3.99789e-01 8.25630e-01 2.46681e+00 3.99798e-01 8.50500e-01 2.56344e+00 3.99808e-01 8.76080e-01 2.65989e+00 3.99817e-01 9.02360e-01 2.75616e+00 3.99825e-01 9.29310e-01 2.85224e+00 3.99833e-01 9.56910e-01 2.94814e+00 3.99841e-01 9.85150e-01 3.04386e+00 3.99849e-01 1.01400e+00 3.13939e+00 3.99856e-01 1.04345e+00 3.23475e+00 3.99863e-01 1.07348e+00 3.32993e+00 3.99869e-01 1.10407e+00 3.42494e+00 3.99876e-01 1.13520e+00 3.51978e+00 3.99882e-01 1.16686e+00 3.61445e+00 3.99888e-01 1.19902e+00 3.70894e+00 3.99893e-01 1.23168e+00 3.80328e+00 3.99898e-01 1.26481e+00 3.89746e+00 3.99903e-01 1.29840e+00 3.99147e+00 3.99908e-01 1.33243e+00 4.08534e+00 3.99913e-01 1.36689e+00 4.17905e+00 3.99917e-01 1.40176e+00 4.27262e+00 3.99921e-01 1.43702e+00 4.36604e+00 3.99925e-01 1.47267e+00 4.45932e+00 3.99929e-01 1.50870e+00 4.55246e+00 3.99932e-01 1.54510e+00 4.64548e+00 3.99936e-01 1.58180e+00 4.73836e+00 3.99939e-01 1.61880e+00 4.83112e+00 3.99942e-01 1.65610e+00 4.92376e+00 3.99944e-01 1.69380e+00 5.01628e+00 3.99947e-01 1.73170e+00 5.10869e+00 3.99949e-01 1.76990e+00 5.20099e+00 3.99952e-01 1.80840e+00 5.29319e+00 3.99954e-01 1.84710e+00 5.38529e+00 3.99956e-01 1.88610e+00 5.47729e+00 3.99958e-01 1.92530e+00 5.56920e+00 3.99960e-01 1.96470e+00 5.66102e+00 3.99961e-01 2.00430e+00 5.75275e+00 3.99963e-01 2.04410e+00 5.84440e+00 3.99964e-01 2.08410e+00 5.93598e+00 3.99966e-01 2.12430e+00 6.02748e+00 3.99967e-01 2.16460e+00 6.11892e+00 3.99968e-01 2.20510e+00 6.21029e+00 3.99969e-01 2.24580e+00 6.30159e+00 3.99970e-01 2.28660e+00 6.39284e+00 3.99971e-01 2.32750e+00 6.48403e+00 3.99971e-01 2.36850e+00 6.57517e+00 3.99972e-01 2.40970e+00 6.66627e+00 3.99973e-01 2.45100e+00 6.75731e+00 3.99973e-01 2.49230e+00 6.84832e+00 3.99974e-01 2.53380e+00 6.93929e+00 3.99974e-01 2.57530e+00 7.03022e+00 3.99975e-01 2.61700e+00 7.12111e+00 3.99975e-01 2.65870e+00 7.21198e+00 3.99976e-01 2.70040e+00 7.30282e+00 3.99976e-01 2.74230e+00 7.39363e+00 3.99976e-01 2.78410e+00 7.48442e+00 3.99976e-01 2.82610e+00 7.57519e+00 3.99977e-01 2.86800e+00 7.66595e+00 3.99977e-01 2.91000e+00 7.75668e+00 3.99977e-01 2.95210e+00 7.84741e+00 3.99977e-01 2.99420e+00 7.93812e+00 3.99977e-01 3.03630e+00 8.02882e+00 3.99977e-01 3.07840e+00 8.11951e+00 3.99977e-01 3.12050e+00 8.21020e+00 3.99977e-01 3.16270e+00 8.30088e+00 3.99977e-01 3.20490e+00 8.39156e+00 3.99978e-01 3.24700e+00 8.48223e+00 3.99978e-01 3.28920e+00 8.57290e+00 3.99978e-01 3.33140e+00 8.66358e+00 3.99978e-01 3.37360e+00 8.75425e+00 3.99978e-01 3.41580e+00 8.84493e+00 3.99978e-01 3.45790e+00 8.93560e+00 3.99978e-01 3.50010e+00 9.02628e+00 3.99978e-01 3.54230e+00 9.11697e+00 3.99978e-01 3.58440e+00 9.20766e+00 3.99978e-01 3.62660e+00 9.29835e+00 3.99978e-01 3.66870e+00 9.38905e+00 3.99978e-01 3.71090e+00 0.00000e+00 5.00000e-01 5.00000e-01 9.99657e-02 5.00000e-01 4.98899e-01 1.99845e-01 5.00000e-01 5.01088e-01 2.99707e-01 5.00000e-01 5.05124e-01 3.99458e-01 5.00000e-01 5.10533e-01 4.99165e-01 5.00000e-01 5.16859e-01 5.98778e-01 5.00000e-01 5.24350e-01 6.98327e-01 5.00000e-01 5.32759e-01 7.97778e-01 5.00000e-01 5.42331e-01 8.97134e-01 5.00000e-01 5.52860e-01 9.96371e-01 5.00000e-01 5.64506e-01 1.09549e+00 5.00000e-01 5.77119e-01 1.19448e+00 5.00000e-01 5.90790e-01 1.29332e+00 5.00000e-01 6.05420e-01 1.39203e+00 5.00000e-01 6.21040e-01 1.49058e+00 5.00000e-01 6.37590e-01 1.58897e+00 5.00000e-01 6.55090e-01 1.68720e+00 5.00000e-01 6.73480e-01 1.78526e+00 5.00000e-01 6.92770e-01 1.88315e+00 5.00000e-01 7.12910e-01 1.98087e+00 5.00000e-01 7.33900e-01 2.07841e+00 5.00000e-01 7.55700e-01 2.17577e+00 5.00000e-01 7.78300e-01 2.27295e+00 5.00000e-01 8.01670e-01 2.36995e+00 5.00000e-01 8.25800e-01 2.46677e+00 5.00000e-01 8.50670e-01 2.56340e+00 5.00000e-01 8.76250e-01 2.65985e+00 5.00000e-01 9.02520e-01 2.75611e+00 5.00000e-01 9.29460e-01 2.85219e+00 5.00000e-01 9.57060e-01 2.94809e+00 5.00000e-01 9.85300e-01 3.04381e+00 5.00000e-01 1.01415e+00 3.13935e+00 5.00000e-01 1.04359e+00 3.23471e+00 5.00000e-01 1.07362e+00 3.32989e+00 5.00000e-01 1.10420e+00 3.42490e+00 5.00000e-01 1.13533e+00 3.51974e+00 5.00000e-01 1.16698e+00 3.61440e+00 5.00000e-01 1.19914e+00 3.70890e+00 5.00000e-01 1.23179e+00 3.80324e+00 5.00000e-01 1.26492e+00 3.89742e+00 5.00000e-01 1.29850e+00 3.99144e+00 5.00000e-01 1.33253e+00 4.08530e+00 5.00000e-01 1.36699e+00 4.17901e+00 5.00000e-01 1.40185e+00 4.27258e+00 5.00000e-01 1.43711e+00 4.36600e+00 5.00000e-01 1.47276e+00 4.45928e+00 5.00000e-01 1.50880e+00 4.55243e+00 5.00000e-01 1.54510e+00 4.64544e+00 5.00000e-01 1.58180e+00 4.73833e+00 5.00000e-01 1.61890e+00 4.83109e+00 5.00000e-01 1.65620e+00 4.92373e+00 5.00000e-01 1.69390e+00 5.01625e+00 5.00000e-01 1.73180e+00 5.10867e+00 5.00000e-01 1.77000e+00 5.20097e+00 5.00000e-01 1.80850e+00 5.29317e+00 5.00000e-01 1.84720e+00 5.38526e+00 5.00000e-01 1.88610e+00 5.47726e+00 5.00000e-01 1.92530e+00 5.56917e+00 5.00000e-01 1.96470e+00 5.66099e+00 5.00000e-01 2.00440e+00 5.75273e+00 5.00000e-01 2.04420e+00 5.84438e+00 5.00000e-01 2.08420e+00 5.93596e+00 5.00000e-01 2.12430e+00 6.02747e+00 5.00000e-01 2.16470e+00 6.11890e+00 5.00000e-01 2.20520e+00 6.21027e+00 5.00000e-01 2.24580e+00 6.30158e+00 5.00000e-01 2.28660e+00 6.39283e+00 5.00000e-01 2.32750e+00 6.48402e+00 5.00000e-01 2.36860e+00 6.57516e+00 5.00000e-01 2.40970e+00 6.66626e+00 5.00000e-01 2.45100e+00 6.75730e+00 5.00000e-01 2.49240e+00 6.84831e+00 5.00000e-01 2.53380e+00 6.93928e+00 5.00000e-01 2.57540e+00 7.03021e+00 5.00000e-01 2.61700e+00 7.12111e+00 5.00000e-01 2.65870e+00 7.21197e+00 5.00000e-01 2.70040e+00 7.30281e+00 5.00000e-01 2.74230e+00 7.39363e+00 5.00000e-01 2.78410e+00 7.48442e+00 5.00000e-01 2.82610e+00 7.57519e+00 5.00000e-01 2.86800e+00 7.66594e+00 5.00000e-01 2.91010e+00 7.75668e+00 5.00000e-01 2.95210e+00 7.84740e+00 5.00000e-01 2.99420e+00 7.93811e+00 5.00000e-01 3.03630e+00 8.02882e+00 5.00000e-01 3.07840e+00 8.11951e+00 5.00000e-01 3.12050e+00 8.21020e+00 5.00000e-01 3.16270e+00 8.30088e+00 5.00000e-01 3.20490e+00 8.39155e+00 5.00000e-01 3.24700e+00 8.48223e+00 5.00000e-01 3.28920e+00 8.57290e+00 5.00000e-01 3.33140e+00 8.66358e+00 5.00000e-01 3.37360e+00 8.75425e+00 5.00000e-01 3.41580e+00 8.84493e+00 5.00000e-01 3.45790e+00 8.93560e+00 5.00000e-01 3.50010e+00 9.02629e+00 5.00000e-01 3.54230e+00 9.11697e+00 5.00000e-01 3.58440e+00 9.20766e+00 5.00000e-01 3.62660e+00 9.29835e+00 5.00000e-01 3.66870e+00 9.38905e+00 5.00000e-01 3.71090e+00 0.00000e+00 6.00000e-01 5.00000e-01 9.99546e-02 6.00108e-01 4.98898e-01 1.99858e-01 6.00211e-01 5.01058e-01 2.99700e-01 6.00302e-01 5.05063e-01 3.99468e-01 6.00358e-01 5.10424e-01 4.99166e-01 6.00396e-01 5.16714e-01 5.98792e-01 6.00411e-01 5.24173e-01 6.98341e-01 6.00417e-01 5.32563e-01 7.97799e-01 6.00413e-01 5.42119e-01 8.97158e-01 6.00405e-01 5.52640e-01 9.96401e-01 6.00393e-01 5.64281e-01 1.09552e+00 6.00379e-01 5.76892e-01 1.19451e+00 6.00364e-01 5.90563e-01 1.29336e+00 6.00349e-01 6.05190e-01 1.39206e+00 6.00334e-01 6.20820e-01 1.49062e+00 6.00319e-01 6.37370e-01 1.58901e+00 6.00305e-01 6.54880e-01 1.68724e+00 6.00291e-01 6.73270e-01 1.78530e+00 6.00278e-01 6.92560e-01 1.88319e+00 6.00266e-01 7.12710e-01 1.98091e+00 6.00254e-01 7.33700e-01 2.07845e+00 6.00242e-01 7.55510e-01 2.17582e+00 6.00232e-01 7.78110e-01 2.27300e+00 6.00221e-01 8.01490e-01 2.37000e+00 6.00211e-01 8.25630e-01 2.46681e+00 6.00202e-01 8.50500e-01 2.56344e+00 6.00192e-01 8.76080e-01 2.65989e+00 6.00183e-01 9.02360e-01 2.75616e+00 6.00175e-01 9.29310e-01 2.85224e+00 6.00167e-01 9.56910e-01 2.94814e+00 6.00159e-01 9.85150e-01 3.04386e+00 6.00151e-01 1.01400e+00 3.13939e+00 6.00144e-01 1.04345e+00 3.23475e+00 6.00137e-01 1.07348e+00 3.32993e+00 6.00131e-01 1.10407e+00 3.42494e+00 6.00124e-01 1.13520e+00 3.51978e+00 6.00118e-01 1.16686e+00 3.61445e+00 6.00112e-01 1.19902e+00 3.70894e+00 6.00107e-01 1.23168e+00 3.80328e+00 6.00102e-01 1.26481e+00 3.89746e+00 6.00096e-01 1.29840e+00 3.99147e+00 6.00092e-01 1.33243e+00 4.08534e+00 6.00087e-01 1.36689e+00 4.17905e+00 6.00083e-01 1.40176e+00 4.27262e+00 6.00079e-01 1.43702e+00 4.36604e+00 6.00075e-01 1.47267e+00 4.45932e+00 6.00071e-01 1.50870e+00 4.55246e+00 6.00068e-01 1.54510e+00 4.64548e+00 6.00064e-01 1.58180e+00 4.73836e+00 6.00061e-01 1.61880e+00 4.83112e+00 6.00058e-01 1.65610e+00 4.92376e+00 6.00055e-01 1.69380e+00 5.01628e+00 6.00053e-01 1.73170e+00 5.10869e+00 6.00050e-01 1.76990e+00 5.20099e+00 6.00048e-01 1.80840e+00 5.29319e+00 6.00046e-01 1.84710e+00 5.38529e+00 6.00044e-01 1.88610e+00 5.47729e+00 6.00042e-01 1.92530e+00 5.56920e+00 6.00040e-01 1.96470e+00 5.66102e+00 6.00039e-01 2.00430e+00 5.75275e+00 6.00037e-01 2.04410e+00 5.84440e+00 6.00036e-01 2.08410e+00 5.93598e+00 6.00034e-01 2.12430e+00 6.02748e+00 6.00033e-01 2.16460e+00 6.11892e+00 6.00032e-01 2.20510e+00 6.21029e+00 6.00031e-01 2.24580e+00 6.30159e+00 6.00030e-01 2.28660e+00 6.39284e+00 6.00029e-01 2.32750e+00 6.48403e+00 6.00028e-01 2.36850e+00 6.57517e+00 6.00028e-01 2.40970e+00 6.66627e+00 6.00027e-01 2.45100e+00 6.75731e+00 6.00026e-01 2.49230e+00 6.84832e+00 6.00026e-01 2.53380e+00 6.93929e+00 6.00025e-01 2.57530e+00 7.03022e+00 6.00025e-01 2.61700e+00 7.12111e+00 6.00024e-01 2.65870e+00 7.21198e+00 6.00024e-01 2.70040e+00 7.30282e+00 6.00024e-01 2.74230e+00 7.39363e+00 6.00024e-01 2.78410e+00 7.48442e+00 6.00023e-01 2.82610e+00 7.57519e+00 6.00023e-01 2.86800e+00 7.66595e+00 6.00023e-01 2.91000e+00 7.75668e+00 6.00023e-01 2.95210e+00 7.84741e+00 6.00023e-01 2.99420e+00 7.93812e+00 6.00023e-01 3.03630e+00 8.02882e+00 6.00022e-01 3.07840e+00 8.11951e+00 6.00022e-01 3.12050e+00 8.21020e+00 6.00022e-01 3.16270e+00 8.30088e+00 6.00022e-01 3.20490e+00 8.39156e+00 6.00022e-01 3.24700e+00 8.48223e+00 6.00022e-01 3.28920e+00 8.57290e+00 6.00022e-01 3.33140e+00 8.66358e+00 6.00022e-01 3.37360e+00 8.75425e+00 6.00022e-01 3.41580e+00 8.84493e+00 6.00022e-01 3.45790e+00 8.93560e+00 6.00022e-01 3.50010e+00 9.02628e+00 6.00022e-01 3.54230e+00 9.11697e+00 6.00022e-01 3.58440e+00 9.20766e+00 6.00022e-01 3.62660e+00 9.29835e+00 6.00022e-01 3.66870e+00 9.38905e+00 6.00022e-01 3.71090e+00 0.00000e+00 7.00000e-01 5.00000e-01 9.99702e-02 7.00219e-01 4.98890e-01 1.99850e-01 7.00442e-01 5.00979e-01 2.99712e-01 7.00612e-01 5.04848e-01 3.99470e-01 7.00733e-01 5.10070e-01 4.99188e-01 7.00791e-01 5.16243e-01 5.98822e-01 7.00825e-01 5.23616e-01 6.98390e-01 7.00830e-01 5.31949e-01 7.97862e-01 7.00825e-01 5.41465e-01 8.97235e-01 7.00805e-01 5.51964e-01 9.96489e-01 7.00782e-01 5.63591e-01 1.09562e+00 7.00753e-01 5.76199e-01 1.19462e+00 7.00724e-01 5.89872e-01 1.29348e+00 7.00693e-01 6.04510e-01 1.39219e+00 7.00663e-01 6.20140e-01 1.49074e+00 7.00634e-01 6.36710e-01 1.58914e+00 7.00606e-01 6.54230e-01 1.68737e+00 7.00579e-01 6.72640e-01 1.78544e+00 7.00553e-01 6.91940e-01 1.88333e+00 7.00528e-01 7.12100e-01 1.98105e+00 7.00505e-01 7.33110e-01 2.07859e+00 7.00482e-01 7.54930e-01 2.17596e+00 7.00460e-01 7.77550e-01 2.27314e+00 7.00440e-01 8.00950e-01 2.37014e+00 7.00420e-01 8.25100e-01 2.46696e+00 7.00401e-01 8.49980e-01 2.56359e+00 7.00382e-01 8.75580e-01 2.66004e+00 7.00365e-01 9.01870e-01 2.75630e+00 7.00348e-01 9.28830e-01 2.85238e+00 7.00332e-01 9.56450e-01 2.94828e+00 7.00316e-01 9.84700e-01 3.04399e+00 7.00301e-01 1.01357e+00 3.13953e+00 7.00287e-01 1.04303e+00 3.23489e+00 7.00273e-01 1.07308e+00 3.33007e+00 7.00260e-01 1.10368e+00 3.42507e+00 7.00247e-01 1.13482e+00 3.51991e+00 7.00235e-01 1.16649e+00 3.61457e+00 7.00224e-01 1.19867e+00 3.70907e+00 7.00213e-01 1.23133e+00 3.80340e+00 7.00202e-01 1.26448e+00 3.89758e+00 7.00192e-01 1.29808e+00 3.99159e+00 7.00183e-01 1.33212e+00 4.08545e+00 7.00174e-01 1.36659e+00 4.17916e+00 7.00165e-01 1.40147e+00 4.27272e+00 7.00157e-01 1.43674e+00 4.36614e+00 7.00149e-01 1.47240e+00 4.45942e+00 7.00142e-01 1.50840e+00 4.55256e+00 7.00135e-01 1.54480e+00 4.64557e+00 7.00128e-01 1.58150e+00 4.73845e+00 7.00122e-01 1.61860e+00 4.83121e+00 7.00116e-01 1.65590e+00 4.92385e+00 7.00111e-01 1.69360e+00 5.01637e+00 7.00105e-01 1.73150e+00 5.10877e+00 7.00101e-01 1.76970e+00 5.20107e+00 7.00096e-01 1.80820e+00 5.29327e+00 7.00092e-01 1.84690e+00 5.38536e+00 7.00088e-01 1.88590e+00 5.47736e+00 7.00084e-01 1.92510e+00 5.56926e+00 7.00080e-01 1.96450e+00 5.66108e+00 7.00077e-01 2.00420e+00 5.75281e+00 7.00074e-01 2.04400e+00 5.84446e+00 7.00071e-01 2.08400e+00 5.93604e+00 7.00069e-01 2.12420e+00 6.02754e+00 7.00066e-01 2.16450e+00 6.11897e+00 7.00064e-01 2.20500e+00 6.21033e+00 7.00062e-01 2.24570e+00 6.30164e+00 7.00060e-01 2.28650e+00 6.39288e+00 7.00058e-01 2.32740e+00 6.48407e+00 7.00057e-01 2.36850e+00 6.57521e+00 7.00055e-01 2.40960e+00 6.66630e+00 7.00054e-01 2.45090e+00 6.75735e+00 7.00053e-01 2.49230e+00 6.84835e+00 7.00052e-01 2.53370e+00 6.93931e+00 7.00051e-01 2.57530e+00 7.03024e+00 7.00050e-01 2.61690e+00 7.12114e+00 7.00049e-01 2.65860e+00 7.21200e+00 7.00048e-01 2.70040e+00 7.30284e+00 7.00048e-01 2.74220e+00 7.39365e+00 7.00047e-01 2.78410e+00 7.48444e+00 7.00047e-01 2.82600e+00 7.57521e+00 7.00046e-01 2.86800e+00 7.66596e+00 7.00046e-01 2.91000e+00 7.75669e+00 7.00046e-01 2.95210e+00 7.84742e+00 7.00045e-01 2.99410e+00 7.93813e+00 7.00045e-01 3.03630e+00 8.02883e+00 7.00045e-01 3.07840e+00 8.11952e+00 7.00045e-01 3.12050e+00 8.21020e+00 7.00045e-01 3.16270e+00 8.30088e+00 7.00045e-01 3.20480e+00 8.39156e+00 7.00045e-01 3.24700e+00 8.48223e+00 7.00044e-01 3.28920e+00 8.57291e+00 7.00044e-01 3.33140e+00 8.66358e+00 7.00044e-01 3.37360e+00 8.75425e+00 7.00044e-01 3.41580e+00 8.84493e+00 7.00044e-01 3.45790e+00 8.93560e+00 7.00044e-01 3.50010e+00 9.02628e+00 7.00044e-01 3.54230e+00 9.11697e+00 7.00044e-01 3.58440e+00 9.20766e+00 7.00044e-01 3.62660e+00 9.29835e+00 7.00044e-01 3.66870e+00 9.38904e+00 7.00044e-01 3.71090e+00 0.00000e+00 8.00000e-01 5.00000e-01 9.99528e-02 8.00354e-01 4.98882e-01 1.99866e-01 8.00690e-01 5.00802e-01 2.99695e-01 8.00966e-01 5.04413e-01 3.99477e-01 8.01100e-01 5.09369e-01 4.99213e-01 8.01193e-01 5.15366e-01 5.98880e-01 8.01225e-01 5.22609e-01 6.98475e-01 8.01236e-01 5.30866e-01 7.97974e-01 8.01221e-01 5.40329e-01 8.97370e-01 8.01194e-01 5.50802e-01 9.96644e-01 8.01157e-01 5.62416e-01 1.09579e+00 8.01116e-01 5.75026e-01 1.19481e+00 8.01071e-01 5.88705e-01 1.29367e+00 8.01026e-01 6.03350e-01 1.39239e+00 8.00982e-01 6.19010e-01 1.49096e+00 8.00938e-01 6.35600e-01 1.58936e+00 8.00896e-01 6.53140e-01 1.68760e+00 8.00856e-01 6.71570e-01 1.78567e+00 8.00818e-01 6.90900e-01 1.88357e+00 8.00782e-01 7.11090e-01 1.98129e+00 8.00747e-01 7.32120e-01 2.07883e+00 8.00714e-01 7.53970e-01 2.17620e+00 8.00682e-01 7.76610e-01 2.27338e+00 8.00651e-01 8.00030e-01 2.37038e+00 8.00622e-01 8.24210e-01 2.46720e+00 8.00593e-01 8.49120e-01 2.56383e+00 8.00566e-01 8.74740e-01 2.66027e+00 8.00540e-01 9.01050e-01 2.75654e+00 8.00515e-01 9.28040e-01 2.85262e+00 8.00491e-01 9.55680e-01 2.94851e+00 8.00468e-01 9.83960e-01 3.04423e+00 8.00446e-01 1.01285e+00 3.13976e+00 8.00425e-01 1.04233e+00 3.23511e+00 8.00405e-01 1.07240e+00 3.33029e+00 8.00385e-01 1.10302e+00 3.42530e+00 8.00367e-01 1.13418e+00 3.52013e+00 8.00349e-01 1.16587e+00 3.61479e+00 8.00332e-01 1.19807e+00 3.70928e+00 8.00316e-01 1.23076e+00 3.80361e+00 8.00300e-01 1.26392e+00 3.89778e+00 8.00285e-01 1.29754e+00 3.99179e+00 8.00271e-01 1.33160e+00 4.08564e+00 8.00258e-01 1.36609e+00 4.17935e+00 8.00245e-01 1.40098e+00 4.27291e+00 8.00233e-01 1.43628e+00 4.36632e+00 8.00222e-01 1.47195e+00 4.45959e+00 8.00211e-01 1.50800e+00 4.55273e+00 8.00200e-01 1.54440e+00 4.64574e+00 8.00191e-01 1.58110e+00 4.73861e+00 8.00182e-01 1.61820e+00 4.83136e+00 8.00173e-01 1.65560e+00 4.92400e+00 8.00165e-01 1.69320e+00 5.01651e+00 8.00157e-01 1.73120e+00 5.10891e+00 8.00150e-01 1.76940e+00 5.20121e+00 8.00143e-01 1.80790e+00 5.29339e+00 8.00137e-01 1.84670e+00 5.38548e+00 8.00131e-01 1.88560e+00 5.47748e+00 8.00125e-01 1.92490e+00 5.56938e+00 8.00120e-01 1.96430e+00 5.66119e+00 8.00115e-01 2.00390e+00 5.75291e+00 8.00111e-01 2.04370e+00 5.84456e+00 8.00107e-01 2.08380e+00 5.93613e+00 8.00103e-01 2.12400e+00 6.02763e+00 8.00099e-01 2.16430e+00 6.11905e+00 8.00096e-01 2.20480e+00 6.21041e+00 8.00093e-01 2.24550e+00 6.30171e+00 8.00090e-01 2.28630e+00 6.39295e+00 8.00087e-01 2.32730e+00 6.48414e+00 8.00085e-01 2.36830e+00 6.57527e+00 8.00083e-01 2.40950e+00 6.66636e+00 8.00081e-01 2.45080e+00 6.75740e+00 8.00079e-01 2.49210e+00 6.84840e+00 8.00078e-01 2.53360e+00 6.93936e+00 8.00076e-01 2.57520e+00 7.03028e+00 8.00075e-01 2.61680e+00 7.12118e+00 8.00074e-01 2.65850e+00 7.21204e+00 8.00073e-01 2.70030e+00 7.30287e+00 8.00072e-01 2.74210e+00 7.39368e+00 8.00071e-01 2.78400e+00 7.48447e+00 8.00070e-01 2.82600e+00 7.57523e+00 8.00070e-01 2.86800e+00 7.66598e+00 8.00069e-01 2.91000e+00 7.75671e+00 8.00069e-01 2.95200e+00 7.84743e+00 8.00068e-01 2.99410e+00 7.93814e+00 8.00068e-01 3.03620e+00 8.02884e+00 8.00068e-01 3.07840e+00 8.11953e+00 8.00067e-01 3.12050e+00 8.21021e+00 8.00067e-01 3.16270e+00 8.30089e+00 8.00067e-01 3.20480e+00 8.39156e+00 8.00067e-01 3.24700e+00 8.48224e+00 8.00067e-01 3.28920e+00 8.57291e+00 8.00067e-01 3.33140e+00 8.66358e+00 8.00067e-01 3.37360e+00 8.75425e+00 8.00067e-01 3.41580e+00 8.84493e+00 8.00067e-01 3.45790e+00 8.93560e+00 8.00067e-01 3.50010e+00 9.02628e+00 8.00067e-01 3.54230e+00 9.11696e+00 8.00066e-01 3.58450e+00 9.20765e+00 8.00066e-01 3.62660e+00 9.29834e+00 8.00066e-01 3.66880e+00 9.38904e+00 8.00066e-01 3.71090e+00 0.00000e+00 9.00000e-01 5.00000e-01 9.99801e-02 9.00526e-01 4.98810e-01 1.99800e-01 9.01046e-01 5.00321e-01 2.99642e-01 9.01288e-01 5.03479e-01 3.99468e-01 9.01473e-01 5.08107e-01 4.99250e-01 9.01553e-01 5.13917e-01 5.98970e-01 9.01601e-01 5.21026e-01 6.98608e-01 9.01603e-01 5.29220e-01 7.98146e-01 9.01587e-01 5.38635e-01 8.97574e-01 9.01549e-01 5.49100e-01 9.96876e-01 9.01503e-01 5.60710e-01 1.09605e+00 9.01447e-01 5.73337e-01 1.19508e+00 9.01391e-01 5.87037e-01 1.29396e+00 9.01332e-01 6.01720e-01 1.39269e+00 9.01274e-01 6.17400e-01 1.49127e+00 9.01218e-01 6.34030e-01 1.58968e+00 9.01164e-01 6.51600e-01 1.68792e+00 9.01112e-01 6.70070e-01 1.78600e+00 9.01062e-01 6.89440e-01 1.88390e+00 9.01015e-01 7.09660e-01 1.98162e+00 9.00970e-01 7.30730e-01 2.07917e+00 9.00927e-01 7.52610e-01 2.17654e+00 9.00886e-01 7.75290e-01 2.27372e+00 9.00846e-01 7.98750e-01 2.37072e+00 9.00808e-01 8.22960e-01 2.46754e+00 9.00771e-01 8.47900e-01 2.56417e+00 9.00736e-01 8.73560e-01 2.66061e+00 9.00703e-01 8.99910e-01 2.75687e+00 9.00670e-01 9.26930e-01 2.85295e+00 9.00639e-01 9.54600e-01 2.94884e+00 9.00609e-01 9.82910e-01 3.04455e+00 9.00581e-01 1.01183e+00 3.14009e+00 9.00553e-01 1.04135e+00 3.23544e+00 9.00527e-01 1.07144e+00 3.33061e+00 9.00502e-01 1.10209e+00 3.42561e+00 9.00478e-01 1.13329e+00 3.52043e+00 9.00455e-01 1.16501e+00 3.61509e+00 9.00433e-01 1.19723e+00 3.70958e+00 9.00412e-01 1.22995e+00 3.80390e+00 9.00392e-01 1.26314e+00 3.89806e+00 9.00372e-01 1.29678e+00 3.99207e+00 9.00354e-01 1.33087e+00 4.08592e+00 9.00337e-01 1.36538e+00 4.17962e+00 9.00320e-01 1.40031e+00 4.27317e+00 9.00305e-01 1.43563e+00 4.36657e+00 9.00290e-01 1.47132e+00 4.45984e+00 9.00276e-01 1.50740e+00 4.55297e+00 9.00263e-01 1.54380e+00 4.64597e+00 9.00250e-01 1.58060e+00 4.73884e+00 9.00238e-01 1.61760e+00 4.83158e+00 9.00227e-01 1.65500e+00 4.92420e+00 9.00216e-01 1.69270e+00 5.01671e+00 9.00207e-01 1.73070e+00 5.10911e+00 9.00197e-01 1.76900e+00 5.20139e+00 9.00188e-01 1.80750e+00 5.29357e+00 9.00180e-01 1.84620e+00 5.38566e+00 9.00172e-01 1.88520e+00 5.47764e+00 9.00165e-01 1.92450e+00 5.56953e+00 9.00158e-01 1.96390e+00 5.66134e+00 9.00152e-01 2.00360e+00 5.75306e+00 9.00146e-01 2.04340e+00 5.84470e+00 9.00141e-01 2.08350e+00 5.93626e+00 9.00136e-01 2.12370e+00 6.02775e+00 9.00131e-01 2.16400e+00 6.11917e+00 9.00127e-01 2.20460e+00 6.21052e+00 9.00123e-01 2.24530e+00 6.30182e+00 9.00119e-01 2.28610e+00 6.39305e+00 9.00116e-01 2.32700e+00 6.48423e+00 9.00113e-01 2.36810e+00 6.57536e+00 9.00110e-01 2.40930e+00 6.66644e+00 9.00108e-01 2.45060e+00 6.75748e+00 9.00105e-01 2.49200e+00 6.84847e+00 9.00103e-01 2.53350e+00 6.93943e+00 9.00101e-01 2.57500e+00 7.03034e+00 9.00100e-01 2.61670e+00 7.12123e+00 9.00098e-01 2.65840e+00 7.21209e+00 9.00097e-01 2.70020e+00 7.30292e+00 9.00096e-01 2.74200e+00 7.39372e+00 9.00095e-01 2.78390e+00 7.48450e+00 9.00094e-01 2.82590e+00 7.57527e+00 9.00093e-01 2.86790e+00 7.66601e+00 9.00092e-01 2.90990e+00 7.75674e+00 9.00092e-01 2.95200e+00 7.84746e+00 9.00091e-01 2.99410e+00 7.93816e+00 9.00091e-01 3.03620e+00 8.02885e+00 9.00090e-01 3.07830e+00 8.11954e+00 9.00090e-01 3.12050e+00 8.21022e+00 9.00090e-01 3.16260e+00 8.30090e+00 9.00089e-01 3.20480e+00 8.39157e+00 9.00089e-01 3.24700e+00 8.48224e+00 9.00089e-01 3.28920e+00 8.57291e+00 9.00089e-01 3.33140e+00 8.66358e+00 9.00089e-01 3.37360e+00 8.75425e+00 9.00089e-01 3.41580e+00 8.84492e+00 9.00089e-01 3.45790e+00 8.93560e+00 9.00089e-01 3.50010e+00 9.02628e+00 9.00089e-01 3.54230e+00 9.11696e+00 9.00089e-01 3.58450e+00 9.20765e+00 9.00089e-01 3.62660e+00 9.29834e+00 9.00089e-01 3.66880e+00 9.38904e+00 9.00089e-01 3.71090e+00 0.00000e+00 1.00000e+00 5.00000e-01 9.97334e-02 1.00096e+00 4.97742e-01 1.99565e-01 1.00125e+00 4.98727e-01 2.99552e-01 1.00159e+00 5.01503e-01 3.99448e-01 1.00173e+00 5.05963e-01 4.99330e-01 1.00185e+00 5.11664e-01 5.99111e-01 1.00189e+00 5.18711e-01 6.98815e-01 1.00190e+00 5.26885e-01 7.98398e-01 1.00188e+00 5.36296e-01 8.97868e-01 1.00184e+00 5.46784e-01 9.97201e-01 1.00178e+00 5.58422e-01 1.09640e+00 1.00172e+00 5.71091e-01 1.19545e+00 1.00165e+00 5.84833e-01 1.29435e+00 1.00158e+00 5.99561e-01 1.39309e+00 1.00151e+00 6.15300e-01 1.49168e+00 1.00145e+00 6.31970e-01 1.59010e+00 1.00138e+00 6.49590e-01 1.68835e+00 1.00132e+00 6.68110e-01 1.78643e+00 1.00126e+00 6.87530e-01 1.88434e+00 1.00121e+00 7.07800e-01 1.98207e+00 1.00115e+00 7.28920e-01 2.07962e+00 1.00110e+00 7.50850e-01 2.17699e+00 1.00105e+00 7.73580e-01 2.27417e+00 1.00101e+00 7.97080e-01 2.37117e+00 1.00096e+00 8.21340e-01 2.46799e+00 1.00092e+00 8.46330e-01 2.56462e+00 1.00088e+00 8.72030e-01 2.66106e+00 1.00084e+00 8.98420e-01 2.75732e+00 1.00080e+00 9.25480e-01 2.85339e+00 1.00076e+00 9.53200e-01 2.94928e+00 1.00073e+00 9.81550e-01 3.04499e+00 1.00069e+00 1.01051e+00 3.14051e+00 1.00066e+00 1.04007e+00 3.23586e+00 1.00063e+00 1.07020e+00 3.33102e+00 1.00060e+00 1.10089e+00 3.42602e+00 1.00057e+00 1.13213e+00 3.52084e+00 1.00054e+00 1.16388e+00 3.61548e+00 1.00052e+00 1.19615e+00 3.70996e+00 1.00049e+00 1.22890e+00 3.80428e+00 1.00047e+00 1.26212e+00 3.89844e+00 1.00045e+00 1.29580e+00 3.99243e+00 1.00043e+00 1.32993e+00 4.08627e+00 1.00041e+00 1.36447e+00 4.17996e+00 1.00039e+00 1.39943e+00 4.27350e+00 1.00037e+00 1.43478e+00 4.36690e+00 1.00035e+00 1.47051e+00 4.46016e+00 1.00033e+00 1.50660e+00 4.55328e+00 1.00032e+00 1.54310e+00 4.64627e+00 1.00030e+00 1.57980e+00 4.73913e+00 1.00029e+00 1.61700e+00 4.83186e+00 1.00028e+00 1.65440e+00 4.92448e+00 1.00026e+00 1.69210e+00 5.01697e+00 1.00025e+00 1.73010e+00 5.10936e+00 1.00024e+00 1.76840e+00 5.20164e+00 1.00023e+00 1.80690e+00 5.29381e+00 1.00022e+00 1.84570e+00 5.38588e+00 1.00021e+00 1.88470e+00 5.47786e+00 1.00020e+00 1.92400e+00 5.56974e+00 1.00019e+00 1.96350e+00 5.66153e+00 1.00019e+00 2.00310e+00 5.75324e+00 1.00018e+00 2.04300e+00 5.84487e+00 1.00017e+00 2.08310e+00 5.93643e+00 1.00017e+00 2.12330e+00 6.02791e+00 1.00016e+00 2.16370e+00 6.11932e+00 1.00016e+00 2.20430e+00 6.21067e+00 1.00015e+00 2.24500e+00 6.30195e+00 1.00015e+00 2.28580e+00 6.39318e+00 1.00014e+00 2.32680e+00 6.48435e+00 1.00014e+00 2.36790e+00 6.57547e+00 1.00014e+00 2.40910e+00 6.66655e+00 1.00013e+00 2.45040e+00 6.75757e+00 1.00013e+00 2.49180e+00 6.84856e+00 1.00013e+00 2.53330e+00 6.93951e+00 1.00013e+00 2.57490e+00 7.03042e+00 1.00012e+00 2.61650e+00 7.12130e+00 1.00012e+00 2.65830e+00 7.21215e+00 1.00012e+00 2.70010e+00 7.30298e+00 1.00012e+00 2.74190e+00 7.39377e+00 1.00012e+00 2.78380e+00 7.48455e+00 1.00012e+00 2.82580e+00 7.57531e+00 1.00012e+00 2.86780e+00 7.66605e+00 1.00012e+00 2.90980e+00 7.75677e+00 1.00011e+00 2.95190e+00 7.84748e+00 1.00011e+00 2.99400e+00 7.93818e+00 1.00011e+00 3.03610e+00 8.02887e+00 1.00011e+00 3.07830e+00 8.11956e+00 1.00011e+00 3.12040e+00 8.21023e+00 1.00011e+00 3.16260e+00 8.30091e+00 1.00011e+00 3.20480e+00 8.39158e+00 1.00011e+00 3.24700e+00 8.48224e+00 1.00011e+00 3.28920e+00 8.57291e+00 1.00011e+00 3.33140e+00 8.66358e+00 1.00011e+00 3.37360e+00 8.75425e+00 1.00011e+00 3.41580e+00 8.84492e+00 1.00011e+00 3.45800e+00 8.93559e+00 1.00011e+00 3.50010e+00 9.02627e+00 1.00011e+00 3.54230e+00 9.11695e+00 1.00011e+00 3.58450e+00 9.20764e+00 1.00011e+00 3.62660e+00 9.29833e+00 1.00011e+00 3.66880e+00 9.38903e+00 1.00011e+00 3.71090e+00 0.00000e+00 0.00000e+00 6.00000e-01 9.87686e-02 -3.31730e-03 5.97778e-01 1.97522e-01 -3.68630e-03 5.98770e-01 2.96511e-01 -4.25210e-03 6.01575e-01 3.95222e-01 -4.37510e-03 6.05881e-01 4.93984e-01 -4.54490e-03 6.11564e-01 5.92626e-01 -4.58070e-03 6.18441e-01 6.91235e-01 -4.59160e-03 6.26596e-01 7.89726e-01 -4.53580e-03 6.35858e-01 8.88129e-01 -4.45980e-03 6.46307e-01 9.86403e-01 -4.35330e-03 6.57804e-01 1.08457e+00 -4.24090e-03 6.70402e-01 1.18259e+00 -4.11750e-03 6.84000e-01 1.28050e+00 -3.99610e-03 6.98627e-01 1.37826e+00 -3.87250e-03 7.14210e-01 1.47589e+00 -3.75360e-03 7.30760e-01 1.57337e+00 -3.63600e-03 7.48220e-01 1.67071e+00 -3.52320e-03 7.66600e-01 1.76790e+00 -3.41270e-03 7.85850e-01 1.86494e+00 -3.30640e-03 8.05960e-01 1.96182e+00 -3.20260e-03 8.26900e-01 2.05855e+00 -3.10220e-03 8.48660e-01 2.15512e+00 -3.00410e-03 8.71220e-01 2.25152e+00 -2.90890e-03 8.94540e-01 2.34776e+00 -2.81580e-03 9.18620e-01 2.44383e+00 -2.72530e-03 9.43430e-01 2.53974e+00 -2.63690e-03 9.68950e-01 2.63549e+00 -2.55070e-03 9.95160e-01 2.73107e+00 -2.46650e-03 1.02204e+00 2.82648e+00 -2.38440e-03 1.04958e+00 2.92173e+00 -2.30430e-03 1.07774e+00 3.01681e+00 -2.22620e-03 1.10653e+00 3.11174e+00 -2.15000e-03 1.13590e+00 3.20649e+00 -2.07570e-03 1.16586e+00 3.30110e+00 -2.00320e-03 1.19638e+00 3.39554e+00 -1.93260e-03 1.22743e+00 3.48982e+00 -1.86380e-03 1.25902e+00 3.58396e+00 -1.79680e-03 1.29111e+00 3.67794e+00 -1.73160e-03 1.32369e+00 3.77177e+00 -1.66810e-03 1.35675e+00 3.86546e+00 -1.60630e-03 1.39027e+00 3.95901e+00 -1.54610e-03 1.42424e+00 4.05242e+00 -1.48770e-03 1.45863e+00 4.14569e+00 -1.43080e-03 1.49343e+00 4.23882e+00 -1.37550e-03 1.52863e+00 4.33183e+00 -1.32180e-03 1.56421e+00 4.42472e+00 -1.26960e-03 1.60020e+00 4.51748e+00 -1.21890e-03 1.63650e+00 4.61012e+00 -1.16960e-03 1.67310e+00 4.70264e+00 -1.12190e-03 1.71010e+00 4.79506e+00 -1.07550e-03 1.74740e+00 4.88736e+00 -1.03050e-03 1.78500e+00 4.97956e+00 -9.86900e-04 1.82290e+00 5.07167e+00 -9.44620e-04 1.86100e+00 5.16367e+00 -9.03650e-04 1.89950e+00 5.25558e+00 -8.63970e-04 1.93820e+00 5.34741e+00 -8.25550e-04 1.97710e+00 5.43915e+00 -7.88360e-04 2.01620e+00 5.53080e+00 -7.52380e-04 2.05560e+00 5.62238e+00 -7.17580e-04 2.09520e+00 5.71389e+00 -6.83950e-04 2.13500e+00 5.80532e+00 -6.51460e-04 2.17490e+00 5.89669e+00 -6.20080e-04 2.21510e+00 5.98800e+00 -5.89790e-04 2.25540e+00 6.07924e+00 -5.60580e-04 2.29590e+00 6.17043e+00 -5.32420e-04 2.33650e+00 6.26157e+00 -5.05290e-04 2.37730e+00 6.35265e+00 -4.79170e-04 2.41820e+00 6.44369e+00 -4.54040e-04 2.45920e+00 6.53469e+00 -4.29890e-04 2.50040e+00 6.62564e+00 -4.06690e-04 2.54160e+00 6.71656e+00 -3.84420e-04 2.58300e+00 6.80745e+00 -3.63070e-04 2.62440e+00 6.89830e+00 -3.42620e-04 2.66600e+00 6.98912e+00 -3.23060e-04 2.70760e+00 7.07992e+00 -3.04370e-04 2.74930e+00 7.17069e+00 -2.86530e-04 2.79110e+00 7.26145e+00 -2.69540e-04 2.83290e+00 7.35218e+00 -2.53370e-04 2.87480e+00 7.44290e+00 -2.38010e-04 2.91670e+00 7.53360e+00 -2.23450e-04 2.95870e+00 7.62429e+00 -2.09680e-04 3.00070e+00 7.71497e+00 -1.96690e-04 3.04270e+00 7.80564e+00 -1.84470e-04 3.08480e+00 7.89630e+00 -1.73000e-04 3.12690e+00 7.98696e+00 -1.62290e-04 3.16910e+00 8.07761e+00 -1.52310e-04 3.21120e+00 8.16826e+00 -1.43070e-04 3.25340e+00 8.25891e+00 -1.34560e-04 3.29550e+00 8.34956e+00 -1.26770e-04 3.33770e+00 8.44021e+00 -1.19710e-04 3.37990e+00 8.53086e+00 -1.13360e-04 3.42210e+00 8.62152e+00 -1.07730e-04 3.46430e+00 8.71218e+00 -1.02790e-04 3.50650e+00 8.80284e+00 -9.85190e-05 3.54860e+00 8.89351e+00 -9.48290e-05 3.59080e+00 8.98418e+00 -9.15940e-05 3.63300e+00 9.07485e+00 -8.84620e-05 3.67520e+00 9.16554e+00 -8.50700e-05 3.71730e+00 9.25623e+00 -8.04100e-05 3.75950e+00 9.34692e+00 -7.55760e-05 3.80160e+00 0.00000e+00 1.00000e-01 6.00000e-01 9.95316e-02 9.81463e-02 5.98855e-01 1.98140e-01 9.68923e-02 6.00343e-01 2.96715e-01 9.66261e-02 6.03543e-01 3.95362e-01 9.63443e-02 6.07994e-01 4.93942e-01 9.62734e-02 6.13816e-01 5.92519e-01 9.62046e-02 6.20728e-01 6.91027e-01 9.62220e-02 6.28916e-01 7.89462e-01 9.62602e-02 6.38161e-01 8.87808e-01 9.63352e-02 6.48592e-01 9.86046e-01 9.64224e-02 6.60049e-01 1.08418e+00 9.65217e-02 6.72608e-01 1.18218e+00 9.66241e-02 6.86158e-01 1.28007e+00 9.67279e-02 7.00740e-01 1.37782e+00 9.68303e-02 7.16270e-01 1.47544e+00 9.69303e-02 7.32770e-01 1.57291e+00 9.70274e-02 7.50180e-01 1.67024e+00 9.71215e-02 7.68510e-01 1.76743e+00 9.72125e-02 7.87710e-01 1.86446e+00 9.73006e-02 8.07780e-01 1.96134e+00 9.73861e-02 8.28670e-01 2.05807e+00 9.74691e-02 8.50390e-01 2.15463e+00 9.75498e-02 8.72890e-01 2.25103e+00 9.76283e-02 8.96180e-01 2.34727e+00 9.77048e-02 9.20210e-01 2.44335e+00 9.77793e-02 9.44970e-01 2.53926e+00 9.78520e-02 9.70450e-01 2.63501e+00 9.79229e-02 9.96620e-01 2.73059e+00 9.79921e-02 1.02346e+00 2.82601e+00 9.80596e-02 1.05095e+00 2.92126e+00 9.81254e-02 1.07908e+00 3.01635e+00 9.81895e-02 1.10782e+00 3.11128e+00 9.82521e-02 1.13716e+00 3.20604e+00 9.83131e-02 1.16707e+00 3.30065e+00 9.83725e-02 1.19755e+00 3.39510e+00 9.84304e-02 1.22857e+00 3.48939e+00 9.84868e-02 1.26012e+00 3.58353e+00 9.85417e-02 1.29217e+00 3.67752e+00 9.85951e-02 1.32472e+00 3.77137e+00 9.86471e-02 1.35775e+00 3.86506e+00 9.86976e-02 1.39123e+00 3.95862e+00 9.87468e-02 1.42516e+00 4.05203e+00 9.87946e-02 1.45952e+00 4.14531e+00 9.88411e-02 1.49429e+00 4.23846e+00 9.88863e-02 1.52946e+00 4.33148e+00 9.89301e-02 1.56501e+00 4.42437e+00 9.89727e-02 1.60090e+00 4.51714e+00 9.90141e-02 1.63720e+00 4.60979e+00 9.90542e-02 1.67380e+00 4.70233e+00 9.90932e-02 1.71080e+00 4.79475e+00 9.91310e-02 1.74810e+00 4.88707e+00 9.91676e-02 1.78560e+00 4.97928e+00 9.92031e-02 1.82350e+00 5.07139e+00 9.92375e-02 1.86160e+00 5.16341e+00 9.92708e-02 1.90000e+00 5.25533e+00 9.93030e-02 1.93870e+00 5.34716e+00 9.93342e-02 1.97760e+00 5.43891e+00 9.93645e-02 2.01670e+00 5.53058e+00 9.93937e-02 2.05610e+00 5.62217e+00 9.94219e-02 2.09560e+00 5.71368e+00 9.94492e-02 2.13540e+00 5.80513e+00 9.94755e-02 2.17530e+00 5.89651e+00 9.95009e-02 2.21550e+00 5.98782e+00 9.95255e-02 2.25580e+00 6.07907e+00 9.95491e-02 2.29620e+00 6.17027e+00 9.95719e-02 2.33680e+00 6.26142e+00 9.95938e-02 2.37760e+00 6.35251e+00 9.96150e-02 2.41850e+00 6.44356e+00 9.96353e-02 2.45950e+00 6.53456e+00 9.96548e-02 2.50060e+00 6.62553e+00 9.96735e-02 2.54180e+00 6.71645e+00 9.96915e-02 2.58320e+00 6.80734e+00 9.97087e-02 2.62460e+00 6.89820e+00 9.97252e-02 2.66610e+00 6.98903e+00 9.97410e-02 2.70780e+00 7.07984e+00 9.97560e-02 2.74940e+00 7.17062e+00 9.97704e-02 2.79120e+00 7.26138e+00 9.97841e-02 2.83300e+00 7.35212e+00 9.97971e-02 2.87490e+00 7.44284e+00 9.98095e-02 2.91680e+00 7.53355e+00 9.98212e-02 2.95880e+00 7.62424e+00 9.98323e-02 3.00080e+00 7.71493e+00 9.98427e-02 3.04280e+00 7.80560e+00 9.98526e-02 3.08490e+00 7.89627e+00 9.98618e-02 3.12700e+00 7.98693e+00 9.98704e-02 3.16910e+00 8.07759e+00 9.98784e-02 3.21120e+00 8.16824e+00 9.98858e-02 3.25340e+00 8.25890e+00 9.98926e-02 3.29550e+00 8.34955e+00 9.98989e-02 3.33770e+00 8.44020e+00 9.99045e-02 3.37990e+00 8.53086e+00 9.99096e-02 3.42210e+00 8.62151e+00 9.99141e-02 3.46430e+00 8.71218e+00 9.99181e-02 3.50650e+00 8.80284e+00 9.99215e-02 3.54860e+00 8.89351e+00 9.99244e-02 3.59080e+00 8.98418e+00 9.99270e-02 3.63300e+00 9.07486e+00 9.99295e-02 3.67510e+00 9.16554e+00 9.99322e-02 3.71730e+00 9.25623e+00 9.99354e-02 3.75940e+00 9.34693e+00 9.99387e-02 3.80160e+00 0.00000e+00 2.00000e-01 6.00000e-01 9.95098e-02 1.98827e-01 5.99020e-01 1.98489e-01 1.97995e-01 6.00894e-01 2.96975e-01 1.97473e-01 6.04548e-01 3.95503e-01 1.97303e-01 6.09289e-01 4.93994e-01 1.97155e-01 6.15307e-01 5.92475e-01 1.97130e-01 6.22322e-01 6.90923e-01 1.97116e-01 6.30584e-01 7.89295e-01 1.97158e-01 6.39856e-01 8.87600e-01 1.97208e-01 6.50302e-01 9.85799e-01 1.97280e-01 6.61750e-01 1.08390e+00 1.97355e-01 6.74295e-01 1.18188e+00 1.97436e-01 6.87818e-01 1.27975e+00 1.97515e-01 7.02370e-01 1.37749e+00 1.97594e-01 7.17870e-01 1.47510e+00 1.97671e-01 7.34330e-01 1.57256e+00 1.97746e-01 7.51710e-01 1.66989e+00 1.97817e-01 7.70000e-01 1.76707e+00 1.97887e-01 7.89170e-01 1.86410e+00 1.97954e-01 8.09190e-01 1.96098e+00 1.98020e-01 8.30050e-01 2.05770e+00 1.98083e-01 8.51730e-01 2.15426e+00 1.98145e-01 8.74200e-01 2.25066e+00 1.98204e-01 8.97450e-01 2.34690e+00 1.98263e-01 9.21450e-01 2.44298e+00 1.98319e-01 9.46180e-01 2.53889e+00 1.98375e-01 9.71620e-01 2.63464e+00 1.98429e-01 9.97750e-01 2.73023e+00 1.98481e-01 1.02456e+00 2.82564e+00 1.98533e-01 1.05202e+00 2.92090e+00 1.98583e-01 1.08011e+00 3.01599e+00 1.98631e-01 1.10882e+00 3.11092e+00 1.98679e-01 1.13813e+00 3.20569e+00 1.98725e-01 1.16802e+00 3.30031e+00 1.98770e-01 1.19846e+00 3.39476e+00 1.98814e-01 1.22946e+00 3.48906e+00 1.98857e-01 1.26097e+00 3.58321e+00 1.98899e-01 1.29300e+00 3.67720e+00 1.98939e-01 1.32552e+00 3.77105e+00 1.98979e-01 1.35852e+00 3.86476e+00 1.99017e-01 1.39198e+00 3.95832e+00 1.99055e-01 1.42588e+00 4.05174e+00 1.99091e-01 1.46021e+00 4.14503e+00 1.99126e-01 1.49495e+00 4.23818e+00 1.99160e-01 1.53010e+00 4.33121e+00 1.99193e-01 1.56563e+00 4.42411e+00 1.99226e-01 1.60150e+00 4.51688e+00 1.99257e-01 1.63780e+00 4.60954e+00 1.99287e-01 1.67440e+00 4.70208e+00 1.99317e-01 1.71130e+00 4.79452e+00 1.99345e-01 1.74860e+00 4.88684e+00 1.99373e-01 1.78610e+00 4.97906e+00 1.99400e-01 1.82390e+00 5.07118e+00 1.99426e-01 1.86210e+00 5.16320e+00 1.99451e-01 1.90040e+00 5.25513e+00 1.99476e-01 1.93910e+00 5.34698e+00 1.99499e-01 1.97800e+00 5.43873e+00 1.99522e-01 2.01710e+00 5.53041e+00 1.99544e-01 2.05640e+00 5.62200e+00 1.99565e-01 2.09590e+00 5.71352e+00 1.99586e-01 2.13570e+00 5.80498e+00 1.99606e-01 2.17560e+00 5.89636e+00 1.99625e-01 2.21570e+00 5.98768e+00 1.99643e-01 2.25600e+00 6.07894e+00 1.99661e-01 2.29650e+00 6.17015e+00 1.99678e-01 2.33710e+00 6.26130e+00 1.99695e-01 2.37780e+00 6.35240e+00 1.99711e-01 2.41870e+00 6.44345e+00 1.99726e-01 2.45970e+00 6.53446e+00 1.99741e-01 2.50080e+00 6.62543e+00 1.99755e-01 2.54200e+00 6.71637e+00 1.99768e-01 2.58330e+00 6.80726e+00 1.99781e-01 2.62480e+00 6.89813e+00 1.99794e-01 2.66630e+00 6.98896e+00 1.99806e-01 2.70790e+00 7.07977e+00 1.99817e-01 2.74960e+00 7.17056e+00 1.99828e-01 2.79130e+00 7.26132e+00 1.99838e-01 2.83310e+00 7.35207e+00 1.99848e-01 2.87500e+00 7.44279e+00 1.99857e-01 2.91690e+00 7.53351e+00 1.99866e-01 2.95880e+00 7.62421e+00 1.99874e-01 3.00080e+00 7.71489e+00 1.99882e-01 3.04280e+00 7.80557e+00 1.99889e-01 3.08490e+00 7.89624e+00 1.99896e-01 3.12700e+00 7.98691e+00 1.99903e-01 3.16910e+00 8.07757e+00 1.99909e-01 3.21130e+00 8.16823e+00 1.99914e-01 3.25340e+00 8.25888e+00 1.99919e-01 3.29560e+00 8.34954e+00 1.99924e-01 3.33770e+00 8.44019e+00 1.99928e-01 3.37990e+00 8.53085e+00 1.99932e-01 3.42210e+00 8.62151e+00 1.99936e-01 3.46430e+00 8.71217e+00 1.99938e-01 3.50650e+00 8.80284e+00 1.99941e-01 3.54860e+00 8.89351e+00 1.99943e-01 3.59080e+00 8.98418e+00 1.99945e-01 3.63300e+00 9.07486e+00 1.99947e-01 3.67510e+00 9.16555e+00 1.99949e-01 3.71730e+00 9.25624e+00 1.99951e-01 3.75940e+00 9.34693e+00 1.99953e-01 3.80160e+00 0.00000e+00 3.00000e-01 6.00000e-01 9.96100e-02 2.99322e-01 5.99088e-01 1.98538e-01 2.98757e-01 6.01149e-01 2.97138e-01 2.98426e-01 6.05062e-01 3.95593e-01 2.98202e-01 6.10042e-01 4.94046e-01 2.98128e-01 6.16233e-01 5.92465e-01 2.98069e-01 6.23358e-01 6.90870e-01 2.98074e-01 6.31698e-01 7.89199e-01 2.98087e-01 6.41011e-01 8.87471e-01 2.98128e-01 6.51483e-01 9.85640e-01 2.98171e-01 6.62936e-01 1.08372e+00 2.98224e-01 6.75480e-01 1.18169e+00 2.98278e-01 6.88991e-01 1.27954e+00 2.98332e-01 7.03530e-01 1.37726e+00 2.98385e-01 7.19000e-01 1.47486e+00 2.98438e-01 7.35450e-01 1.57232e+00 2.98488e-01 7.52800e-01 1.66965e+00 2.98537e-01 7.71070e-01 1.76682e+00 2.98584e-01 7.90200e-01 1.86385e+00 2.98629e-01 8.10210e-01 1.96072e+00 2.98673e-01 8.31040e-01 2.05744e+00 2.98715e-01 8.52700e-01 2.15400e+00 2.98757e-01 8.75140e-01 2.25040e+00 2.98797e-01 8.98360e-01 2.34664e+00 2.98836e-01 9.22330e-01 2.44272e+00 2.98874e-01 9.47040e-01 2.53863e+00 2.98911e-01 9.72450e-01 2.63438e+00 2.98948e-01 9.98560e-01 2.72997e+00 2.98983e-01 1.02535e+00 2.82539e+00 2.99018e-01 1.05278e+00 2.92065e+00 2.99051e-01 1.08086e+00 3.01574e+00 2.99084e-01 1.10954e+00 3.11068e+00 2.99116e-01 1.13883e+00 3.20545e+00 2.99147e-01 1.16869e+00 3.30007e+00 2.99177e-01 1.19912e+00 3.39452e+00 2.99207e-01 1.23009e+00 3.48883e+00 2.99235e-01 1.26159e+00 3.58298e+00 2.99263e-01 1.29359e+00 3.67698e+00 2.99291e-01 1.32609e+00 3.77083e+00 2.99317e-01 1.35907e+00 3.86454e+00 2.99343e-01 1.39251e+00 3.95811e+00 2.99368e-01 1.42639e+00 4.05153e+00 2.99392e-01 1.46071e+00 4.14483e+00 2.99416e-01 1.49543e+00 4.23798e+00 2.99439e-01 1.53056e+00 4.33102e+00 2.99461e-01 1.56607e+00 4.42392e+00 2.99483e-01 1.60200e+00 4.51670e+00 2.99504e-01 1.63820e+00 4.60937e+00 2.99524e-01 1.67480e+00 4.70191e+00 2.99544e-01 1.71170e+00 4.79435e+00 2.99563e-01 1.74890e+00 4.88668e+00 2.99581e-01 1.78640e+00 4.97891e+00 2.99599e-01 1.82430e+00 5.07103e+00 2.99617e-01 1.86240e+00 5.16306e+00 2.99634e-01 1.90070e+00 5.25500e+00 2.99650e-01 1.93940e+00 5.34684e+00 2.99666e-01 1.97820e+00 5.43860e+00 2.99681e-01 2.01730e+00 5.53028e+00 2.99696e-01 2.05670e+00 5.62189e+00 2.99710e-01 2.09620e+00 5.71341e+00 2.99724e-01 2.13590e+00 5.80487e+00 2.99737e-01 2.17580e+00 5.89626e+00 2.99750e-01 2.21590e+00 5.98759e+00 2.99762e-01 2.25620e+00 6.07885e+00 2.99774e-01 2.29660e+00 6.17006e+00 2.99785e-01 2.33720e+00 6.26122e+00 2.99796e-01 2.37800e+00 6.35232e+00 2.99807e-01 2.41880e+00 6.44338e+00 2.99817e-01 2.45980e+00 6.53439e+00 2.99827e-01 2.50090e+00 6.62537e+00 2.99836e-01 2.54210e+00 6.71630e+00 2.99845e-01 2.58350e+00 6.80721e+00 2.99854e-01 2.62490e+00 6.89808e+00 2.99862e-01 2.66640e+00 6.98892e+00 2.99870e-01 2.70800e+00 7.07973e+00 2.99878e-01 2.74960e+00 7.17052e+00 2.99885e-01 2.79140e+00 7.26128e+00 2.99892e-01 2.83320e+00 7.35203e+00 2.99898e-01 2.87500e+00 7.44276e+00 2.99905e-01 2.91690e+00 7.53348e+00 2.99911e-01 2.95890e+00 7.62418e+00 2.99916e-01 3.00090e+00 7.71487e+00 2.99921e-01 3.04290e+00 7.80555e+00 2.99926e-01 3.08490e+00 7.89623e+00 2.99931e-01 3.12700e+00 7.98689e+00 2.99935e-01 3.16910e+00 8.07756e+00 2.99939e-01 3.21130e+00 8.16822e+00 2.99943e-01 3.25340e+00 8.25887e+00 2.99946e-01 3.29560e+00 8.34953e+00 2.99949e-01 3.33770e+00 8.44019e+00 2.99952e-01 3.37990e+00 8.53085e+00 2.99955e-01 3.42210e+00 8.62151e+00 2.99957e-01 3.46430e+00 8.71217e+00 2.99959e-01 3.50650e+00 8.80284e+00 2.99961e-01 3.54860e+00 8.89351e+00 2.99962e-01 3.59080e+00 8.98418e+00 2.99963e-01 3.63300e+00 9.07486e+00 2.99965e-01 3.67510e+00 9.16555e+00 2.99966e-01 3.71730e+00 9.25624e+00 2.99967e-01 3.75940e+00 9.34693e+00 2.99968e-01 3.80160e+00 0.00000e+00 4.00000e-01 6.00000e-01 9.95738e-02 3.99684e-01 5.99127e-01 1.98621e-01 3.99421e-01 6.01275e-01 2.97159e-01 3.99227e-01 6.05326e-01 3.95664e-01 3.99128e-01 6.10430e-01 4.94060e-01 3.99061e-01 6.16739e-01 5.92473e-01 3.99043e-01 6.23936e-01 6.90839e-01 3.99032e-01 6.32334e-01 7.89152e-01 3.99045e-01 6.41678e-01 8.87399e-01 3.99060e-01 6.52174e-01 9.85553e-01 3.99085e-01 6.63635e-01 1.08362e+00 3.99109e-01 6.76182e-01 1.18157e+00 3.99137e-01 6.89688e-01 1.27942e+00 3.99164e-01 7.04220e-01 1.37713e+00 3.99191e-01 7.19680e-01 1.47473e+00 3.99217e-01 7.36120e-01 1.57218e+00 3.99243e-01 7.53450e-01 1.66950e+00 3.99267e-01 7.71710e-01 1.76667e+00 3.99291e-01 7.90830e-01 1.86370e+00 3.99313e-01 8.10820e-01 1.96057e+00 3.99336e-01 8.31630e-01 2.05729e+00 3.99357e-01 8.53270e-01 2.15385e+00 3.99378e-01 8.75700e-01 2.25025e+00 3.99398e-01 8.98910e-01 2.34649e+00 3.99417e-01 9.22860e-01 2.44257e+00 3.99437e-01 9.47550e-01 2.53848e+00 3.99455e-01 9.72960e-01 2.63423e+00 3.99473e-01 9.99050e-01 2.72982e+00 3.99491e-01 1.02582e+00 2.82524e+00 3.99508e-01 1.05324e+00 2.92050e+00 3.99525e-01 1.08130e+00 3.01560e+00 3.99542e-01 1.10997e+00 3.11053e+00 3.99558e-01 1.13925e+00 3.20531e+00 3.99573e-01 1.16910e+00 3.29992e+00 3.99588e-01 1.19951e+00 3.39438e+00 3.99603e-01 1.23047e+00 3.48869e+00 3.99618e-01 1.26195e+00 3.58284e+00 3.99632e-01 1.29395e+00 3.67684e+00 3.99645e-01 1.32644e+00 3.77070e+00 3.99659e-01 1.35940e+00 3.86441e+00 3.99671e-01 1.39283e+00 3.95798e+00 3.99684e-01 1.42670e+00 4.05141e+00 3.99696e-01 1.46100e+00 4.14471e+00 3.99708e-01 1.49572e+00 4.23787e+00 3.99719e-01 1.53084e+00 4.33090e+00 3.99731e-01 1.56634e+00 4.42381e+00 3.99741e-01 1.60220e+00 4.51659e+00 3.99752e-01 1.63840e+00 4.60926e+00 3.99762e-01 1.67500e+00 4.70181e+00 3.99772e-01 1.71190e+00 4.79425e+00 3.99781e-01 1.74910e+00 4.88659e+00 3.99791e-01 1.78670e+00 4.97881e+00 3.99800e-01 1.82450e+00 5.07094e+00 3.99808e-01 1.86260e+00 5.16297e+00 3.99817e-01 1.90090e+00 5.25491e+00 3.99825e-01 1.93950e+00 5.34676e+00 3.99833e-01 1.97840e+00 5.43853e+00 3.99841e-01 2.01750e+00 5.53021e+00 3.99848e-01 2.05680e+00 5.62182e+00 3.99855e-01 2.09630e+00 5.71335e+00 3.99862e-01 2.13600e+00 5.80481e+00 3.99869e-01 2.17600e+00 5.89620e+00 3.99875e-01 2.21610e+00 5.98753e+00 3.99881e-01 2.25630e+00 6.07880e+00 3.99887e-01 2.29670e+00 6.17001e+00 3.99893e-01 2.33730e+00 6.26117e+00 3.99898e-01 2.37810e+00 6.35227e+00 3.99904e-01 2.41890e+00 6.44334e+00 3.99909e-01 2.45990e+00 6.53435e+00 3.99914e-01 2.50100e+00 6.62533e+00 3.99918e-01 2.54220e+00 6.71627e+00 3.99923e-01 2.58350e+00 6.80717e+00 3.99927e-01 2.62490e+00 6.89804e+00 3.99931e-01 2.66640e+00 6.98889e+00 3.99935e-01 2.70800e+00 7.07970e+00 3.99939e-01 2.74970e+00 7.17049e+00 3.99943e-01 2.79140e+00 7.26126e+00 3.99946e-01 2.83320e+00 7.35201e+00 3.99949e-01 2.87510e+00 7.44274e+00 3.99952e-01 2.91700e+00 7.53346e+00 3.99955e-01 2.95890e+00 7.62416e+00 3.99958e-01 3.00090e+00 7.71486e+00 3.99961e-01 3.04290e+00 7.80554e+00 3.99963e-01 3.08500e+00 7.89621e+00 3.99965e-01 3.12710e+00 7.98688e+00 3.99967e-01 3.16920e+00 8.07755e+00 3.99969e-01 3.21130e+00 8.16821e+00 3.99971e-01 3.25340e+00 8.25887e+00 3.99973e-01 3.29560e+00 8.34953e+00 3.99975e-01 3.33780e+00 8.44019e+00 3.99976e-01 3.37990e+00 8.53084e+00 3.99977e-01 3.42210e+00 8.62151e+00 3.99978e-01 3.46430e+00 8.71217e+00 3.99979e-01 3.50650e+00 8.80284e+00 3.99980e-01 3.54860e+00 8.89351e+00 3.99981e-01 3.59080e+00 8.98418e+00 3.99982e-01 3.63300e+00 9.07486e+00 3.99982e-01 3.67510e+00 9.16555e+00 3.99983e-01 3.71730e+00 9.25624e+00 3.99983e-01 3.75940e+00 9.34693e+00 3.99984e-01 3.80150e+00 0.00000e+00 5.00000e-01 6.00000e-01 9.96163e-02 5.00000e-01 5.99144e-01 1.98593e-01 5.00000e-01 6.01317e-01 2.97205e-01 5.00000e-01 6.05407e-01 3.95655e-01 5.00000e-01 6.10558e-01 4.94084e-01 5.00000e-01 6.16900e-01 5.92463e-01 5.00000e-01 6.24127e-01 6.90838e-01 5.00000e-01 6.32543e-01 7.89132e-01 5.00000e-01 6.41900e-01 8.87378e-01 5.00000e-01 6.52403e-01 9.85523e-01 5.00000e-01 6.63868e-01 1.08359e+00 5.00000e-01 6.76417e-01 1.18153e+00 5.00000e-01 6.89922e-01 1.27938e+00 5.00000e-01 7.04450e-01 1.37709e+00 5.00000e-01 7.19910e-01 1.47468e+00 5.00000e-01 7.36340e-01 1.57214e+00 5.00000e-01 7.53670e-01 1.66945e+00 5.00000e-01 7.71920e-01 1.76662e+00 5.00000e-01 7.91040e-01 1.86365e+00 5.00000e-01 8.11020e-01 1.96052e+00 5.00000e-01 8.31830e-01 2.05724e+00 5.00000e-01 8.53470e-01 2.15380e+00 5.00000e-01 8.75890e-01 2.25020e+00 5.00000e-01 8.99090e-01 2.34644e+00 5.00000e-01 9.23040e-01 2.44252e+00 5.00000e-01 9.47730e-01 2.53843e+00 5.00000e-01 9.73130e-01 2.63418e+00 5.00000e-01 9.99220e-01 2.72977e+00 5.00000e-01 1.02598e+00 2.82519e+00 5.00000e-01 1.05340e+00 2.92045e+00 5.00000e-01 1.08145e+00 3.01554e+00 5.00000e-01 1.11012e+00 3.11048e+00 5.00000e-01 1.13939e+00 3.20526e+00 5.00000e-01 1.16923e+00 3.29987e+00 5.00000e-01 1.19964e+00 3.39434e+00 5.00000e-01 1.23060e+00 3.48864e+00 5.00000e-01 1.26208e+00 3.58280e+00 5.00000e-01 1.29407e+00 3.67680e+00 5.00000e-01 1.32655e+00 3.77066e+00 5.00000e-01 1.35951e+00 3.86437e+00 5.00000e-01 1.39294e+00 3.95794e+00 5.00000e-01 1.42681e+00 4.05137e+00 5.00000e-01 1.46110e+00 4.14467e+00 5.00000e-01 1.49582e+00 4.23783e+00 5.00000e-01 1.53093e+00 4.33086e+00 5.00000e-01 1.56643e+00 4.42377e+00 5.00000e-01 1.60230e+00 4.51656e+00 5.00000e-01 1.63850e+00 4.60923e+00 5.00000e-01 1.67510e+00 4.70178e+00 5.00000e-01 1.71200e+00 4.79422e+00 5.00000e-01 1.74920e+00 4.88655e+00 5.00000e-01 1.78670e+00 4.97878e+00 5.00000e-01 1.82450e+00 5.07091e+00 5.00000e-01 1.86260e+00 5.16295e+00 5.00000e-01 1.90100e+00 5.25489e+00 5.00000e-01 1.93960e+00 5.34674e+00 5.00000e-01 1.97850e+00 5.43850e+00 5.00000e-01 2.01750e+00 5.53019e+00 5.00000e-01 2.05690e+00 5.62179e+00 5.00000e-01 2.09640e+00 5.71332e+00 5.00000e-01 2.13610e+00 5.80478e+00 5.00000e-01 2.17600e+00 5.89618e+00 5.00000e-01 2.21610e+00 5.98751e+00 5.00000e-01 2.25640e+00 6.07878e+00 5.00000e-01 2.29680e+00 6.16999e+00 5.00000e-01 2.33740e+00 6.26115e+00 5.00000e-01 2.37810e+00 6.35226e+00 5.00000e-01 2.41890e+00 6.44332e+00 5.00000e-01 2.45990e+00 6.53434e+00 5.00000e-01 2.50100e+00 6.62532e+00 5.00000e-01 2.54220e+00 6.71626e+00 5.00000e-01 2.58350e+00 6.80716e+00 5.00000e-01 2.62500e+00 6.89803e+00 5.00000e-01 2.66650e+00 6.98888e+00 5.00000e-01 2.70800e+00 7.07969e+00 5.00000e-01 2.74970e+00 7.17048e+00 5.00000e-01 2.79140e+00 7.26125e+00 5.00000e-01 2.83320e+00 7.35200e+00 5.00000e-01 2.87510e+00 7.44274e+00 5.00000e-01 2.91700e+00 7.53345e+00 5.00000e-01 2.95890e+00 7.62416e+00 5.00000e-01 3.00090e+00 7.71485e+00 5.00000e-01 3.04290e+00 7.80554e+00 5.00000e-01 3.08500e+00 7.89621e+00 5.00000e-01 3.12710e+00 7.98688e+00 5.00000e-01 3.16920e+00 8.07755e+00 5.00000e-01 3.21130e+00 8.16821e+00 5.00000e-01 3.25340e+00 8.25887e+00 5.00000e-01 3.29560e+00 8.34953e+00 5.00000e-01 3.33780e+00 8.44018e+00 5.00000e-01 3.37990e+00 8.53084e+00 5.00000e-01 3.42210e+00 8.62151e+00 5.00000e-01 3.46430e+00 8.71217e+00 5.00000e-01 3.50650e+00 8.80284e+00 5.00000e-01 3.54860e+00 8.89351e+00 5.00000e-01 3.59080e+00 8.98418e+00 5.00000e-01 3.63300e+00 9.07486e+00 5.00000e-01 3.67510e+00 9.16555e+00 5.00000e-01 3.71730e+00 9.25624e+00 5.00000e-01 3.75940e+00 9.34693e+00 5.00000e-01 3.80150e+00 0.00000e+00 6.00000e-01 6.00000e-01 9.95738e-02 6.00316e-01 5.99127e-01 1.98621e-01 6.00579e-01 6.01275e-01 2.97159e-01 6.00773e-01 6.05326e-01 3.95664e-01 6.00872e-01 6.10430e-01 4.94060e-01 6.00939e-01 6.16739e-01 5.92473e-01 6.00957e-01 6.23936e-01 6.90839e-01 6.00968e-01 6.32334e-01 7.89152e-01 6.00955e-01 6.41678e-01 8.87399e-01 6.00940e-01 6.52174e-01 9.85553e-01 6.00915e-01 6.63635e-01 1.08362e+00 6.00891e-01 6.76182e-01 1.18157e+00 6.00863e-01 6.89688e-01 1.27942e+00 6.00836e-01 7.04220e-01 1.37713e+00 6.00809e-01 7.19680e-01 1.47473e+00 6.00783e-01 7.36120e-01 1.57218e+00 6.00757e-01 7.53450e-01 1.66950e+00 6.00733e-01 7.71710e-01 1.76667e+00 6.00709e-01 7.90830e-01 1.86370e+00 6.00686e-01 8.10820e-01 1.96057e+00 6.00664e-01 8.31630e-01 2.05729e+00 6.00643e-01 8.53270e-01 2.15385e+00 6.00622e-01 8.75700e-01 2.25025e+00 6.00602e-01 8.98910e-01 2.34649e+00 6.00582e-01 9.22860e-01 2.44257e+00 6.00563e-01 9.47550e-01 2.53848e+00 6.00545e-01 9.72960e-01 2.63423e+00 6.00527e-01 9.99050e-01 2.72982e+00 6.00509e-01 1.02582e+00 2.82524e+00 6.00492e-01 1.05324e+00 2.92050e+00 6.00475e-01 1.08130e+00 3.01560e+00 6.00458e-01 1.10997e+00 3.11053e+00 6.00442e-01 1.13925e+00 3.20531e+00 6.00427e-01 1.16910e+00 3.29992e+00 6.00411e-01 1.19951e+00 3.39438e+00 6.00397e-01 1.23047e+00 3.48869e+00 6.00382e-01 1.26195e+00 3.58284e+00 6.00368e-01 1.29395e+00 3.67684e+00 6.00355e-01 1.32644e+00 3.77070e+00 6.00341e-01 1.35940e+00 3.86441e+00 6.00329e-01 1.39283e+00 3.95798e+00 6.00316e-01 1.42670e+00 4.05141e+00 6.00304e-01 1.46100e+00 4.14471e+00 6.00292e-01 1.49572e+00 4.23787e+00 6.00281e-01 1.53084e+00 4.33090e+00 6.00269e-01 1.56634e+00 4.42381e+00 6.00259e-01 1.60220e+00 4.51659e+00 6.00248e-01 1.63840e+00 4.60926e+00 6.00238e-01 1.67500e+00 4.70181e+00 6.00228e-01 1.71190e+00 4.79425e+00 6.00218e-01 1.74910e+00 4.88659e+00 6.00209e-01 1.78670e+00 4.97881e+00 6.00200e-01 1.82450e+00 5.07094e+00 6.00191e-01 1.86260e+00 5.16297e+00 6.00183e-01 1.90090e+00 5.25491e+00 6.00175e-01 1.93950e+00 5.34676e+00 6.00167e-01 1.97840e+00 5.43853e+00 6.00159e-01 2.01750e+00 5.53021e+00 6.00152e-01 2.05680e+00 5.62182e+00 6.00145e-01 2.09630e+00 5.71335e+00 6.00138e-01 2.13600e+00 5.80481e+00 6.00131e-01 2.17600e+00 5.89620e+00 6.00125e-01 2.21610e+00 5.98753e+00 6.00119e-01 2.25630e+00 6.07880e+00 6.00113e-01 2.29670e+00 6.17001e+00 6.00107e-01 2.33730e+00 6.26117e+00 6.00102e-01 2.37810e+00 6.35227e+00 6.00096e-01 2.41890e+00 6.44334e+00 6.00091e-01 2.45990e+00 6.53435e+00 6.00086e-01 2.50100e+00 6.62533e+00 6.00082e-01 2.54220e+00 6.71627e+00 6.00077e-01 2.58350e+00 6.80717e+00 6.00073e-01 2.62490e+00 6.89804e+00 6.00069e-01 2.66640e+00 6.98889e+00 6.00065e-01 2.70800e+00 7.07970e+00 6.00061e-01 2.74970e+00 7.17049e+00 6.00057e-01 2.79140e+00 7.26126e+00 6.00054e-01 2.83320e+00 7.35201e+00 6.00051e-01 2.87510e+00 7.44274e+00 6.00047e-01 2.91700e+00 7.53346e+00 6.00045e-01 2.95890e+00 7.62416e+00 6.00042e-01 3.00090e+00 7.71486e+00 6.00039e-01 3.04290e+00 7.80554e+00 6.00037e-01 3.08500e+00 7.89621e+00 6.00034e-01 3.12710e+00 7.98688e+00 6.00032e-01 3.16920e+00 8.07755e+00 6.00030e-01 3.21130e+00 8.16821e+00 6.00028e-01 3.25340e+00 8.25887e+00 6.00027e-01 3.29560e+00 8.34953e+00 6.00025e-01 3.33780e+00 8.44019e+00 6.00024e-01 3.37990e+00 8.53084e+00 6.00022e-01 3.42210e+00 8.62151e+00 6.00021e-01 3.46430e+00 8.71217e+00 6.00020e-01 3.50650e+00 8.80284e+00 6.00020e-01 3.54860e+00 8.89351e+00 6.00019e-01 3.59080e+00 8.98418e+00 6.00018e-01 3.63300e+00 9.07486e+00 6.00018e-01 3.67510e+00 9.16555e+00 6.00017e-01 3.71730e+00 9.25624e+00 6.00016e-01 3.75940e+00 9.34693e+00 6.00016e-01 3.80150e+00 0.00000e+00 7.00000e-01 6.00000e-01 9.96100e-02 7.00678e-01 5.99088e-01 1.98538e-01 7.01243e-01 6.01149e-01 2.97138e-01 7.01574e-01 6.05062e-01 3.95593e-01 7.01798e-01 6.10042e-01 4.94046e-01 7.01872e-01 6.16233e-01 5.92465e-01 7.01931e-01 6.23358e-01 6.90870e-01 7.01926e-01 6.31698e-01 7.89199e-01 7.01913e-01 6.41011e-01 8.87471e-01 7.01872e-01 6.51483e-01 9.85640e-01 7.01828e-01 6.62936e-01 1.08372e+00 7.01776e-01 6.75480e-01 1.18169e+00 7.01722e-01 6.88991e-01 1.27954e+00 7.01668e-01 7.03530e-01 1.37726e+00 7.01614e-01 7.19000e-01 1.47486e+00 7.01562e-01 7.35450e-01 1.57232e+00 7.01512e-01 7.52800e-01 1.66965e+00 7.01463e-01 7.71070e-01 1.76682e+00 7.01416e-01 7.90200e-01 1.86385e+00 7.01371e-01 8.10210e-01 1.96072e+00 7.01327e-01 8.31040e-01 2.05744e+00 7.01284e-01 8.52700e-01 2.15400e+00 7.01243e-01 8.75140e-01 2.25040e+00 7.01203e-01 8.98360e-01 2.34664e+00 7.01164e-01 9.22330e-01 2.44272e+00 7.01126e-01 9.47040e-01 2.53863e+00 7.01089e-01 9.72450e-01 2.63438e+00 7.01052e-01 9.98560e-01 2.72997e+00 7.01017e-01 1.02535e+00 2.82539e+00 7.00982e-01 1.05278e+00 2.92065e+00 7.00949e-01 1.08086e+00 3.01574e+00 7.00916e-01 1.10954e+00 3.11068e+00 7.00884e-01 1.13883e+00 3.20545e+00 7.00853e-01 1.16869e+00 3.30007e+00 7.00823e-01 1.19912e+00 3.39452e+00 7.00793e-01 1.23009e+00 3.48883e+00 7.00764e-01 1.26159e+00 3.58298e+00 7.00736e-01 1.29359e+00 3.67698e+00 7.00709e-01 1.32609e+00 3.77083e+00 7.00683e-01 1.35907e+00 3.86454e+00 7.00657e-01 1.39251e+00 3.95811e+00 7.00632e-01 1.42639e+00 4.05153e+00 7.00608e-01 1.46071e+00 4.14483e+00 7.00584e-01 1.49543e+00 4.23798e+00 7.00561e-01 1.53056e+00 4.33102e+00 7.00539e-01 1.56607e+00 4.42392e+00 7.00517e-01 1.60200e+00 4.51670e+00 7.00496e-01 1.63820e+00 4.60937e+00 7.00476e-01 1.67480e+00 4.70191e+00 7.00456e-01 1.71170e+00 4.79435e+00 7.00437e-01 1.74890e+00 4.88668e+00 7.00419e-01 1.78640e+00 4.97891e+00 7.00401e-01 1.82430e+00 5.07103e+00 7.00383e-01 1.86240e+00 5.16306e+00 7.00366e-01 1.90070e+00 5.25500e+00 7.00350e-01 1.93940e+00 5.34684e+00 7.00334e-01 1.97820e+00 5.43860e+00 7.00319e-01 2.01730e+00 5.53028e+00 7.00304e-01 2.05670e+00 5.62189e+00 7.00290e-01 2.09620e+00 5.71341e+00 7.00276e-01 2.13590e+00 5.80487e+00 7.00263e-01 2.17580e+00 5.89626e+00 7.00250e-01 2.21590e+00 5.98759e+00 7.00238e-01 2.25620e+00 6.07885e+00 7.00226e-01 2.29660e+00 6.17006e+00 7.00214e-01 2.33720e+00 6.26122e+00 7.00203e-01 2.37800e+00 6.35232e+00 7.00193e-01 2.41880e+00 6.44338e+00 7.00183e-01 2.45980e+00 6.53439e+00 7.00173e-01 2.50090e+00 6.62537e+00 7.00163e-01 2.54210e+00 6.71630e+00 7.00154e-01 2.58350e+00 6.80721e+00 7.00146e-01 2.62490e+00 6.89808e+00 7.00137e-01 2.66640e+00 6.98892e+00 7.00129e-01 2.70800e+00 7.07973e+00 7.00122e-01 2.74960e+00 7.17052e+00 7.00115e-01 2.79140e+00 7.26128e+00 7.00108e-01 2.83320e+00 7.35203e+00 7.00101e-01 2.87500e+00 7.44276e+00 7.00095e-01 2.91690e+00 7.53348e+00 7.00089e-01 2.95890e+00 7.62418e+00 7.00084e-01 3.00090e+00 7.71487e+00 7.00078e-01 3.04290e+00 7.80555e+00 7.00074e-01 3.08490e+00 7.89623e+00 7.00069e-01 3.12700e+00 7.98689e+00 7.00065e-01 3.16910e+00 8.07756e+00 7.00061e-01 3.21130e+00 8.16822e+00 7.00057e-01 3.25340e+00 8.25887e+00 7.00053e-01 3.29560e+00 8.34953e+00 7.00050e-01 3.33770e+00 8.44019e+00 7.00048e-01 3.37990e+00 8.53085e+00 7.00045e-01 3.42210e+00 8.62151e+00 7.00043e-01 3.46430e+00 8.71217e+00 7.00041e-01 3.50650e+00 8.80284e+00 7.00039e-01 3.54860e+00 8.89351e+00 7.00038e-01 3.59080e+00 8.98418e+00 7.00036e-01 3.63300e+00 9.07486e+00 7.00035e-01 3.67510e+00 9.16555e+00 7.00034e-01 3.71730e+00 9.25624e+00 7.00033e-01 3.75940e+00 9.34693e+00 7.00032e-01 3.80160e+00 0.00000e+00 8.00000e-01 6.00000e-01 9.95098e-02 8.01173e-01 5.99020e-01 1.98489e-01 8.02005e-01 6.00894e-01 2.96975e-01 8.02527e-01 6.04548e-01 3.95503e-01 8.02697e-01 6.09289e-01 4.93994e-01 8.02845e-01 6.15307e-01 5.92475e-01 8.02870e-01 6.22322e-01 6.90923e-01 8.02884e-01 6.30584e-01 7.89295e-01 8.02842e-01 6.39856e-01 8.87600e-01 8.02792e-01 6.50302e-01 9.85799e-01 8.02720e-01 6.61750e-01 1.08390e+00 8.02645e-01 6.74295e-01 1.18188e+00 8.02565e-01 6.87818e-01 1.27975e+00 8.02485e-01 7.02370e-01 1.37749e+00 8.02406e-01 7.17870e-01 1.47510e+00 8.02329e-01 7.34330e-01 1.57256e+00 8.02254e-01 7.51710e-01 1.66989e+00 8.02183e-01 7.70000e-01 1.76707e+00 8.02113e-01 7.89170e-01 1.86410e+00 8.02046e-01 8.09190e-01 1.96098e+00 8.01980e-01 8.30050e-01 2.05770e+00 8.01917e-01 8.51730e-01 2.15426e+00 8.01856e-01 8.74200e-01 2.25066e+00 8.01796e-01 8.97450e-01 2.34690e+00 8.01737e-01 9.21450e-01 2.44298e+00 8.01681e-01 9.46180e-01 2.53889e+00 8.01625e-01 9.71620e-01 2.63464e+00 8.01571e-01 9.97750e-01 2.73023e+00 8.01519e-01 1.02456e+00 2.82564e+00 8.01467e-01 1.05202e+00 2.92090e+00 8.01417e-01 1.08011e+00 3.01599e+00 8.01369e-01 1.10882e+00 3.11092e+00 8.01321e-01 1.13813e+00 3.20569e+00 8.01275e-01 1.16802e+00 3.30031e+00 8.01230e-01 1.19846e+00 3.39476e+00 8.01186e-01 1.22946e+00 3.48906e+00 8.01143e-01 1.26097e+00 3.58321e+00 8.01101e-01 1.29300e+00 3.67720e+00 8.01061e-01 1.32552e+00 3.77105e+00 8.01021e-01 1.35852e+00 3.86476e+00 8.00983e-01 1.39198e+00 3.95832e+00 8.00945e-01 1.42588e+00 4.05174e+00 8.00909e-01 1.46021e+00 4.14503e+00 8.00874e-01 1.49495e+00 4.23818e+00 8.00840e-01 1.53010e+00 4.33121e+00 8.00806e-01 1.56563e+00 4.42411e+00 8.00774e-01 1.60150e+00 4.51688e+00 8.00743e-01 1.63780e+00 4.60954e+00 8.00712e-01 1.67440e+00 4.70208e+00 8.00683e-01 1.71130e+00 4.79452e+00 8.00654e-01 1.74860e+00 4.88684e+00 8.00627e-01 1.78610e+00 4.97906e+00 8.00600e-01 1.82390e+00 5.07118e+00 8.00574e-01 1.86210e+00 5.16320e+00 8.00549e-01 1.90040e+00 5.25513e+00 8.00524e-01 1.93910e+00 5.34698e+00 8.00501e-01 1.97800e+00 5.43873e+00 8.00478e-01 2.01710e+00 5.53041e+00 8.00456e-01 2.05640e+00 5.62200e+00 8.00435e-01 2.09590e+00 5.71352e+00 8.00414e-01 2.13570e+00 5.80498e+00 8.00394e-01 2.17560e+00 5.89636e+00 8.00375e-01 2.21570e+00 5.98768e+00 8.00356e-01 2.25600e+00 6.07894e+00 8.00339e-01 2.29650e+00 6.17015e+00 8.00321e-01 2.33710e+00 6.26130e+00 8.00305e-01 2.37780e+00 6.35240e+00 8.00289e-01 2.41870e+00 6.44345e+00 8.00274e-01 2.45970e+00 6.53446e+00 8.00259e-01 2.50080e+00 6.62543e+00 8.00245e-01 2.54200e+00 6.71637e+00 8.00231e-01 2.58330e+00 6.80726e+00 8.00218e-01 2.62480e+00 6.89813e+00 8.00206e-01 2.66630e+00 6.98896e+00 8.00194e-01 2.70790e+00 7.07977e+00 8.00183e-01 2.74960e+00 7.17056e+00 8.00172e-01 2.79130e+00 7.26132e+00 8.00162e-01 2.83310e+00 7.35207e+00 8.00152e-01 2.87500e+00 7.44279e+00 8.00143e-01 2.91690e+00 7.53351e+00 8.00134e-01 2.95880e+00 7.62421e+00 8.00126e-01 3.00080e+00 7.71489e+00 8.00118e-01 3.04280e+00 7.80557e+00 8.00110e-01 3.08490e+00 7.89624e+00 8.00103e-01 3.12700e+00 7.98691e+00 8.00097e-01 3.16910e+00 8.07757e+00 8.00091e-01 3.21130e+00 8.16823e+00 8.00085e-01 3.25340e+00 8.25888e+00 8.00080e-01 3.29560e+00 8.34954e+00 8.00076e-01 3.33770e+00 8.44019e+00 8.00071e-01 3.37990e+00 8.53085e+00 8.00068e-01 3.42210e+00 8.62151e+00 8.00064e-01 3.46430e+00 8.71217e+00 8.00061e-01 3.50650e+00 8.80284e+00 8.00059e-01 3.54860e+00 8.89351e+00 8.00056e-01 3.59080e+00 8.98418e+00 8.00054e-01 3.63300e+00 9.07486e+00 8.00053e-01 3.67510e+00 9.16555e+00 8.00051e-01 3.71730e+00 9.25624e+00 8.00049e-01 3.75940e+00 9.34693e+00 8.00047e-01 3.80160e+00 0.00000e+00 9.00000e-01 6.00000e-01 9.95316e-02 9.01854e-01 5.98855e-01 1.98140e-01 9.03108e-01 6.00343e-01 2.96715e-01 9.03374e-01 6.03543e-01 3.95362e-01 9.03656e-01 6.07994e-01 4.93942e-01 9.03727e-01 6.13816e-01 5.92519e-01 9.03795e-01 6.20728e-01 6.91027e-01 9.03778e-01 6.28916e-01 7.89462e-01 9.03740e-01 6.38161e-01 8.87808e-01 9.03665e-01 6.48592e-01 9.86046e-01 9.03578e-01 6.60049e-01 1.08418e+00 9.03478e-01 6.72608e-01 1.18218e+00 9.03376e-01 6.86158e-01 1.28007e+00 9.03272e-01 7.00740e-01 1.37782e+00 9.03170e-01 7.16270e-01 1.47544e+00 9.03070e-01 7.32770e-01 1.57291e+00 9.02973e-01 7.50180e-01 1.67024e+00 9.02879e-01 7.68510e-01 1.76743e+00 9.02788e-01 7.87710e-01 1.86446e+00 9.02699e-01 8.07780e-01 1.96134e+00 9.02614e-01 8.28670e-01 2.05807e+00 9.02531e-01 8.50390e-01 2.15463e+00 9.02450e-01 8.72890e-01 2.25103e+00 9.02372e-01 8.96180e-01 2.34727e+00 9.02295e-01 9.20210e-01 2.44335e+00 9.02221e-01 9.44970e-01 2.53926e+00 9.02148e-01 9.70450e-01 2.63501e+00 9.02077e-01 9.96620e-01 2.73059e+00 9.02008e-01 1.02346e+00 2.82601e+00 9.01940e-01 1.05095e+00 2.92126e+00 9.01875e-01 1.07908e+00 3.01635e+00 9.01810e-01 1.10782e+00 3.11128e+00 9.01748e-01 1.13716e+00 3.20604e+00 9.01687e-01 1.16707e+00 3.30065e+00 9.01627e-01 1.19755e+00 3.39510e+00 9.01570e-01 1.22857e+00 3.48939e+00 9.01513e-01 1.26012e+00 3.58353e+00 9.01458e-01 1.29217e+00 3.67752e+00 9.01405e-01 1.32472e+00 3.77137e+00 9.01353e-01 1.35775e+00 3.86506e+00 9.01302e-01 1.39123e+00 3.95862e+00 9.01253e-01 1.42516e+00 4.05203e+00 9.01205e-01 1.45952e+00 4.14531e+00 9.01159e-01 1.49429e+00 4.23846e+00 9.01114e-01 1.52946e+00 4.33148e+00 9.01070e-01 1.56501e+00 4.42437e+00 9.01027e-01 1.60090e+00 4.51714e+00 9.00986e-01 1.63720e+00 4.60979e+00 9.00946e-01 1.67380e+00 4.70233e+00 9.00907e-01 1.71080e+00 4.79475e+00 9.00869e-01 1.74810e+00 4.88707e+00 9.00832e-01 1.78560e+00 4.97928e+00 9.00797e-01 1.82350e+00 5.07139e+00 9.00762e-01 1.86160e+00 5.16341e+00 9.00729e-01 1.90000e+00 5.25533e+00 9.00697e-01 1.93870e+00 5.34716e+00 9.00666e-01 1.97760e+00 5.43891e+00 9.00635e-01 2.01670e+00 5.53058e+00 9.00606e-01 2.05610e+00 5.62217e+00 9.00578e-01 2.09560e+00 5.71368e+00 9.00551e-01 2.13540e+00 5.80513e+00 9.00524e-01 2.17530e+00 5.89651e+00 9.00499e-01 2.21550e+00 5.98782e+00 9.00474e-01 2.25580e+00 6.07907e+00 9.00451e-01 2.29620e+00 6.17027e+00 9.00428e-01 2.33680e+00 6.26142e+00 9.00406e-01 2.37760e+00 6.35251e+00 9.00385e-01 2.41850e+00 6.44356e+00 9.00365e-01 2.45950e+00 6.53456e+00 9.00345e-01 2.50060e+00 6.62553e+00 9.00326e-01 2.54180e+00 6.71645e+00 9.00308e-01 2.58320e+00 6.80734e+00 9.00291e-01 2.62460e+00 6.89820e+00 9.00275e-01 2.66610e+00 6.98903e+00 9.00259e-01 2.70780e+00 7.07984e+00 9.00244e-01 2.74940e+00 7.17062e+00 9.00229e-01 2.79120e+00 7.26138e+00 9.00216e-01 2.83300e+00 7.35212e+00 9.00203e-01 2.87490e+00 7.44284e+00 9.00190e-01 2.91680e+00 7.53355e+00 9.00179e-01 2.95880e+00 7.62424e+00 9.00167e-01 3.00080e+00 7.71493e+00 9.00157e-01 3.04280e+00 7.80560e+00 9.00147e-01 3.08490e+00 7.89627e+00 9.00138e-01 3.12700e+00 7.98693e+00 9.00129e-01 3.16910e+00 8.07759e+00 9.00121e-01 3.21120e+00 8.16824e+00 9.00114e-01 3.25340e+00 8.25890e+00 9.00107e-01 3.29550e+00 8.34955e+00 9.00101e-01 3.33770e+00 8.44020e+00 9.00095e-01 3.37990e+00 8.53086e+00 9.00090e-01 3.42210e+00 8.62151e+00 9.00086e-01 3.46430e+00 8.71218e+00 9.00082e-01 3.50650e+00 8.80284e+00 9.00078e-01 3.54860e+00 8.89351e+00 9.00075e-01 3.59080e+00 8.98418e+00 9.00073e-01 3.63300e+00 9.07486e+00 9.00070e-01 3.67510e+00 9.16554e+00 9.00067e-01 3.71730e+00 9.25623e+00 9.00064e-01 3.75940e+00 9.34693e+00 9.00061e-01 3.80160e+00 0.00000e+00 1.00000e+00 6.00000e-01 9.87686e-02 1.00332e+00 5.97778e-01 1.97522e-01 1.00369e+00 5.98770e-01 2.96511e-01 1.00425e+00 6.01575e-01 3.95222e-01 1.00438e+00 6.05881e-01 4.93984e-01 1.00454e+00 6.11564e-01 5.92626e-01 1.00458e+00 6.18441e-01 6.91235e-01 1.00459e+00 6.26596e-01 7.89726e-01 1.00454e+00 6.35858e-01 8.88129e-01 1.00446e+00 6.46307e-01 9.86403e-01 1.00435e+00 6.57804e-01 1.08457e+00 1.00424e+00 6.70402e-01 1.18259e+00 1.00412e+00 6.84000e-01 1.28050e+00 1.00400e+00 6.98627e-01 1.37826e+00 1.00387e+00 7.14210e-01 1.47589e+00 1.00375e+00 7.30760e-01 1.57337e+00 1.00364e+00 7.48220e-01 1.67071e+00 1.00352e+00 7.66600e-01 1.76790e+00 1.00341e+00 7.85850e-01 1.86494e+00 1.00331e+00 8.05960e-01 1.96182e+00 1.00320e+00 8.26900e-01 2.05855e+00 1.00310e+00 8.48660e-01 2.15512e+00 1.00300e+00 8.71220e-01 2.25152e+00 1.00291e+00 8.94540e-01 2.34776e+00 1.00282e+00 9.18620e-01 2.44383e+00 1.00273e+00 9.43430e-01 2.53974e+00 1.00264e+00 9.68950e-01 2.63549e+00 1.00255e+00 9.95160e-01 2.73107e+00 1.00247e+00 1.02204e+00 2.82648e+00 1.00238e+00 1.04958e+00 2.92173e+00 1.00230e+00 1.07774e+00 3.01681e+00 1.00223e+00 1.10653e+00 3.11174e+00 1.00215e+00 1.13590e+00 3.20649e+00 1.00208e+00 1.16586e+00 3.30110e+00 1.00200e+00 1.19638e+00 3.39554e+00 1.00193e+00 1.22743e+00 3.48982e+00 1.00186e+00 1.25902e+00 3.58396e+00 1.00180e+00 1.29111e+00 3.67794e+00 1.00173e+00 1.32369e+00 3.77177e+00 1.00167e+00 1.35675e+00 3.86546e+00 1.00161e+00 1.39027e+00 3.95901e+00 1.00155e+00 1.42424e+00 4.05242e+00 1.00149e+00 1.45863e+00 4.14569e+00 1.00143e+00 1.49343e+00 4.23882e+00 1.00138e+00 1.52863e+00 4.33183e+00 1.00132e+00 1.56421e+00 4.42472e+00 1.00127e+00 1.60020e+00 4.51748e+00 1.00122e+00 1.63650e+00 4.61012e+00 1.00117e+00 1.67310e+00 4.70264e+00 1.00112e+00 1.71010e+00 4.79506e+00 1.00108e+00 1.74740e+00 4.88736e+00 1.00103e+00 1.78500e+00 4.97956e+00 1.00099e+00 1.82290e+00 5.07167e+00 1.00094e+00 1.86100e+00 5.16367e+00 1.00090e+00 1.89950e+00 5.25558e+00 1.00086e+00 1.93820e+00 5.34741e+00 1.00083e+00 1.97710e+00 5.43915e+00 1.00079e+00 2.01620e+00 5.53080e+00 1.00075e+00 2.05560e+00 5.62238e+00 1.00072e+00 2.09520e+00 5.71389e+00 1.00068e+00 2.13500e+00 5.80532e+00 1.00065e+00 2.17490e+00 5.89669e+00 1.00062e+00 2.21510e+00 5.98800e+00 1.00059e+00 2.25540e+00 6.07924e+00 1.00056e+00 2.29590e+00 6.17043e+00 1.00053e+00 2.33650e+00 6.26157e+00 1.00051e+00 2.37730e+00 6.35265e+00 1.00048e+00 2.41820e+00 6.44369e+00 1.00045e+00 2.45920e+00 6.53469e+00 1.00043e+00 2.50040e+00 6.62564e+00 1.00041e+00 2.54160e+00 6.71656e+00 1.00038e+00 2.58300e+00 6.80745e+00 1.00036e+00 2.62440e+00 6.89830e+00 1.00034e+00 2.66600e+00 6.98912e+00 1.00032e+00 2.70760e+00 7.07992e+00 1.00030e+00 2.74930e+00 7.17069e+00 1.00029e+00 2.79110e+00 7.26145e+00 1.00027e+00 2.83290e+00 7.35218e+00 1.00025e+00 2.87480e+00 7.44290e+00 1.00024e+00 2.91670e+00 7.53360e+00 1.00022e+00 2.95870e+00 7.62429e+00 1.00021e+00 3.00070e+00 7.71497e+00 1.00020e+00 3.04270e+00 7.80564e+00 1.00018e+00 3.08480e+00 7.89630e+00 1.00017e+00 3.12690e+00 7.98696e+00 1.00016e+00 3.16910e+00 8.07761e+00 1.00015e+00 3.21120e+00 8.16826e+00 1.00014e+00 3.25340e+00 8.25891e+00 1.00013e+00 3.29550e+00 8.34956e+00 1.00013e+00 3.33770e+00 8.44021e+00 1.00012e+00 3.37990e+00 8.53086e+00 1.00011e+00 3.42210e+00 8.62152e+00 1.00011e+00 3.46430e+00 8.71218e+00 1.00010e+00 3.50650e+00 8.80284e+00 1.00010e+00 3.54860e+00 8.89351e+00 1.00009e+00 3.59080e+00 8.98418e+00 1.00009e+00 3.63300e+00 9.07485e+00 1.00009e+00 3.67520e+00 9.16554e+00 1.00008e+00 3.71730e+00 9.25623e+00 1.00008e+00 3.75950e+00 9.34692e+00 1.00008e+00 3.80160e+00 0.00000e+00 0.00000e+00 7.00000e-01 9.77855e-02 -5.53950e-03 6.98220e-01 1.95323e-01 -5.92650e-03 6.99534e-01 2.93313e-01 -6.82120e-03 7.02282e-01 3.90801e-01 -6.93150e-03 7.06566e-01 4.88475e-01 -7.22740e-03 7.12019e-01 5.85997e-01 -7.24490e-03 7.18863e-01 6.83510e-01 -7.25990e-03 7.26834e-01 7.80914e-01 -7.16150e-03 7.36059e-01 8.78232e-01 -7.04270e-03 7.46350e-01 9.75448e-01 -6.88550e-03 7.57780e-01 1.07256e+00 -6.71790e-03 7.70224e-01 1.16956e+00 -6.54290e-03 7.83721e-01 1.26646e+00 -6.36540e-03 7.98187e-01 1.36324e+00 -6.19130e-03 8.13640e-01 1.45991e+00 -6.01840e-03 8.30020e-01 1.55646e+00 -5.85140e-03 8.47330e-01 1.65288e+00 -5.68690e-03 8.65530e-01 1.74918e+00 -5.52800e-03 8.84610e-01 1.84535e+00 -5.37170e-03 9.04540e-01 1.94139e+00 -5.22010e-03 9.25310e-01 2.03729e+00 -5.07100e-03 9.46880e-01 2.13305e+00 -4.92590e-03 9.69250e-01 2.22867e+00 -4.78320e-03 9.92390e-01 2.32415e+00 -4.64380e-03 1.01628e+00 2.41949e+00 -4.50690e-03 1.04089e+00 2.51468e+00 -4.37290e-03 1.06622e+00 2.60973e+00 -4.24130e-03 1.09224e+00 2.70463e+00 -4.11240e-03 1.11893e+00 2.79938e+00 -3.98590e-03 1.14627e+00 2.89399e+00 -3.86190e-03 1.17425e+00 2.98846e+00 -3.74040e-03 1.20284e+00 3.08278e+00 -3.62140e-03 1.23203e+00 3.17696e+00 -3.50470e-03 1.26180e+00 3.27099e+00 -3.39050e-03 1.29213e+00 3.36489e+00 -3.27860e-03 1.32300e+00 3.45865e+00 -3.16910e-03 1.35440e+00 3.55227e+00 -3.06190e-03 1.38632e+00 3.64575e+00 -2.95700e-03 1.41873e+00 3.73911e+00 -2.85440e-03 1.45161e+00 3.83234e+00 -2.75400e-03 1.48496e+00 3.92544e+00 -2.65590e-03 1.51875e+00 4.01841e+00 -2.56000e-03 1.55298e+00 4.11127e+00 -2.46630e-03 1.58762e+00 4.20400e+00 -2.37480e-03 1.62267e+00 4.29663e+00 -2.28540e-03 1.65810e+00 4.38914e+00 -2.19820e-03 1.69390e+00 4.48154e+00 -2.11300e-03 1.73010e+00 4.57384e+00 -2.02990e-03 1.76660e+00 4.66603e+00 -1.94880e-03 1.80340e+00 4.75813e+00 -1.86980e-03 1.84060e+00 4.85013e+00 -1.79280e-03 1.87800e+00 4.94204e+00 -1.71770e-03 1.91580e+00 5.03386e+00 -1.64460e-03 1.95380e+00 5.12560e+00 -1.57340e-03 1.99210e+00 5.21726e+00 -1.50410e-03 2.03070e+00 5.30884e+00 -1.43670e-03 2.06950e+00 5.40034e+00 -1.37120e-03 2.10860e+00 5.49177e+00 -1.30750e-03 2.14780e+00 5.58314e+00 -1.24560e-03 2.18730e+00 5.67445e+00 -1.18550e-03 2.22700e+00 5.76569e+00 -1.12720e-03 2.26690e+00 5.85687e+00 -1.07060e-03 2.30700e+00 5.94801e+00 -1.01570e-03 2.34720e+00 6.03909e+00 -9.62600e-04 2.38760e+00 6.13012e+00 -9.11150e-04 2.42820e+00 6.22111e+00 -8.61380e-04 2.46890e+00 6.31206e+00 -8.13260e-04 2.50970e+00 6.40297e+00 -7.66780e-04 2.55070e+00 6.49384e+00 -7.21920e-04 2.59170e+00 6.58468e+00 -6.78660e-04 2.63290e+00 6.67550e+00 -6.36980e-04 2.67420e+00 6.76628e+00 -5.96860e-04 2.71560e+00 6.85704e+00 -5.58300e-04 2.75710e+00 6.94778e+00 -5.21280e-04 2.79870e+00 7.03849e+00 -4.85780e-04 2.84040e+00 7.12919e+00 -4.51780e-04 2.88210e+00 7.21988e+00 -4.19280e-04 2.92390e+00 7.31055e+00 -3.88260e-04 2.96570e+00 7.40120e+00 -3.58710e-04 3.00760e+00 7.49185e+00 -3.30620e-04 3.04960e+00 7.58250e+00 -3.03970e-04 3.09160e+00 7.67313e+00 -2.78760e-04 3.13360e+00 7.76376e+00 -2.54970e-04 3.17560e+00 7.85439e+00 -2.32610e-04 3.21770e+00 7.94502e+00 -2.11650e-04 3.25980e+00 8.03564e+00 -1.92100e-04 3.30200e+00 8.12627e+00 -1.73950e-04 3.34410e+00 8.21690e+00 -1.57200e-04 3.38630e+00 8.30753e+00 -1.41840e-04 3.42840e+00 8.39816e+00 -1.27890e-04 3.47060e+00 8.48880e+00 -1.15330e-04 3.51280e+00 8.57944e+00 -1.04160e-04 3.55500e+00 8.67009e+00 -9.43570e-05 3.59720e+00 8.76075e+00 -8.58840e-05 3.63930e+00 8.85141e+00 -7.85990e-05 3.68150e+00 8.94207e+00 -7.23060e-05 3.72370e+00 9.03275e+00 -6.64230e-05 3.76580e+00 9.12343e+00 -6.03510e-05 3.80800e+00 9.21412e+00 -5.22810e-05 3.85010e+00 9.30481e+00 -4.39020e-05 3.89230e+00 0.00000e+00 1.00000e-01 7.00000e-01 9.90896e-02 9.69368e-02 6.99270e-01 1.96319e-01 9.49966e-02 7.01067e-01 2.93671e-01 9.46648e-02 7.04202e-01 3.91080e-01 9.42435e-02 7.08693e-01 4.88479e-01 9.41441e-02 7.14256e-01 5.85928e-01 9.40446e-02 7.21161e-01 6.83289e-01 9.40873e-02 7.29137e-01 7.80637e-01 9.41477e-02 7.38350e-01 8.77875e-01 9.42681e-02 7.48607e-01 9.75057e-01 9.43952e-02 7.59999e-01 1.07212e+00 9.45424e-02 7.72396e-01 1.16911e+00 9.46881e-02 7.85846e-01 1.26598e+00 9.48374e-02 8.00260e-01 1.36276e+00 9.49822e-02 8.15670e-01 1.45941e+00 9.51248e-02 8.32000e-01 1.55595e+00 9.52629e-02 8.49260e-01 1.65237e+00 9.53974e-02 8.67410e-01 1.74867e+00 9.55280e-02 8.86450e-01 1.84483e+00 9.56553e-02 9.06330e-01 1.94087e+00 9.57794e-02 9.27050e-01 2.03677e+00 9.59005e-02 9.48580e-01 2.13253e+00 9.60190e-02 9.70900e-01 2.22815e+00 9.61349e-02 9.93990e-01 2.32363e+00 9.62484e-02 1.01784e+00 2.41897e+00 9.63597e-02 1.04241e+00 2.51417e+00 9.64687e-02 1.06770e+00 2.60921e+00 9.65756e-02 1.09367e+00 2.70412e+00 9.66804e-02 1.12032e+00 2.79888e+00 9.67831e-02 1.14762e+00 2.89349e+00 9.68838e-02 1.17556e+00 2.98796e+00 9.69824e-02 1.20411e+00 3.08229e+00 9.70790e-02 1.23326e+00 3.17647e+00 9.71737e-02 1.26299e+00 3.27051e+00 9.72663e-02 1.29328e+00 3.36442e+00 9.73571e-02 1.32412e+00 3.45818e+00 9.74459e-02 1.35548e+00 3.55181e+00 9.75327e-02 1.38736e+00 3.64531e+00 9.76177e-02 1.41973e+00 3.73867e+00 9.77008e-02 1.45258e+00 3.83191e+00 9.77821e-02 1.48590e+00 3.92502e+00 9.78615e-02 1.51966e+00 4.01800e+00 9.79391e-02 1.55385e+00 4.11087e+00 9.80149e-02 1.58846e+00 4.20361e+00 9.80889e-02 1.62348e+00 4.29624e+00 9.81612e-02 1.65888e+00 4.38877e+00 9.82317e-02 1.69465e+00 4.48118e+00 9.83006e-02 1.73080e+00 4.57349e+00 9.83677e-02 1.76730e+00 4.66569e+00 9.84332e-02 1.80410e+00 4.75780e+00 9.84970e-02 1.84120e+00 4.84981e+00 9.85592e-02 1.87860e+00 4.94173e+00 9.86198e-02 1.91640e+00 5.03356e+00 9.86787e-02 1.95440e+00 5.12531e+00 9.87362e-02 1.99270e+00 5.21698e+00 9.87920e-02 2.03120e+00 5.30857e+00 9.88464e-02 2.07000e+00 5.40008e+00 9.88992e-02 2.10900e+00 5.49153e+00 9.89505e-02 2.14830e+00 5.58291e+00 9.90004e-02 2.18770e+00 5.67422e+00 9.90488e-02 2.22740e+00 5.76547e+00 9.90957e-02 2.26730e+00 5.85667e+00 9.91413e-02 2.30730e+00 5.94781e+00 9.91854e-02 2.34750e+00 6.03890e+00 9.92282e-02 2.38790e+00 6.12994e+00 9.92695e-02 2.42840e+00 6.22094e+00 9.93096e-02 2.46910e+00 6.31190e+00 9.93482e-02 2.50990e+00 6.40282e+00 9.93856e-02 2.55090e+00 6.49370e+00 9.94217e-02 2.59200e+00 6.58455e+00 9.94564e-02 2.63310e+00 6.67537e+00 9.94899e-02 2.67440e+00 6.76616e+00 9.95221e-02 2.71580e+00 6.85693e+00 9.95531e-02 2.75730e+00 6.94767e+00 9.95828e-02 2.79890e+00 7.03840e+00 9.96113e-02 2.84050e+00 7.12910e+00 9.96386e-02 2.88220e+00 7.21979e+00 9.96647e-02 2.92400e+00 7.31047e+00 9.96895e-02 2.96580e+00 7.40114e+00 9.97132e-02 3.00770e+00 7.49179e+00 9.97358e-02 3.04960e+00 7.58244e+00 9.97571e-02 3.09160e+00 7.67308e+00 9.97774e-02 3.13360e+00 7.76372e+00 9.97964e-02 3.17570e+00 7.85435e+00 9.98144e-02 3.21780e+00 7.94498e+00 9.98311e-02 3.25990e+00 8.03561e+00 9.98468e-02 3.30200e+00 8.12624e+00 9.98613e-02 3.34410e+00 8.21688e+00 9.98748e-02 3.38630e+00 8.30751e+00 9.98870e-02 3.42850e+00 8.39815e+00 9.98982e-02 3.47060e+00 8.48879e+00 9.99082e-02 3.51280e+00 8.57944e+00 9.99171e-02 3.55500e+00 8.67009e+00 9.99249e-02 3.59720e+00 8.76074e+00 9.99317e-02 3.63930e+00 8.85141e+00 9.99375e-02 3.68150e+00 8.94208e+00 9.99425e-02 3.72370e+00 9.03275e+00 9.99471e-02 3.76580e+00 9.12343e+00 9.99521e-02 3.80800e+00 9.21412e+00 9.99577e-02 3.85010e+00 9.30481e+00 9.99635e-02 3.89230e+00 0.00000e+00 2.00000e-01 7.00000e-01 9.90915e-02 1.98092e-01 6.99565e-01 1.96931e-01 1.96799e-01 7.01803e-01 2.94128e-01 1.95996e-01 7.05317e-01 3.91342e-01 1.95762e-01 7.10079e-01 4.88612e-01 1.95539e-01 7.15776e-01 5.85932e-01 1.95512e-01 7.22794e-01 6.83208e-01 1.95498e-01 7.30814e-01 7.80478e-01 1.95568e-01 7.40059e-01 8.77660e-01 1.95645e-01 7.50315e-01 9.74796e-01 1.95753e-01 7.61699e-01 1.07183e+00 1.95862e-01 7.74072e-01 1.16879e+00 1.95978e-01 7.87497e-01 1.26564e+00 1.96092e-01 8.01880e-01 1.36240e+00 1.96204e-01 8.17250e-01 1.45905e+00 1.96313e-01 8.33550e-01 1.55558e+00 1.96419e-01 8.50770e-01 1.65199e+00 1.96522e-01 8.68890e-01 1.74828e+00 1.96622e-01 8.87890e-01 1.84444e+00 1.96719e-01 9.07730e-01 1.94047e+00 1.96813e-01 9.28420e-01 2.03637e+00 1.96905e-01 9.49910e-01 2.13213e+00 1.96995e-01 9.72200e-01 2.22776e+00 1.97083e-01 9.95250e-01 2.32324e+00 1.97169e-01 1.01906e+00 2.41858e+00 1.97253e-01 1.04360e+00 2.51377e+00 1.97336e-01 1.06885e+00 2.60882e+00 1.97417e-01 1.09479e+00 2.70373e+00 1.97496e-01 1.12141e+00 2.79849e+00 1.97574e-01 1.14867e+00 2.89311e+00 1.97650e-01 1.17658e+00 2.98758e+00 1.97725e-01 1.20510e+00 3.08191e+00 1.97798e-01 1.23422e+00 3.17610e+00 1.97870e-01 1.26392e+00 3.27015e+00 1.97940e-01 1.29418e+00 3.36406e+00 1.98008e-01 1.32499e+00 3.45783e+00 1.98075e-01 1.35633e+00 3.55147e+00 1.98141e-01 1.38817e+00 3.64497e+00 1.98205e-01 1.42052e+00 3.73834e+00 1.98268e-01 1.45334e+00 3.83158e+00 1.98330e-01 1.48663e+00 3.92470e+00 1.98390e-01 1.52037e+00 4.01769e+00 1.98448e-01 1.55453e+00 4.11056e+00 1.98505e-01 1.58912e+00 4.20332e+00 1.98561e-01 1.62411e+00 4.29596e+00 1.98616e-01 1.65948e+00 4.38848e+00 1.98669e-01 1.69523e+00 4.48090e+00 1.98721e-01 1.73130e+00 4.57322e+00 1.98772e-01 1.76780e+00 4.66543e+00 1.98821e-01 1.80460e+00 4.75755e+00 1.98869e-01 1.84170e+00 4.84957e+00 1.98916e-01 1.87910e+00 4.94150e+00 1.98962e-01 1.91680e+00 5.03334e+00 1.99006e-01 1.95480e+00 5.12509e+00 1.99050e-01 1.99310e+00 5.21677e+00 1.99092e-01 2.03160e+00 5.30837e+00 1.99133e-01 2.07040e+00 5.39989e+00 1.99172e-01 2.10940e+00 5.49134e+00 1.99211e-01 2.14860e+00 5.58273e+00 1.99249e-01 2.18810e+00 5.67405e+00 1.99285e-01 2.22770e+00 5.76531e+00 1.99320e-01 2.26760e+00 5.85651e+00 1.99355e-01 2.30760e+00 5.94766e+00 1.99388e-01 2.34780e+00 6.03876e+00 1.99420e-01 2.38820e+00 6.12981e+00 1.99451e-01 2.42870e+00 6.22081e+00 1.99481e-01 2.46930e+00 6.31178e+00 1.99510e-01 2.51010e+00 6.40270e+00 1.99538e-01 2.55110e+00 6.49359e+00 1.99566e-01 2.59210e+00 6.58445e+00 1.99592e-01 2.63330e+00 6.67527e+00 1.99617e-01 2.67460e+00 6.76607e+00 1.99641e-01 2.71600e+00 6.85685e+00 1.99664e-01 2.75740e+00 6.94760e+00 1.99687e-01 2.79900e+00 7.03832e+00 1.99708e-01 2.84060e+00 7.12904e+00 1.99729e-01 2.88230e+00 7.21973e+00 1.99748e-01 2.92410e+00 7.31041e+00 1.99767e-01 2.96590e+00 7.40108e+00 1.99785e-01 3.00780e+00 7.49174e+00 1.99802e-01 3.04970e+00 7.58240e+00 1.99818e-01 3.09170e+00 7.67304e+00 1.99833e-01 3.13370e+00 7.76368e+00 1.99847e-01 3.17570e+00 7.85432e+00 1.99861e-01 3.21780e+00 7.94495e+00 1.99873e-01 3.25990e+00 8.03559e+00 1.99885e-01 3.30200e+00 8.12622e+00 1.99896e-01 3.34420e+00 8.21686e+00 1.99906e-01 3.38630e+00 8.30750e+00 1.99915e-01 3.42850e+00 8.39814e+00 1.99924e-01 3.47060e+00 8.48878e+00 1.99931e-01 3.51280e+00 8.57943e+00 1.99938e-01 3.55500e+00 8.67008e+00 1.99944e-01 3.59720e+00 8.76074e+00 1.99949e-01 3.63930e+00 8.85141e+00 1.99953e-01 3.68150e+00 8.94208e+00 1.99957e-01 3.72370e+00 9.03275e+00 1.99960e-01 3.76580e+00 9.12343e+00 1.99964e-01 3.80800e+00 9.21412e+00 1.99967e-01 3.85010e+00 9.30481e+00 1.99971e-01 3.89220e+00 0.00000e+00 3.00000e-01 7.00000e-01 9.92747e-02 2.98915e-01 6.99750e-01 1.97024e-01 2.98016e-01 7.02225e-01 2.94423e-01 2.97513e-01 7.05960e-01 3.91512e-01 2.97182e-01 7.10936e-01 4.88733e-01 2.97076e-01 7.16764e-01 5.85965e-01 2.96989e-01 7.23881e-01 6.83183e-01 2.97004e-01 7.31958e-01 7.80395e-01 2.97026e-01 7.41241e-01 8.77535e-01 2.97090e-01 7.51510e-01 9.74635e-01 2.97154e-01 7.62899e-01 1.07164e+00 2.97233e-01 7.75263e-01 1.16858e+00 2.97308e-01 7.88676e-01 1.26542e+00 2.97387e-01 8.03040e-01 1.36216e+00 2.97462e-01 8.18390e-01 1.45880e+00 2.97536e-01 8.34660e-01 1.55532e+00 2.97608e-01 8.51860e-01 1.65173e+00 2.97677e-01 8.69950e-01 1.74801e+00 2.97744e-01 8.88920e-01 1.84417e+00 2.97809e-01 9.08740e-01 1.94020e+00 2.97872e-01 9.29400e-01 2.03610e+00 2.97934e-01 9.50870e-01 2.13186e+00 2.97994e-01 9.73130e-01 2.22748e+00 2.98053e-01 9.96160e-01 2.32296e+00 2.98111e-01 1.01994e+00 2.41830e+00 2.98167e-01 1.04446e+00 2.51350e+00 2.98223e-01 1.06968e+00 2.60855e+00 2.98277e-01 1.09560e+00 2.70346e+00 2.98330e-01 1.12219e+00 2.79822e+00 2.98382e-01 1.14944e+00 2.89284e+00 2.98433e-01 1.17732e+00 2.98732e+00 2.98483e-01 1.20581e+00 3.08165e+00 2.98532e-01 1.23491e+00 3.17584e+00 2.98579e-01 1.26459e+00 3.26990e+00 2.98626e-01 1.29483e+00 3.36381e+00 2.98672e-01 1.32562e+00 3.45758e+00 2.98717e-01 1.35693e+00 3.55122e+00 2.98761e-01 1.38876e+00 3.64473e+00 2.98804e-01 1.42109e+00 3.73810e+00 2.98846e-01 1.45389e+00 3.83135e+00 2.98887e-01 1.48716e+00 3.92447e+00 2.98927e-01 1.52088e+00 4.01747e+00 2.98966e-01 1.55502e+00 4.11035e+00 2.99004e-01 1.58959e+00 4.20311e+00 2.99042e-01 1.62456e+00 4.29575e+00 2.99078e-01 1.65992e+00 4.38829e+00 2.99113e-01 1.69565e+00 4.48071e+00 2.99148e-01 1.73170e+00 4.57303e+00 2.99182e-01 1.76820e+00 4.66525e+00 2.99215e-01 1.80500e+00 4.75737e+00 2.99247e-01 1.84210e+00 4.84940e+00 2.99278e-01 1.87950e+00 4.94133e+00 2.99309e-01 1.91720e+00 5.03318e+00 2.99338e-01 1.95510e+00 5.12494e+00 2.99367e-01 1.99340e+00 5.21662e+00 2.99395e-01 2.03190e+00 5.30822e+00 2.99423e-01 2.07070e+00 5.39975e+00 2.99449e-01 2.10960e+00 5.49121e+00 2.99475e-01 2.14890e+00 5.58260e+00 2.99500e-01 2.18830e+00 5.67393e+00 2.99524e-01 2.22790e+00 5.76519e+00 2.99548e-01 2.26780e+00 5.85640e+00 2.99570e-01 2.30780e+00 5.94756e+00 2.99593e-01 2.34800e+00 6.03866e+00 2.99614e-01 2.38830e+00 6.12971e+00 2.99635e-01 2.42880e+00 6.22072e+00 2.99655e-01 2.46950e+00 6.31169e+00 2.99674e-01 2.51030e+00 6.40262e+00 2.99693e-01 2.55120e+00 6.49352e+00 2.99711e-01 2.59230e+00 6.58438e+00 2.99728e-01 2.63340e+00 6.67521e+00 2.99745e-01 2.67470e+00 6.76601e+00 2.99761e-01 2.71610e+00 6.85679e+00 2.99777e-01 2.75750e+00 6.94754e+00 2.99791e-01 2.79910e+00 7.03827e+00 2.99806e-01 2.84070e+00 7.12899e+00 2.99819e-01 2.88240e+00 7.21969e+00 2.99832e-01 2.92410e+00 7.31038e+00 2.99845e-01 2.96600e+00 7.40105e+00 2.99857e-01 3.00780e+00 7.49171e+00 2.99868e-01 3.04980e+00 7.58237e+00 2.99879e-01 3.09170e+00 7.67302e+00 2.99889e-01 3.13370e+00 7.76366e+00 2.99898e-01 3.17580e+00 7.85430e+00 2.99907e-01 3.21780e+00 7.94494e+00 2.99915e-01 3.25990e+00 8.03557e+00 2.99923e-01 3.30200e+00 8.12621e+00 2.99930e-01 3.34420e+00 8.21685e+00 2.99937e-01 3.38630e+00 8.30749e+00 2.99943e-01 3.42850e+00 8.39813e+00 2.99949e-01 3.47060e+00 8.48878e+00 2.99954e-01 3.51280e+00 8.57943e+00 2.99958e-01 3.55500e+00 8.67008e+00 2.99962e-01 3.59720e+00 8.76074e+00 2.99965e-01 3.63930e+00 8.85141e+00 2.99968e-01 3.68150e+00 8.94208e+00 2.99971e-01 3.72370e+00 9.03275e+00 2.99973e-01 3.76580e+00 9.12343e+00 2.99975e-01 3.80800e+00 9.21412e+00 2.99978e-01 3.85010e+00 9.30481e+00 2.99980e-01 3.89220e+00 0.00000e+00 4.00000e-01 7.00000e-01 9.92202e-02 3.99491e-01 6.99862e-01 1.97166e-01 3.99083e-01 7.02451e-01 2.94473e-01 3.98781e-01 7.06320e-01 3.91643e-01 3.98637e-01 7.11417e-01 4.88774e-01 3.98534e-01 7.17329e-01 5.86007e-01 3.98511e-01 7.24513e-01 6.83167e-01 3.98496e-01 7.32629e-01 7.80363e-01 3.98517e-01 7.41942e-01 8.77466e-01 3.98540e-01 7.52224e-01 9.74550e-01 3.98577e-01 7.63620e-01 1.07154e+00 3.98613e-01 7.75982e-01 1.16846e+00 3.98653e-01 7.89389e-01 1.26528e+00 3.98692e-01 8.03740e-01 1.36202e+00 3.98730e-01 8.19080e-01 1.45865e+00 3.98767e-01 8.35340e-01 1.55517e+00 3.98803e-01 8.52530e-01 1.65157e+00 3.98838e-01 8.70600e-01 1.74785e+00 3.98872e-01 8.89560e-01 1.84401e+00 3.98904e-01 9.09360e-01 1.94004e+00 3.98936e-01 9.30000e-01 2.03593e+00 3.98967e-01 9.51450e-01 2.13169e+00 3.98997e-01 9.73700e-01 2.22731e+00 3.99027e-01 9.96710e-01 2.32279e+00 3.99056e-01 1.02048e+00 2.41813e+00 3.99084e-01 1.04498e+00 2.51333e+00 3.99112e-01 1.07019e+00 2.60839e+00 3.99139e-01 1.09609e+00 2.70329e+00 3.99165e-01 1.12267e+00 2.79806e+00 3.99191e-01 1.14990e+00 2.89268e+00 3.99217e-01 1.17777e+00 2.98716e+00 3.99242e-01 1.20625e+00 3.08150e+00 3.99266e-01 1.23533e+00 3.17569e+00 3.99290e-01 1.26500e+00 3.26974e+00 3.99314e-01 1.29523e+00 3.36366e+00 3.99337e-01 1.32600e+00 3.45744e+00 3.99359e-01 1.35730e+00 3.55108e+00 3.99381e-01 1.38912e+00 3.64459e+00 3.99403e-01 1.42143e+00 3.73796e+00 3.99423e-01 1.45422e+00 3.83121e+00 3.99444e-01 1.48748e+00 3.92434e+00 3.99464e-01 1.52119e+00 4.01734e+00 3.99484e-01 1.55532e+00 4.11022e+00 3.99503e-01 1.58988e+00 4.20298e+00 3.99521e-01 1.62484e+00 4.29563e+00 3.99540e-01 1.66019e+00 4.38817e+00 3.99557e-01 1.69591e+00 4.48060e+00 3.99575e-01 1.73200e+00 4.57292e+00 3.99591e-01 1.76840e+00 4.66514e+00 3.99608e-01 1.80520e+00 4.75727e+00 3.99624e-01 1.84230e+00 4.84930e+00 3.99640e-01 1.87970e+00 4.94123e+00 3.99655e-01 1.91740e+00 5.03308e+00 3.99670e-01 1.95530e+00 5.12485e+00 3.99684e-01 1.99360e+00 5.21653e+00 3.99698e-01 2.03210e+00 5.30814e+00 3.99712e-01 2.07080e+00 5.39967e+00 3.99725e-01 2.10980e+00 5.49113e+00 3.99738e-01 2.14900e+00 5.58253e+00 3.99750e-01 2.18840e+00 5.67386e+00 3.99762e-01 2.22810e+00 5.76513e+00 3.99774e-01 2.26790e+00 5.85634e+00 3.99786e-01 2.30790e+00 5.94749e+00 3.99797e-01 2.34810e+00 6.03860e+00 3.99807e-01 2.38840e+00 6.12966e+00 3.99818e-01 2.42890e+00 6.22067e+00 3.99828e-01 2.46960e+00 6.31164e+00 3.99837e-01 2.51040e+00 6.40258e+00 3.99847e-01 2.55130e+00 6.49347e+00 3.99856e-01 2.59230e+00 6.58434e+00 3.99864e-01 2.63350e+00 6.67517e+00 3.99873e-01 2.67480e+00 6.76597e+00 3.99881e-01 2.71610e+00 6.85675e+00 3.99888e-01 2.75760e+00 6.94751e+00 3.99896e-01 2.79910e+00 7.03824e+00 3.99903e-01 2.84070e+00 7.12896e+00 3.99910e-01 2.88240e+00 7.21966e+00 3.99916e-01 2.92420e+00 7.31035e+00 3.99922e-01 2.96600e+00 7.40103e+00 3.99928e-01 3.00790e+00 7.49169e+00 3.99934e-01 3.04980e+00 7.58235e+00 3.99939e-01 3.09170e+00 7.67300e+00 3.99944e-01 3.13370e+00 7.76364e+00 3.99949e-01 3.17580e+00 7.85429e+00 3.99953e-01 3.21780e+00 7.94493e+00 3.99958e-01 3.25990e+00 8.03556e+00 3.99962e-01 3.30210e+00 8.12620e+00 3.99965e-01 3.34420e+00 8.21684e+00 3.99968e-01 3.38630e+00 8.30748e+00 3.99972e-01 3.42850e+00 8.39812e+00 3.99974e-01 3.47060e+00 8.48877e+00 3.99977e-01 3.51280e+00 8.57942e+00 3.99979e-01 3.55500e+00 8.67008e+00 3.99981e-01 3.59720e+00 8.76074e+00 3.99983e-01 3.63930e+00 8.85140e+00 3.99984e-01 3.68150e+00 8.94208e+00 3.99985e-01 3.72370e+00 9.03275e+00 3.99986e-01 3.76580e+00 9.12343e+00 3.99987e-01 3.80800e+00 9.21412e+00 3.99988e-01 3.85010e+00 9.30481e+00 3.99989e-01 3.89220e+00 0.00000e+00 5.00000e-01 7.00000e-01 9.92958e-02 5.00000e-01 6.99890e-01 1.97120e-01 5.00000e-01 7.02532e-01 2.94554e-01 5.00000e-01 7.06434e-01 3.91632e-01 5.00000e-01 7.11570e-01 4.88821e-01 5.00000e-01 7.17511e-01 5.85998e-01 5.00000e-01 7.24717e-01 6.83177e-01 5.00000e-01 7.32848e-01 7.80344e-01 5.00000e-01 7.42171e-01 8.77451e-01 5.00000e-01 7.52459e-01 9.74519e-01 5.00000e-01 7.63857e-01 1.07150e+00 5.00000e-01 7.76220e-01 1.16842e+00 5.00000e-01 7.89625e-01 1.26524e+00 5.00000e-01 8.03980e-01 1.36198e+00 5.00000e-01 8.19310e-01 1.45860e+00 5.00000e-01 8.35560e-01 1.55512e+00 5.00000e-01 8.52750e-01 1.65152e+00 5.00000e-01 8.70810e-01 1.74780e+00 5.00000e-01 8.89770e-01 1.84396e+00 5.00000e-01 9.09560e-01 1.93999e+00 5.00000e-01 9.30200e-01 2.03588e+00 5.00000e-01 9.51650e-01 2.13164e+00 5.00000e-01 9.73890e-01 2.22726e+00 5.00000e-01 9.96900e-01 2.32274e+00 5.00000e-01 1.02066e+00 2.41808e+00 5.00000e-01 1.04515e+00 2.51328e+00 5.00000e-01 1.07036e+00 2.60833e+00 5.00000e-01 1.09626e+00 2.70324e+00 5.00000e-01 1.12283e+00 2.79801e+00 5.00000e-01 1.15005e+00 2.89263e+00 5.00000e-01 1.17792e+00 2.98711e+00 5.00000e-01 1.20640e+00 3.08144e+00 5.00000e-01 1.23547e+00 3.17564e+00 5.00000e-01 1.26513e+00 3.26969e+00 5.00000e-01 1.29536e+00 3.36361e+00 5.00000e-01 1.32613e+00 3.45739e+00 5.00000e-01 1.35743e+00 3.55103e+00 5.00000e-01 1.38924e+00 3.64454e+00 5.00000e-01 1.42155e+00 3.73792e+00 5.00000e-01 1.45434e+00 3.83117e+00 5.00000e-01 1.48759e+00 3.92429e+00 5.00000e-01 1.52129e+00 4.01730e+00 5.00000e-01 1.55542e+00 4.11018e+00 5.00000e-01 1.58998e+00 4.20294e+00 5.00000e-01 1.62493e+00 4.29559e+00 5.00000e-01 1.66028e+00 4.38813e+00 5.00000e-01 1.69600e+00 4.48056e+00 5.00000e-01 1.73210e+00 4.57288e+00 5.00000e-01 1.76850e+00 4.66511e+00 5.00000e-01 1.80530e+00 4.75723e+00 5.00000e-01 1.84230e+00 4.84926e+00 5.00000e-01 1.87970e+00 4.94120e+00 5.00000e-01 1.91740e+00 5.03305e+00 5.00000e-01 1.95540e+00 5.12482e+00 5.00000e-01 1.99360e+00 5.21650e+00 5.00000e-01 2.03210e+00 5.30811e+00 5.00000e-01 2.07090e+00 5.39965e+00 5.00000e-01 2.10990e+00 5.49111e+00 5.00000e-01 2.14910e+00 5.58250e+00 5.00000e-01 2.18850e+00 5.67383e+00 5.00000e-01 2.22810e+00 5.76510e+00 5.00000e-01 2.26790e+00 5.85632e+00 5.00000e-01 2.30790e+00 5.94747e+00 5.00000e-01 2.34810e+00 6.03858e+00 5.00000e-01 2.38850e+00 6.12964e+00 5.00000e-01 2.42900e+00 6.22065e+00 5.00000e-01 2.46960e+00 6.31163e+00 5.00000e-01 2.51040e+00 6.40256e+00 5.00000e-01 2.55130e+00 6.49346e+00 5.00000e-01 2.59240e+00 6.58432e+00 5.00000e-01 2.63350e+00 6.67516e+00 5.00000e-01 2.67480e+00 6.76596e+00 5.00000e-01 2.71610e+00 6.85674e+00 5.00000e-01 2.75760e+00 6.94750e+00 5.00000e-01 2.79910e+00 7.03824e+00 5.00000e-01 2.84080e+00 7.12895e+00 5.00000e-01 2.88240e+00 7.21966e+00 5.00000e-01 2.92420e+00 7.31034e+00 5.00000e-01 2.96600e+00 7.40102e+00 5.00000e-01 3.00790e+00 7.49169e+00 5.00000e-01 3.04980e+00 7.58234e+00 5.00000e-01 3.09180e+00 7.67299e+00 5.00000e-01 3.13380e+00 7.76364e+00 5.00000e-01 3.17580e+00 7.85428e+00 5.00000e-01 3.21790e+00 7.94492e+00 5.00000e-01 3.25990e+00 8.03556e+00 5.00000e-01 3.30210e+00 8.12620e+00 5.00000e-01 3.34420e+00 8.21684e+00 5.00000e-01 3.38630e+00 8.30748e+00 5.00000e-01 3.42850e+00 8.39812e+00 5.00000e-01 3.47060e+00 8.48877e+00 5.00000e-01 3.51280e+00 8.57942e+00 5.00000e-01 3.55500e+00 8.67008e+00 5.00000e-01 3.59720e+00 8.76074e+00 5.00000e-01 3.63930e+00 8.85140e+00 5.00000e-01 3.68150e+00 8.94208e+00 5.00000e-01 3.72360e+00 9.03275e+00 5.00000e-01 3.76580e+00 9.12344e+00 5.00000e-01 3.80800e+00 9.21412e+00 5.00000e-01 3.85010e+00 9.30481e+00 5.00000e-01 3.89220e+00 0.00000e+00 6.00000e-01 7.00000e-01 9.92202e-02 6.00509e-01 6.99862e-01 1.97166e-01 6.00917e-01 7.02451e-01 2.94473e-01 6.01219e-01 7.06320e-01 3.91643e-01 6.01363e-01 7.11417e-01 4.88774e-01 6.01466e-01 7.17329e-01 5.86007e-01 6.01489e-01 7.24513e-01 6.83167e-01 6.01504e-01 7.32629e-01 7.80363e-01 6.01483e-01 7.41942e-01 8.77466e-01 6.01460e-01 7.52224e-01 9.74550e-01 6.01423e-01 7.63620e-01 1.07154e+00 6.01387e-01 7.75982e-01 1.16846e+00 6.01347e-01 7.89389e-01 1.26528e+00 6.01308e-01 8.03740e-01 1.36202e+00 6.01270e-01 8.19080e-01 1.45865e+00 6.01233e-01 8.35340e-01 1.55517e+00 6.01197e-01 8.52530e-01 1.65157e+00 6.01162e-01 8.70600e-01 1.74785e+00 6.01128e-01 8.89560e-01 1.84401e+00 6.01096e-01 9.09360e-01 1.94004e+00 6.01064e-01 9.30000e-01 2.03593e+00 6.01033e-01 9.51450e-01 2.13169e+00 6.01003e-01 9.73700e-01 2.22731e+00 6.00973e-01 9.96710e-01 2.32279e+00 6.00944e-01 1.02048e+00 2.41813e+00 6.00916e-01 1.04498e+00 2.51333e+00 6.00888e-01 1.07019e+00 2.60839e+00 6.00861e-01 1.09609e+00 2.70329e+00 6.00835e-01 1.12267e+00 2.79806e+00 6.00809e-01 1.14990e+00 2.89268e+00 6.00783e-01 1.17777e+00 2.98716e+00 6.00758e-01 1.20625e+00 3.08150e+00 6.00734e-01 1.23533e+00 3.17569e+00 6.00710e-01 1.26500e+00 3.26974e+00 6.00686e-01 1.29523e+00 3.36366e+00 6.00663e-01 1.32600e+00 3.45744e+00 6.00641e-01 1.35730e+00 3.55108e+00 6.00619e-01 1.38912e+00 3.64459e+00 6.00597e-01 1.42143e+00 3.73796e+00 6.00576e-01 1.45422e+00 3.83121e+00 6.00556e-01 1.48748e+00 3.92434e+00 6.00536e-01 1.52119e+00 4.01734e+00 6.00516e-01 1.55532e+00 4.11022e+00 6.00497e-01 1.58988e+00 4.20298e+00 6.00479e-01 1.62484e+00 4.29563e+00 6.00460e-01 1.66019e+00 4.38817e+00 6.00443e-01 1.69591e+00 4.48060e+00 6.00425e-01 1.73200e+00 4.57292e+00 6.00408e-01 1.76840e+00 4.66514e+00 6.00392e-01 1.80520e+00 4.75727e+00 6.00376e-01 1.84230e+00 4.84930e+00 6.00360e-01 1.87970e+00 4.94123e+00 6.00345e-01 1.91740e+00 5.03308e+00 6.00330e-01 1.95530e+00 5.12485e+00 6.00316e-01 1.99360e+00 5.21653e+00 6.00302e-01 2.03210e+00 5.30814e+00 6.00288e-01 2.07080e+00 5.39967e+00 6.00275e-01 2.10980e+00 5.49113e+00 6.00262e-01 2.14900e+00 5.58253e+00 6.00250e-01 2.18840e+00 5.67386e+00 6.00237e-01 2.22810e+00 5.76513e+00 6.00226e-01 2.26790e+00 5.85634e+00 6.00214e-01 2.30790e+00 5.94749e+00 6.00203e-01 2.34810e+00 6.03860e+00 6.00193e-01 2.38840e+00 6.12966e+00 6.00182e-01 2.42890e+00 6.22067e+00 6.00172e-01 2.46960e+00 6.31164e+00 6.00163e-01 2.51040e+00 6.40258e+00 6.00153e-01 2.55130e+00 6.49347e+00 6.00144e-01 2.59230e+00 6.58434e+00 6.00135e-01 2.63350e+00 6.67517e+00 6.00127e-01 2.67480e+00 6.76597e+00 6.00119e-01 2.71610e+00 6.85675e+00 6.00111e-01 2.75760e+00 6.94751e+00 6.00104e-01 2.79910e+00 7.03824e+00 6.00097e-01 2.84070e+00 7.12896e+00 6.00090e-01 2.88240e+00 7.21966e+00 6.00084e-01 2.92420e+00 7.31035e+00 6.00077e-01 2.96600e+00 7.40103e+00 6.00071e-01 3.00790e+00 7.49169e+00 6.00066e-01 3.04980e+00 7.58235e+00 6.00060e-01 3.09170e+00 7.67300e+00 6.00055e-01 3.13370e+00 7.76364e+00 6.00051e-01 3.17580e+00 7.85429e+00 6.00046e-01 3.21780e+00 7.94493e+00 6.00042e-01 3.25990e+00 8.03556e+00 6.00038e-01 3.30210e+00 8.12620e+00 6.00035e-01 3.34420e+00 8.21684e+00 6.00031e-01 3.38630e+00 8.30748e+00 6.00028e-01 3.42850e+00 8.39812e+00 6.00025e-01 3.47060e+00 8.48877e+00 6.00023e-01 3.51280e+00 8.57942e+00 6.00021e-01 3.55500e+00 8.67008e+00 6.00019e-01 3.59720e+00 8.76074e+00 6.00017e-01 3.63930e+00 8.85140e+00 6.00016e-01 3.68150e+00 8.94208e+00 6.00014e-01 3.72370e+00 9.03275e+00 6.00013e-01 3.76580e+00 9.12343e+00 6.00012e-01 3.80800e+00 9.21412e+00 6.00011e-01 3.85010e+00 9.30481e+00 6.00010e-01 3.89220e+00 0.00000e+00 7.00000e-01 7.00000e-01 9.92747e-02 7.01085e-01 6.99750e-01 1.97024e-01 7.01984e-01 7.02225e-01 2.94423e-01 7.02487e-01 7.05960e-01 3.91512e-01 7.02818e-01 7.10936e-01 4.88733e-01 7.02924e-01 7.16764e-01 5.85965e-01 7.03011e-01 7.23881e-01 6.83183e-01 7.02996e-01 7.31958e-01 7.80395e-01 7.02974e-01 7.41241e-01 8.77535e-01 7.02910e-01 7.51510e-01 9.74635e-01 7.02846e-01 7.62899e-01 1.07164e+00 7.02767e-01 7.75263e-01 1.16858e+00 7.02692e-01 7.88676e-01 1.26542e+00 7.02613e-01 8.03040e-01 1.36216e+00 7.02538e-01 8.18390e-01 1.45880e+00 7.02463e-01 8.34660e-01 1.55532e+00 7.02392e-01 8.51860e-01 1.65173e+00 7.02323e-01 8.69950e-01 1.74801e+00 7.02256e-01 8.88920e-01 1.84417e+00 7.02191e-01 9.08740e-01 1.94020e+00 7.02128e-01 9.29400e-01 2.03610e+00 7.02066e-01 9.50870e-01 2.13186e+00 7.02006e-01 9.73130e-01 2.22748e+00 7.01947e-01 9.96160e-01 2.32296e+00 7.01889e-01 1.01994e+00 2.41830e+00 7.01833e-01 1.04446e+00 2.51350e+00 7.01777e-01 1.06968e+00 2.60855e+00 7.01723e-01 1.09560e+00 2.70346e+00 7.01670e-01 1.12219e+00 2.79822e+00 7.01618e-01 1.14944e+00 2.89284e+00 7.01567e-01 1.17732e+00 2.98732e+00 7.01517e-01 1.20581e+00 3.08165e+00 7.01468e-01 1.23491e+00 3.17584e+00 7.01421e-01 1.26459e+00 3.26990e+00 7.01374e-01 1.29483e+00 3.36381e+00 7.01328e-01 1.32562e+00 3.45758e+00 7.01283e-01 1.35693e+00 3.55122e+00 7.01239e-01 1.38876e+00 3.64473e+00 7.01196e-01 1.42109e+00 3.73810e+00 7.01154e-01 1.45389e+00 3.83135e+00 7.01113e-01 1.48716e+00 3.92447e+00 7.01073e-01 1.52088e+00 4.01747e+00 7.01034e-01 1.55502e+00 4.11035e+00 7.00996e-01 1.58959e+00 4.20311e+00 7.00958e-01 1.62456e+00 4.29575e+00 7.00922e-01 1.65992e+00 4.38829e+00 7.00886e-01 1.69565e+00 4.48071e+00 7.00852e-01 1.73170e+00 4.57303e+00 7.00818e-01 1.76820e+00 4.66525e+00 7.00785e-01 1.80500e+00 4.75737e+00 7.00753e-01 1.84210e+00 4.84940e+00 7.00722e-01 1.87950e+00 4.94133e+00 7.00691e-01 1.91720e+00 5.03318e+00 7.00661e-01 1.95510e+00 5.12494e+00 7.00633e-01 1.99340e+00 5.21662e+00 7.00605e-01 2.03190e+00 5.30822e+00 7.00577e-01 2.07070e+00 5.39975e+00 7.00551e-01 2.10960e+00 5.49121e+00 7.00525e-01 2.14890e+00 5.58260e+00 7.00500e-01 2.18830e+00 5.67393e+00 7.00476e-01 2.22790e+00 5.76519e+00 7.00452e-01 2.26780e+00 5.85640e+00 7.00429e-01 2.30780e+00 5.94756e+00 7.00407e-01 2.34800e+00 6.03866e+00 7.00386e-01 2.38830e+00 6.12971e+00 7.00365e-01 2.42880e+00 6.22072e+00 7.00345e-01 2.46950e+00 6.31169e+00 7.00326e-01 2.51030e+00 6.40262e+00 7.00307e-01 2.55120e+00 6.49352e+00 7.00289e-01 2.59230e+00 6.58438e+00 7.00272e-01 2.63340e+00 6.67521e+00 7.00255e-01 2.67470e+00 6.76601e+00 7.00239e-01 2.71610e+00 6.85679e+00 7.00223e-01 2.75750e+00 6.94754e+00 7.00208e-01 2.79910e+00 7.03827e+00 7.00194e-01 2.84070e+00 7.12899e+00 7.00180e-01 2.88240e+00 7.21969e+00 7.00167e-01 2.92410e+00 7.31038e+00 7.00155e-01 2.96600e+00 7.40105e+00 7.00143e-01 3.00780e+00 7.49171e+00 7.00132e-01 3.04980e+00 7.58237e+00 7.00121e-01 3.09170e+00 7.67302e+00 7.00111e-01 3.13370e+00 7.76366e+00 7.00102e-01 3.17580e+00 7.85430e+00 7.00093e-01 3.21780e+00 7.94494e+00 7.00084e-01 3.25990e+00 8.03557e+00 7.00076e-01 3.30200e+00 8.12621e+00 7.00069e-01 3.34420e+00 8.21685e+00 7.00063e-01 3.38630e+00 8.30749e+00 7.00056e-01 3.42850e+00 8.39813e+00 7.00051e-01 3.47060e+00 8.48878e+00 7.00046e-01 3.51280e+00 8.57943e+00 7.00041e-01 3.55500e+00 8.67008e+00 7.00038e-01 3.59720e+00 8.76074e+00 7.00034e-01 3.63930e+00 8.85141e+00 7.00031e-01 3.68150e+00 8.94208e+00 7.00029e-01 3.72370e+00 9.03275e+00 7.00026e-01 3.76580e+00 9.12343e+00 7.00024e-01 3.80800e+00 9.21412e+00 7.00022e-01 3.85010e+00 9.30481e+00 7.00020e-01 3.89220e+00 0.00000e+00 8.00000e-01 7.00000e-01 9.90915e-02 8.01908e-01 6.99565e-01 1.96931e-01 8.03201e-01 7.01803e-01 2.94128e-01 8.04004e-01 7.05317e-01 3.91342e-01 8.04238e-01 7.10079e-01 4.88612e-01 8.04461e-01 7.15776e-01 5.85932e-01 8.04488e-01 7.22794e-01 6.83208e-01 8.04502e-01 7.30814e-01 7.80478e-01 8.04432e-01 7.40059e-01 8.77660e-01 8.04355e-01 7.50315e-01 9.74796e-01 8.04247e-01 7.61699e-01 1.07183e+00 8.04138e-01 7.74072e-01 1.16879e+00 8.04022e-01 7.87497e-01 1.26564e+00 8.03909e-01 8.01880e-01 1.36240e+00 8.03796e-01 8.17250e-01 1.45905e+00 8.03687e-01 8.33550e-01 1.55558e+00 8.03581e-01 8.50770e-01 1.65199e+00 8.03478e-01 8.68890e-01 1.74828e+00 8.03378e-01 8.87890e-01 1.84444e+00 8.03281e-01 9.07730e-01 1.94048e+00 8.03187e-01 9.28420e-01 2.03637e+00 8.03095e-01 9.49910e-01 2.13213e+00 8.03005e-01 9.72200e-01 2.22776e+00 8.02917e-01 9.95250e-01 2.32324e+00 8.02831e-01 1.01906e+00 2.41858e+00 8.02747e-01 1.04360e+00 2.51377e+00 8.02664e-01 1.06885e+00 2.60882e+00 8.02583e-01 1.09479e+00 2.70373e+00 8.02504e-01 1.12141e+00 2.79849e+00 8.02426e-01 1.14867e+00 2.89311e+00 8.02350e-01 1.17658e+00 2.98758e+00 8.02275e-01 1.20510e+00 3.08191e+00 8.02202e-01 1.23422e+00 3.17610e+00 8.02130e-01 1.26392e+00 3.27015e+00 8.02060e-01 1.29418e+00 3.36406e+00 8.01992e-01 1.32499e+00 3.45783e+00 8.01925e-01 1.35633e+00 3.55147e+00 8.01859e-01 1.38817e+00 3.64497e+00 8.01795e-01 1.42052e+00 3.73834e+00 8.01732e-01 1.45334e+00 3.83158e+00 8.01670e-01 1.48663e+00 3.92470e+00 8.01610e-01 1.52037e+00 4.01769e+00 8.01552e-01 1.55453e+00 4.11056e+00 8.01494e-01 1.58912e+00 4.20332e+00 8.01439e-01 1.62411e+00 4.29596e+00 8.01384e-01 1.65948e+00 4.38848e+00 8.01331e-01 1.69523e+00 4.48090e+00 8.01279e-01 1.73130e+00 4.57322e+00 8.01228e-01 1.76780e+00 4.66543e+00 8.01179e-01 1.80460e+00 4.75755e+00 8.01131e-01 1.84170e+00 4.84957e+00 8.01084e-01 1.87910e+00 4.94150e+00 8.01038e-01 1.91680e+00 5.03334e+00 8.00994e-01 1.95480e+00 5.12509e+00 8.00950e-01 1.99310e+00 5.21677e+00 8.00908e-01 2.03160e+00 5.30837e+00 8.00867e-01 2.07040e+00 5.39989e+00 8.00827e-01 2.10940e+00 5.49134e+00 8.00789e-01 2.14860e+00 5.58273e+00 8.00751e-01 2.18810e+00 5.67405e+00 8.00715e-01 2.22770e+00 5.76531e+00 8.00679e-01 2.26760e+00 5.85651e+00 8.00645e-01 2.30760e+00 5.94766e+00 8.00612e-01 2.34780e+00 6.03876e+00 8.00580e-01 2.38820e+00 6.12981e+00 8.00549e-01 2.42870e+00 6.22081e+00 8.00519e-01 2.46930e+00 6.31178e+00 8.00489e-01 2.51010e+00 6.40270e+00 8.00461e-01 2.55110e+00 6.49359e+00 8.00434e-01 2.59210e+00 6.58445e+00 8.00408e-01 2.63330e+00 6.67527e+00 8.00383e-01 2.67460e+00 6.76607e+00 8.00359e-01 2.71600e+00 6.85685e+00 8.00335e-01 2.75740e+00 6.94760e+00 8.00313e-01 2.79900e+00 7.03832e+00 8.00292e-01 2.84060e+00 7.12904e+00 8.00271e-01 2.88230e+00 7.21973e+00 8.00252e-01 2.92410e+00 7.31041e+00 8.00233e-01 2.96590e+00 7.40108e+00 8.00215e-01 3.00780e+00 7.49174e+00 8.00198e-01 3.04970e+00 7.58240e+00 8.00182e-01 3.09170e+00 7.67304e+00 8.00167e-01 3.13370e+00 7.76368e+00 8.00153e-01 3.17570e+00 7.85432e+00 8.00139e-01 3.21780e+00 7.94495e+00 8.00126e-01 3.25990e+00 8.03559e+00 8.00115e-01 3.30200e+00 8.12622e+00 8.00104e-01 3.34420e+00 8.21686e+00 8.00094e-01 3.38630e+00 8.30750e+00 8.00085e-01 3.42850e+00 8.39814e+00 8.00076e-01 3.47060e+00 8.48878e+00 8.00069e-01 3.51280e+00 8.57943e+00 8.00062e-01 3.55500e+00 8.67008e+00 8.00056e-01 3.59720e+00 8.76074e+00 8.00051e-01 3.63930e+00 8.85141e+00 8.00047e-01 3.68150e+00 8.94208e+00 8.00043e-01 3.72370e+00 9.03275e+00 8.00039e-01 3.76580e+00 9.12343e+00 8.00036e-01 3.80800e+00 9.21412e+00 8.00032e-01 3.85010e+00 9.30481e+00 8.00029e-01 3.89220e+00 0.00000e+00 9.00000e-01 7.00000e-01 9.90896e-02 9.03063e-01 6.99270e-01 1.96319e-01 9.05003e-01 7.01067e-01 2.93671e-01 9.05335e-01 7.04202e-01 3.91080e-01 9.05757e-01 7.08693e-01 4.88479e-01 9.05856e-01 7.14256e-01 5.85928e-01 9.05955e-01 7.21161e-01 6.83289e-01 9.05913e-01 7.29137e-01 7.80637e-01 9.05852e-01 7.38350e-01 8.77875e-01 9.05732e-01 7.48607e-01 9.75057e-01 9.05605e-01 7.59999e-01 1.07212e+00 9.05458e-01 7.72396e-01 1.16911e+00 9.05312e-01 7.85846e-01 1.26598e+00 9.05163e-01 8.00260e-01 1.36276e+00 9.05018e-01 8.15670e-01 1.45941e+00 9.04875e-01 8.32000e-01 1.55595e+00 9.04737e-01 8.49260e-01 1.65237e+00 9.04603e-01 8.67410e-01 1.74867e+00 9.04472e-01 8.86450e-01 1.84483e+00 9.04345e-01 9.06330e-01 1.94087e+00 9.04221e-01 9.27050e-01 2.03677e+00 9.04100e-01 9.48580e-01 2.13253e+00 9.03981e-01 9.70900e-01 2.22815e+00 9.03865e-01 9.93990e-01 2.32363e+00 9.03752e-01 1.01784e+00 2.41897e+00 9.03640e-01 1.04241e+00 2.51417e+00 9.03531e-01 1.06770e+00 2.60921e+00 9.03424e-01 1.09367e+00 2.70412e+00 9.03320e-01 1.12032e+00 2.79888e+00 9.03217e-01 1.14762e+00 2.89349e+00 9.03116e-01 1.17556e+00 2.98796e+00 9.03018e-01 1.20411e+00 3.08229e+00 9.02921e-01 1.23326e+00 3.17647e+00 9.02826e-01 1.26299e+00 3.27051e+00 9.02734e-01 1.29328e+00 3.36442e+00 9.02643e-01 1.32412e+00 3.45818e+00 9.02554e-01 1.35548e+00 3.55181e+00 9.02467e-01 1.38736e+00 3.64531e+00 9.02382e-01 1.41973e+00 3.73867e+00 9.02299e-01 1.45258e+00 3.83191e+00 9.02218e-01 1.48590e+00 3.92502e+00 9.02138e-01 1.51966e+00 4.01800e+00 9.02061e-01 1.55385e+00 4.11087e+00 9.01985e-01 1.58846e+00 4.20361e+00 9.01911e-01 1.62348e+00 4.29625e+00 9.01839e-01 1.65888e+00 4.38877e+00 9.01768e-01 1.69465e+00 4.48118e+00 9.01699e-01 1.73080e+00 4.57349e+00 9.01632e-01 1.76730e+00 4.66569e+00 9.01567e-01 1.80410e+00 4.75780e+00 9.01503e-01 1.84120e+00 4.84981e+00 9.01441e-01 1.87860e+00 4.94173e+00 9.01380e-01 1.91640e+00 5.03356e+00 9.01321e-01 1.95440e+00 5.12531e+00 9.01264e-01 1.99270e+00 5.21698e+00 9.01208e-01 2.03120e+00 5.30857e+00 9.01154e-01 2.07000e+00 5.40008e+00 9.01101e-01 2.10900e+00 5.49153e+00 9.01049e-01 2.14830e+00 5.58291e+00 9.00999e-01 2.18770e+00 5.67422e+00 9.00951e-01 2.22740e+00 5.76547e+00 9.00904e-01 2.26730e+00 5.85667e+00 9.00859e-01 2.30730e+00 5.94781e+00 9.00814e-01 2.34750e+00 6.03890e+00 9.00772e-01 2.38790e+00 6.12994e+00 9.00730e-01 2.42840e+00 6.22094e+00 9.00690e-01 2.46910e+00 6.31190e+00 9.00652e-01 2.50990e+00 6.40282e+00 9.00614e-01 2.55090e+00 6.49370e+00 9.00578e-01 2.59200e+00 6.58455e+00 9.00543e-01 2.63310e+00 6.67537e+00 9.00510e-01 2.67440e+00 6.76616e+00 9.00478e-01 2.71580e+00 6.85693e+00 9.00447e-01 2.75730e+00 6.94767e+00 9.00417e-01 2.79890e+00 7.03840e+00 9.00388e-01 2.84050e+00 7.12910e+00 9.00361e-01 2.88220e+00 7.21979e+00 9.00335e-01 2.92400e+00 7.31047e+00 9.00310e-01 2.96580e+00 7.40114e+00 9.00286e-01 3.00770e+00 7.49179e+00 9.00264e-01 3.04960e+00 7.58244e+00 9.00243e-01 3.09160e+00 7.67308e+00 9.00222e-01 3.13360e+00 7.76372e+00 9.00203e-01 3.17570e+00 7.85435e+00 9.00185e-01 3.21780e+00 7.94498e+00 9.00169e-01 3.25990e+00 8.03561e+00 9.00153e-01 3.30200e+00 8.12624e+00 9.00138e-01 3.34410e+00 8.21688e+00 9.00125e-01 3.38630e+00 8.30751e+00 9.00113e-01 3.42850e+00 8.39815e+00 9.00101e-01 3.47060e+00 8.48879e+00 9.00091e-01 3.51280e+00 8.57944e+00 9.00083e-01 3.55500e+00 8.67009e+00 9.00075e-01 3.59720e+00 8.76074e+00 9.00068e-01 3.63930e+00 8.85141e+00 9.00062e-01 3.68150e+00 8.94208e+00 9.00057e-01 3.72370e+00 9.03275e+00 9.00052e-01 3.76580e+00 9.12343e+00 9.00048e-01 3.80800e+00 9.21412e+00 9.00042e-01 3.85010e+00 9.30481e+00 9.00036e-01 3.89230e+00 0.00000e+00 1.00000e+00 7.00000e-01 9.77855e-02 1.00554e+00 6.98220e-01 1.95323e-01 1.00593e+00 6.99534e-01 2.93313e-01 1.00682e+00 7.02282e-01 3.90801e-01 1.00693e+00 7.06566e-01 4.88475e-01 1.00723e+00 7.12019e-01 5.85997e-01 1.00724e+00 7.18863e-01 6.83510e-01 1.00726e+00 7.26834e-01 7.80914e-01 1.00716e+00 7.36059e-01 8.78232e-01 1.00704e+00 7.46350e-01 9.75448e-01 1.00689e+00 7.57780e-01 1.07256e+00 1.00672e+00 7.70224e-01 1.16956e+00 1.00654e+00 7.83721e-01 1.26646e+00 1.00637e+00 7.98187e-01 1.36324e+00 1.00619e+00 8.13640e-01 1.45991e+00 1.00602e+00 8.30020e-01 1.55646e+00 1.00585e+00 8.47330e-01 1.65288e+00 1.00569e+00 8.65530e-01 1.74918e+00 1.00553e+00 8.84610e-01 1.84535e+00 1.00537e+00 9.04540e-01 1.94139e+00 1.00522e+00 9.25310e-01 2.03729e+00 1.00507e+00 9.46880e-01 2.13305e+00 1.00493e+00 9.69250e-01 2.22867e+00 1.00478e+00 9.92390e-01 2.32415e+00 1.00464e+00 1.01628e+00 2.41949e+00 1.00451e+00 1.04089e+00 2.51468e+00 1.00437e+00 1.06622e+00 2.60973e+00 1.00424e+00 1.09224e+00 2.70463e+00 1.00411e+00 1.11893e+00 2.79938e+00 1.00399e+00 1.14627e+00 2.89399e+00 1.00386e+00 1.17425e+00 2.98846e+00 1.00374e+00 1.20284e+00 3.08278e+00 1.00362e+00 1.23203e+00 3.17696e+00 1.00350e+00 1.26180e+00 3.27099e+00 1.00339e+00 1.29213e+00 3.36489e+00 1.00328e+00 1.32300e+00 3.45865e+00 1.00317e+00 1.35440e+00 3.55227e+00 1.00306e+00 1.38632e+00 3.64575e+00 1.00296e+00 1.41873e+00 3.73911e+00 1.00285e+00 1.45161e+00 3.83234e+00 1.00275e+00 1.48496e+00 3.92544e+00 1.00266e+00 1.51875e+00 4.01841e+00 1.00256e+00 1.55298e+00 4.11127e+00 1.00247e+00 1.58762e+00 4.20400e+00 1.00237e+00 1.62267e+00 4.29663e+00 1.00229e+00 1.65810e+00 4.38914e+00 1.00220e+00 1.69390e+00 4.48154e+00 1.00211e+00 1.73010e+00 4.57384e+00 1.00203e+00 1.76660e+00 4.66603e+00 1.00195e+00 1.80340e+00 4.75813e+00 1.00187e+00 1.84060e+00 4.85013e+00 1.00179e+00 1.87800e+00 4.94204e+00 1.00172e+00 1.91580e+00 5.03386e+00 1.00164e+00 1.95380e+00 5.12560e+00 1.00157e+00 1.99210e+00 5.21726e+00 1.00150e+00 2.03070e+00 5.30884e+00 1.00144e+00 2.06950e+00 5.40034e+00 1.00137e+00 2.10860e+00 5.49177e+00 1.00131e+00 2.14780e+00 5.58314e+00 1.00125e+00 2.18730e+00 5.67445e+00 1.00119e+00 2.22700e+00 5.76569e+00 1.00113e+00 2.26690e+00 5.85687e+00 1.00107e+00 2.30700e+00 5.94801e+00 1.00102e+00 2.34720e+00 6.03909e+00 1.00096e+00 2.38760e+00 6.13012e+00 1.00091e+00 2.42820e+00 6.22111e+00 1.00086e+00 2.46890e+00 6.31206e+00 1.00081e+00 2.50970e+00 6.40297e+00 1.00077e+00 2.55070e+00 6.49384e+00 1.00072e+00 2.59170e+00 6.58468e+00 1.00068e+00 2.63290e+00 6.67550e+00 1.00064e+00 2.67420e+00 6.76628e+00 1.00060e+00 2.71560e+00 6.85704e+00 1.00056e+00 2.75710e+00 6.94778e+00 1.00052e+00 2.79870e+00 7.03849e+00 1.00049e+00 2.84040e+00 7.12919e+00 1.00045e+00 2.88210e+00 7.21988e+00 1.00042e+00 2.92390e+00 7.31055e+00 1.00039e+00 2.96570e+00 7.40120e+00 1.00036e+00 3.00760e+00 7.49185e+00 1.00033e+00 3.04960e+00 7.58250e+00 1.00030e+00 3.09160e+00 7.67313e+00 1.00028e+00 3.13360e+00 7.76376e+00 1.00025e+00 3.17560e+00 7.85439e+00 1.00023e+00 3.21770e+00 7.94502e+00 1.00021e+00 3.25980e+00 8.03564e+00 1.00019e+00 3.30200e+00 8.12627e+00 1.00017e+00 3.34410e+00 8.21690e+00 1.00016e+00 3.38630e+00 8.30753e+00 1.00014e+00 3.42840e+00 8.39816e+00 1.00013e+00 3.47060e+00 8.48880e+00 1.00012e+00 3.51280e+00 8.57944e+00 1.00010e+00 3.55500e+00 8.67009e+00 1.00009e+00 3.59720e+00 8.76075e+00 1.00009e+00 3.63930e+00 8.85141e+00 1.00008e+00 3.68150e+00 8.94207e+00 1.00007e+00 3.72370e+00 9.03275e+00 1.00007e+00 3.76580e+00 9.12343e+00 1.00006e+00 3.80800e+00 9.21412e+00 1.00005e+00 3.85010e+00 9.30481e+00 1.00004e+00 3.89230e+00 0.00000e+00 0.00000e+00 8.00000e-01 9.66481e-02 -7.47120e-03 7.99290e-01 1.92934e-01 -7.85930e-03 8.01022e-01 2.89718e-01 -9.10620e-03 8.03840e-01 3.86085e-01 -9.45240e-03 8.07793e-01 4.82721e-01 -9.83880e-03 8.13230e-01 5.79124e-01 -9.87800e-03 8.19836e-01 6.75569e-01 -9.87600e-03 8.27785e-01 7.71845e-01 -9.73040e-03 8.36827e-01 8.68095e-01 -9.56920e-03 8.47057e-01 9.64215e-01 -9.35120e-03 8.58318e-01 1.06028e+00 -9.13670e-03 8.70659e-01 1.15624e+00 -8.90240e-03 8.83983e-01 1.25213e+00 -8.67810e-03 8.98314e-01 1.34792e+00 -8.44870e-03 9.13590e-01 1.44363e+00 -8.22950e-03 9.29810e-01 1.53924e+00 -8.01050e-03 9.46930e-01 1.63475e+00 -7.80000e-03 9.64960e-01 1.73016e+00 -7.59140e-03 9.83840e-01 1.82546e+00 -7.38940e-03 1.00359e+00 1.92066e+00 -7.18980e-03 1.02415e+00 2.01574e+00 -6.99530e-03 1.04553e+00 2.11070e+00 -6.80340e-03 1.06770e+00 2.20554e+00 -6.61570e-03 1.09063e+00 2.30026e+00 -6.43060e-03 1.11432e+00 2.39487e+00 -6.24920e-03 1.13873e+00 2.48934e+00 -6.07050e-03 1.16385e+00 2.58369e+00 -5.89510e-03 1.18966e+00 2.67792e+00 -5.72250e-03 1.21615e+00 2.77202e+00 -5.55300e-03 1.24329e+00 2.86599e+00 -5.38640e-03 1.27106e+00 2.95984e+00 -5.22270e-03 1.29945e+00 3.05356e+00 -5.06190e-03 1.32844e+00 3.14716e+00 -4.90410e-03 1.35801e+00 3.24064e+00 -4.74910e-03 1.38814e+00 3.33399e+00 -4.59710e-03 1.41882e+00 3.42722e+00 -4.44780e-03 1.45004e+00 3.52034e+00 -4.30150e-03 1.48176e+00 3.61333e+00 -4.15790e-03 1.51398e+00 3.70622e+00 -4.01720e-03 1.54668e+00 3.79898e+00 -3.87930e-03 1.57985e+00 3.89164e+00 -3.74410e-03 1.61347e+00 3.98419e+00 -3.61180e-03 1.64753e+00 4.07664e+00 -3.48210e-03 1.68200e+00 4.16898e+00 -3.35520e-03 1.71688e+00 4.26122e+00 -3.23100e-03 1.75215e+00 4.35336e+00 -3.10950e-03 1.78779e+00 4.44541e+00 -2.99070e-03 1.82380e+00 4.53737e+00 -2.87450e-03 1.86020e+00 4.62924e+00 -2.76090e-03 1.89690e+00 4.72102e+00 -2.64990e-03 1.93390e+00 4.81272e+00 -2.54150e-03 1.97120e+00 4.90434e+00 -2.43570e-03 2.00880e+00 4.99589e+00 -2.33240e-03 2.04670e+00 5.08737e+00 -2.23160e-03 2.08490e+00 5.17877e+00 -2.13340e-03 2.12340e+00 5.27011e+00 -2.03760e-03 2.16210e+00 5.36139e+00 -1.94430e-03 2.20100e+00 5.45260e+00 -1.85340e-03 2.24020e+00 5.54376e+00 -1.76490e-03 2.27960e+00 5.63487e+00 -1.67890e-03 2.31910e+00 5.72592e+00 -1.59520e-03 2.35890e+00 5.81693e+00 -1.51400e-03 2.39890e+00 5.90789e+00 -1.43500e-03 2.43900e+00 5.99882e+00 -1.35840e-03 2.47940e+00 6.08970e+00 -1.28410e-03 2.51980e+00 6.18055e+00 -1.21210e-03 2.56050e+00 6.27136e+00 -1.14240e-03 2.60120e+00 6.36214e+00 -1.07500e-03 2.64210e+00 6.45290e+00 -1.00980e-03 2.68310e+00 6.54363e+00 -9.46790e-04 2.72430e+00 6.63434e+00 -8.86030e-04 2.76550e+00 6.72503e+00 -8.27480e-04 2.80690e+00 6.81570e+00 -7.71120e-04 2.84830e+00 6.90635e+00 -7.16920e-04 2.88980e+00 6.99699e+00 -6.64890e-04 2.93150e+00 7.08762e+00 -6.15010e-04 2.97310e+00 7.17824e+00 -5.67260e-04 3.01490e+00 7.26885e+00 -5.21630e-04 3.05670e+00 7.35945e+00 -4.78120e-04 3.09860e+00 7.45005e+00 -4.36700e-04 3.14050e+00 7.54065e+00 -3.97380e-04 3.18240e+00 7.63125e+00 -3.60140e-04 3.22440e+00 7.72184e+00 -3.24970e-04 3.26650e+00 7.81244e+00 -2.91870e-04 3.30850e+00 7.90303e+00 -2.60820e-04 3.35060e+00 7.99364e+00 -2.31840e-04 3.39270e+00 8.08424e+00 -2.04910e-04 3.43490e+00 8.17485e+00 -1.80030e-04 3.47700e+00 8.26547e+00 -1.57220e-04 3.51920e+00 8.35609e+00 -1.36460e-04 3.56140e+00 8.44671e+00 -1.17760e-04 3.60350e+00 8.53735e+00 -1.01120e-04 3.64570e+00 8.62799e+00 -8.65190e-05 3.68790e+00 8.71864e+00 -7.39120e-05 3.73000e+00 8.80930e+00 -6.31500e-05 3.77220e+00 8.89996e+00 -5.40420e-05 3.81440e+00 8.99063e+00 -4.59650e-05 3.85650e+00 9.08131e+00 -3.82730e-05 3.89870e+00 9.17200e+00 -2.88380e-05 3.94080e+00 9.26269e+00 -1.91240e-05 3.98300e+00 0.00000e+00 1.00000e-01 8.00000e-01 9.84251e-02 9.59723e-02 8.00291e-01 1.94343e-01 9.33810e-02 8.02506e-01 2.90266e-01 9.28872e-02 8.05795e-01 3.86533e-01 9.21953e-02 8.09896e-01 4.82793e-01 9.20348e-02 8.15479e-01 5.79077e-01 9.19052e-02 8.22109e-01 6.75344e-01 9.19678e-02 8.30063e-01 7.71542e-01 9.20634e-02 8.39079e-01 8.67709e-01 9.22261e-02 8.49271e-01 9.63786e-01 9.23995e-02 8.60488e-01 1.05982e+00 9.25918e-02 8.72781e-01 1.15575e+00 9.27824e-02 8.86058e-01 1.25163e+00 9.29746e-02 9.00340e-01 1.34740e+00 9.31614e-02 9.15560e-01 1.44311e+00 9.33449e-02 9.31740e-01 1.53870e+00 9.35227e-02 9.48810e-01 1.63421e+00 9.36964e-02 9.66790e-01 1.72962e+00 9.38655e-02 9.85630e-01 1.82492e+00 9.40309e-02 1.00533e+00 1.92010e+00 9.41925e-02 1.02585e+00 2.01518e+00 9.43510e-02 1.04718e+00 2.11015e+00 9.45064e-02 1.06930e+00 2.20499e+00 9.46590e-02 1.09219e+00 2.29971e+00 9.48088e-02 1.11583e+00 2.39432e+00 9.49561e-02 1.14020e+00 2.48880e+00 9.51008e-02 1.16528e+00 2.58315e+00 9.52430e-02 1.19106e+00 2.67738e+00 9.53828e-02 1.21750e+00 2.77149e+00 9.55202e-02 1.24460e+00 2.86546e+00 9.56551e-02 1.27233e+00 2.95932e+00 9.57877e-02 1.30068e+00 3.05305e+00 9.59178e-02 1.32963e+00 3.14665e+00 9.60456e-02 1.35916e+00 3.24014e+00 9.61710e-02 1.38926e+00 3.33350e+00 9.62941e-02 1.41991e+00 3.42674e+00 9.64148e-02 1.45108e+00 3.51986e+00 9.65332e-02 1.48277e+00 3.61286e+00 9.66493e-02 1.51496e+00 3.70575e+00 9.67631e-02 1.54763e+00 3.79853e+00 9.68746e-02 1.58076e+00 3.89120e+00 9.69838e-02 1.61435e+00 3.98376e+00 9.70908e-02 1.64837e+00 4.07621e+00 9.71955e-02 1.68281e+00 4.16856e+00 9.72980e-02 1.71766e+00 4.26081e+00 9.73984e-02 1.75290e+00 4.35297e+00 9.74965e-02 1.78852e+00 4.44503e+00 9.75924e-02 1.82450e+00 4.53700e+00 9.76863e-02 1.86080e+00 4.62888e+00 9.77779e-02 1.89750e+00 4.72067e+00 9.78675e-02 1.93450e+00 4.81238e+00 9.79549e-02 1.97180e+00 4.90402e+00 9.80403e-02 2.00940e+00 4.99558e+00 9.81236e-02 2.04730e+00 5.08706e+00 9.82049e-02 2.08540e+00 5.17848e+00 9.82841e-02 2.12390e+00 5.26983e+00 9.83613e-02 2.16250e+00 5.36111e+00 9.84366e-02 2.20140e+00 5.45234e+00 9.85098e-02 2.24060e+00 5.54351e+00 9.85811e-02 2.27990e+00 5.63463e+00 9.86504e-02 2.31950e+00 5.72569e+00 9.87178e-02 2.35930e+00 5.81671e+00 9.87833e-02 2.39920e+00 5.90768e+00 9.88468e-02 2.43940e+00 5.99861e+00 9.89085e-02 2.47970e+00 6.08951e+00 9.89684e-02 2.52010e+00 6.18036e+00 9.90263e-02 2.56070e+00 6.27119e+00 9.90824e-02 2.60150e+00 6.36198e+00 9.91367e-02 2.64240e+00 6.45274e+00 9.91892e-02 2.68340e+00 6.54348e+00 9.92399e-02 2.72450e+00 6.63420e+00 9.92887e-02 2.76570e+00 6.72490e+00 9.93359e-02 2.80700e+00 6.81558e+00 9.93812e-02 2.84850e+00 6.90624e+00 9.94248e-02 2.89000e+00 6.99688e+00 9.94666e-02 2.93160e+00 7.08752e+00 9.95067e-02 2.97330e+00 7.17815e+00 9.95451e-02 3.01500e+00 7.26876e+00 9.95818e-02 3.05680e+00 7.35938e+00 9.96168e-02 3.09860e+00 7.44998e+00 9.96501e-02 3.14060e+00 7.54059e+00 9.96817e-02 3.18250e+00 7.63119e+00 9.97116e-02 3.22450e+00 7.72179e+00 9.97399e-02 3.26650e+00 7.81239e+00 9.97665e-02 3.30860e+00 7.90299e+00 9.97914e-02 3.35070e+00 7.99360e+00 9.98147e-02 3.39280e+00 8.08421e+00 9.98363e-02 3.43490e+00 8.17482e+00 9.98563e-02 3.47700e+00 8.26544e+00 9.98746e-02 3.51920e+00 8.35607e+00 9.98913e-02 3.56140e+00 8.44670e+00 9.99062e-02 3.60350e+00 8.53734e+00 9.99195e-02 3.64570e+00 8.62798e+00 9.99312e-02 3.68790e+00 8.71863e+00 9.99413e-02 3.73000e+00 8.80929e+00 9.99498e-02 3.77220e+00 8.89996e+00 9.99572e-02 3.81440e+00 8.99063e+00 9.99636e-02 3.85650e+00 9.08131e+00 9.99698e-02 3.89870e+00 9.17200e+00 9.99765e-02 3.94080e+00 9.26269e+00 9.99834e-02 3.98290e+00 0.00000e+00 2.00000e-01 8.00000e-01 9.84045e-02 1.97533e-01 8.00856e-01 1.95202e-01 1.95768e-01 8.03482e-01 2.90857e-01 1.94664e-01 8.07116e-01 3.86877e-01 1.94314e-01 8.11354e-01 4.83008e-01 1.93978e-01 8.17076e-01 5.79111e-01 1.93943e-01 8.23772e-01 6.75291e-01 1.93925e-01 8.31769e-01 7.71382e-01 1.94023e-01 8.40793e-01 8.67492e-01 1.94128e-01 8.50981e-01 9.63510e-01 1.94272e-01 8.62178e-01 1.05951e+00 1.94414e-01 8.74447e-01 1.15541e+00 1.94565e-01 8.87691e-01 1.25127e+00 1.94710e-01 9.01940e-01 1.34703e+00 1.94855e-01 9.17130e-01 1.44272e+00 1.94995e-01 9.33270e-01 1.53831e+00 1.95131e-01 9.50310e-01 1.63381e+00 1.95263e-01 9.68250e-01 1.72921e+00 1.95391e-01 9.87050e-01 1.82451e+00 1.95516e-01 1.00671e+00 1.91969e+00 1.95638e-01 1.02720e+00 2.01477e+00 1.95758e-01 1.04849e+00 2.10973e+00 1.95875e-01 1.07058e+00 2.20457e+00 1.95990e-01 1.09344e+00 2.29930e+00 1.96103e-01 1.11704e+00 2.39390e+00 1.96214e-01 1.14138e+00 2.48838e+00 1.96323e-01 1.16642e+00 2.58274e+00 1.96430e-01 1.19216e+00 2.67697e+00 1.96536e-01 1.21857e+00 2.77108e+00 1.96639e-01 1.24564e+00 2.86506e+00 1.96741e-01 1.27334e+00 2.95892e+00 1.96840e-01 1.30166e+00 3.05266e+00 1.96938e-01 1.33058e+00 3.14627e+00 1.97034e-01 1.36008e+00 3.23976e+00 1.97129e-01 1.39015e+00 3.33312e+00 1.97221e-01 1.42076e+00 3.42637e+00 1.97312e-01 1.45191e+00 3.51950e+00 1.97401e-01 1.48357e+00 3.61251e+00 1.97488e-01 1.51573e+00 3.70541e+00 1.97574e-01 1.54837e+00 3.79819e+00 1.97658e-01 1.58148e+00 3.89087e+00 1.97740e-01 1.61504e+00 3.98343e+00 1.97820e-01 1.64904e+00 4.07589e+00 1.97899e-01 1.68346e+00 4.16825e+00 1.97976e-01 1.71828e+00 4.26051e+00 1.98051e-01 1.75350e+00 4.35267e+00 1.98125e-01 1.78909e+00 4.44474e+00 1.98197e-01 1.82500e+00 4.53672e+00 1.98267e-01 1.86140e+00 4.62861e+00 1.98336e-01 1.89800e+00 4.72041e+00 1.98403e-01 1.93500e+00 4.81213e+00 1.98469e-01 1.97230e+00 4.90377e+00 1.98533e-01 2.00980e+00 4.99534e+00 1.98595e-01 2.04770e+00 5.08683e+00 1.98656e-01 2.08580e+00 5.17826e+00 1.98716e-01 2.12420e+00 5.26961e+00 1.98773e-01 2.16290e+00 5.36091e+00 1.98830e-01 2.20180e+00 5.45214e+00 1.98885e-01 2.24090e+00 5.54332e+00 1.98938e-01 2.28030e+00 5.63444e+00 1.98990e-01 2.31980e+00 5.72552e+00 1.99040e-01 2.35960e+00 5.81654e+00 1.99090e-01 2.39950e+00 5.90752e+00 1.99137e-01 2.43960e+00 5.99846e+00 1.99183e-01 2.47990e+00 6.08936e+00 1.99228e-01 2.52030e+00 6.18023e+00 1.99271e-01 2.56090e+00 6.27106e+00 1.99313e-01 2.60170e+00 6.36186e+00 1.99354e-01 2.64250e+00 6.45263e+00 1.99393e-01 2.68350e+00 6.54338e+00 1.99431e-01 2.72460e+00 6.63410e+00 1.99468e-01 2.76590e+00 6.72480e+00 1.99503e-01 2.80720e+00 6.81549e+00 1.99537e-01 2.84860e+00 6.90615e+00 1.99570e-01 2.89010e+00 6.99681e+00 1.99601e-01 2.93170e+00 7.08745e+00 1.99631e-01 2.97330e+00 7.17808e+00 1.99660e-01 3.01510e+00 7.26870e+00 1.99687e-01 3.05690e+00 7.35932e+00 1.99713e-01 3.09870e+00 7.44993e+00 1.99738e-01 3.14060e+00 7.54054e+00 1.99762e-01 3.18260e+00 7.63114e+00 1.99784e-01 3.22450e+00 7.72175e+00 1.99805e-01 3.26660e+00 7.81235e+00 1.99825e-01 3.30860e+00 7.90296e+00 1.99844e-01 3.35070e+00 7.99357e+00 1.99861e-01 3.39280e+00 8.08419e+00 1.99877e-01 3.43490e+00 8.17480e+00 1.99892e-01 3.47710e+00 8.26543e+00 1.99906e-01 3.51920e+00 8.35605e+00 1.99918e-01 3.56140e+00 8.44669e+00 1.99929e-01 3.60350e+00 8.53733e+00 1.99939e-01 3.64570e+00 8.62798e+00 1.99948e-01 3.68790e+00 8.71863e+00 1.99955e-01 3.73000e+00 8.80929e+00 1.99962e-01 3.77220e+00 8.89996e+00 1.99967e-01 3.81440e+00 8.99063e+00 1.99972e-01 3.85650e+00 9.08131e+00 1.99977e-01 3.89870e+00 9.17200e+00 1.99981e-01 3.94080e+00 9.26269e+00 1.99986e-01 3.98290e+00 0.00000e+00 3.00000e-01 8.00000e-01 9.86327e-02 2.98562e-01 8.01226e-01 1.95312e-01 2.97372e-01 8.04129e-01 2.91233e-01 2.96696e-01 8.07999e-01 3.87086e-01 2.96222e-01 8.12370e-01 4.83173e-01 2.96068e-01 8.18188e-01 5.79172e-01 2.95944e-01 8.24942e-01 6.75287e-01 2.95965e-01 8.32984e-01 7.71309e-01 2.95996e-01 8.42023e-01 8.67370e-01 2.96081e-01 8.52221e-01 9.63344e-01 2.96167e-01 8.63409e-01 1.05931e+00 2.96269e-01 8.75668e-01 1.15519e+00 2.96367e-01 8.88892e-01 1.25103e+00 2.96468e-01 9.03120e-01 1.34677e+00 2.96565e-01 9.18280e-01 1.44245e+00 2.96660e-01 9.34400e-01 1.53803e+00 2.96751e-01 9.51410e-01 1.63353e+00 2.96840e-01 9.69320e-01 1.72892e+00 2.96926e-01 9.88100e-01 1.82422e+00 2.97010e-01 1.00773e+00 1.91940e+00 2.97092e-01 1.02819e+00 2.01448e+00 2.97172e-01 1.04946e+00 2.10944e+00 2.97251e-01 1.07152e+00 2.20428e+00 2.97328e-01 1.09435e+00 2.29901e+00 2.97403e-01 1.11793e+00 2.39361e+00 2.97477e-01 1.14224e+00 2.48809e+00 2.97550e-01 1.16726e+00 2.58245e+00 2.97622e-01 1.19298e+00 2.67669e+00 2.97692e-01 1.21936e+00 2.77080e+00 2.97761e-01 1.24641e+00 2.86478e+00 2.97829e-01 1.27408e+00 2.95864e+00 2.97895e-01 1.30238e+00 3.05238e+00 2.97961e-01 1.33128e+00 3.14600e+00 2.98025e-01 1.36076e+00 3.23949e+00 2.98088e-01 1.39080e+00 3.33286e+00 2.98150e-01 1.42140e+00 3.42611e+00 2.98210e-01 1.45252e+00 3.51924e+00 2.98270e-01 1.48416e+00 3.61226e+00 2.98328e-01 1.51630e+00 3.70516e+00 2.98385e-01 1.54892e+00 3.79795e+00 2.98441e-01 1.58201e+00 3.89063e+00 2.98495e-01 1.61556e+00 3.98320e+00 2.98549e-01 1.64953e+00 4.07567e+00 2.98601e-01 1.68393e+00 4.16803e+00 2.98653e-01 1.71874e+00 4.26030e+00 2.98703e-01 1.75394e+00 4.35247e+00 2.98752e-01 1.78951e+00 4.44454e+00 2.98800e-01 1.82550e+00 4.53652e+00 2.98847e-01 1.86170e+00 4.62842e+00 2.98893e-01 1.89840e+00 4.72022e+00 2.98937e-01 1.93530e+00 4.81195e+00 2.98981e-01 1.97260e+00 4.90360e+00 2.99024e-01 2.01020e+00 4.99517e+00 2.99065e-01 2.04800e+00 5.08667e+00 2.99106e-01 2.08610e+00 5.17810e+00 2.99146e-01 2.12450e+00 5.26946e+00 2.99184e-01 2.16320e+00 5.36076e+00 2.99222e-01 2.20210e+00 5.45201e+00 2.99258e-01 2.24120e+00 5.54319e+00 2.99294e-01 2.28050e+00 5.63432e+00 2.99328e-01 2.32000e+00 5.72540e+00 2.99362e-01 2.35980e+00 5.81643e+00 2.99394e-01 2.39970e+00 5.90741e+00 2.99426e-01 2.43980e+00 5.99836e+00 2.99457e-01 2.48010e+00 6.08926e+00 2.99487e-01 2.52050e+00 6.18013e+00 2.99515e-01 2.56110e+00 6.27097e+00 2.99543e-01 2.60180e+00 6.36177e+00 2.99570e-01 2.64270e+00 6.45255e+00 2.99596e-01 2.68370e+00 6.54330e+00 2.99622e-01 2.72480e+00 6.63403e+00 2.99646e-01 2.76600e+00 6.72473e+00 2.99669e-01 2.80730e+00 6.81542e+00 2.99692e-01 2.84870e+00 6.90609e+00 2.99714e-01 2.89020e+00 6.99675e+00 2.99734e-01 2.93180e+00 7.08740e+00 2.99754e-01 2.97340e+00 7.17803e+00 2.99773e-01 3.01510e+00 7.26866e+00 2.99792e-01 3.05690e+00 7.35928e+00 2.99809e-01 3.09880e+00 7.44989e+00 2.99826e-01 3.14070e+00 7.54051e+00 2.99841e-01 3.18260e+00 7.63111e+00 2.99856e-01 3.22460e+00 7.72172e+00 2.99870e-01 3.26660e+00 7.81233e+00 2.99883e-01 3.30860e+00 7.90294e+00 2.99896e-01 3.35070e+00 7.99355e+00 2.99907e-01 3.39280e+00 8.08417e+00 2.99918e-01 3.43490e+00 8.17479e+00 2.99928e-01 3.47710e+00 8.26541e+00 2.99937e-01 3.51920e+00 8.35604e+00 2.99945e-01 3.56140e+00 8.44668e+00 2.99953e-01 3.60350e+00 8.53732e+00 2.99959e-01 3.64570e+00 8.62797e+00 2.99965e-01 3.68790e+00 8.71863e+00 2.99970e-01 3.73000e+00 8.80929e+00 2.99974e-01 3.77220e+00 8.89996e+00 2.99978e-01 3.81430e+00 8.99063e+00 2.99981e-01 3.85650e+00 9.08131e+00 2.99984e-01 3.89860e+00 9.17200e+00 2.99987e-01 3.94080e+00 9.26269e+00 2.99990e-01 3.98290e+00 0.00000e+00 4.00000e-01 8.00000e-01 9.85493e-02 3.99316e-01 8.01405e-01 1.95510e-01 3.98767e-01 8.04488e-01 2.91279e-01 3.98368e-01 8.08506e-01 3.87251e-01 3.98170e-01 8.12951e-01 4.83228e-01 3.98024e-01 8.18835e-01 5.79234e-01 3.97993e-01 8.25625e-01 6.75284e-01 3.97971e-01 8.33698e-01 7.71285e-01 3.98001e-01 8.42753e-01 8.67306e-01 3.98032e-01 8.52958e-01 9.63260e-01 3.98081e-01 8.64147e-01 1.05920e+00 3.98128e-01 8.76401e-01 1.15507e+00 3.98181e-01 8.89616e-01 1.25089e+00 3.98230e-01 9.03830e-01 1.34663e+00 3.98280e-01 9.18980e-01 1.44230e+00 3.98327e-01 9.35080e-01 1.53788e+00 3.98374e-01 9.52080e-01 1.63337e+00 3.98418e-01 9.69980e-01 1.72876e+00 3.98462e-01 9.88740e-01 1.82405e+00 3.98504e-01 1.00836e+00 1.91923e+00 3.98545e-01 1.02880e+00 2.01431e+00 3.98585e-01 1.05005e+00 2.10927e+00 3.98624e-01 1.07210e+00 2.20411e+00 3.98663e-01 1.09491e+00 2.29883e+00 3.98701e-01 1.11847e+00 2.39344e+00 3.98738e-01 1.14277e+00 2.48792e+00 3.98774e-01 1.16778e+00 2.58228e+00 3.98810e-01 1.19347e+00 2.67652e+00 3.98846e-01 1.21985e+00 2.77063e+00 3.98880e-01 1.24687e+00 2.86462e+00 3.98914e-01 1.27454e+00 2.95848e+00 3.98947e-01 1.30282e+00 3.05222e+00 3.98980e-01 1.33170e+00 3.14584e+00 3.99012e-01 1.36117e+00 3.23933e+00 3.99044e-01 1.39120e+00 3.33270e+00 3.99075e-01 1.42178e+00 3.42596e+00 3.99105e-01 1.45289e+00 3.51909e+00 3.99135e-01 1.48452e+00 3.61211e+00 3.99164e-01 1.51665e+00 3.70502e+00 3.99192e-01 1.54926e+00 3.79781e+00 3.99220e-01 1.58234e+00 3.89049e+00 3.99248e-01 1.61587e+00 3.98307e+00 3.99275e-01 1.64983e+00 4.07554e+00 3.99301e-01 1.68422e+00 4.16791e+00 3.99326e-01 1.71902e+00 4.26017e+00 3.99352e-01 1.75420e+00 4.35234e+00 3.99376e-01 1.78977e+00 4.44442e+00 3.99400e-01 1.82570e+00 4.53641e+00 3.99424e-01 1.86200e+00 4.62830e+00 3.99446e-01 1.89860e+00 4.72012e+00 3.99469e-01 1.93550e+00 4.81185e+00 3.99491e-01 1.97280e+00 4.90350e+00 3.99512e-01 2.01040e+00 4.99507e+00 3.99533e-01 2.04820e+00 5.08658e+00 3.99553e-01 2.08630e+00 5.17801e+00 3.99573e-01 2.12470e+00 5.26938e+00 3.99592e-01 2.16330e+00 5.36068e+00 3.99611e-01 2.20220e+00 5.45192e+00 3.99629e-01 2.24130e+00 5.54311e+00 3.99647e-01 2.28060e+00 5.63424e+00 3.99664e-01 2.32020e+00 5.72533e+00 3.99681e-01 2.35990e+00 5.81636e+00 3.99697e-01 2.39980e+00 5.90735e+00 3.99713e-01 2.43990e+00 5.99830e+00 3.99728e-01 2.48020e+00 6.08921e+00 3.99743e-01 2.52060e+00 6.18008e+00 3.99758e-01 2.56120e+00 6.27092e+00 3.99772e-01 2.60190e+00 6.36172e+00 3.99785e-01 2.64280e+00 6.45250e+00 3.99798e-01 2.68370e+00 6.54326e+00 3.99811e-01 2.72480e+00 6.63399e+00 3.99823e-01 2.76600e+00 6.72470e+00 3.99835e-01 2.80730e+00 6.81539e+00 3.99846e-01 2.84870e+00 6.90606e+00 3.99857e-01 2.89020e+00 6.99672e+00 3.99867e-01 2.93180e+00 7.08737e+00 3.99877e-01 2.97350e+00 7.17801e+00 3.99887e-01 3.01520e+00 7.26864e+00 3.99896e-01 3.05700e+00 7.35926e+00 3.99904e-01 3.09880e+00 7.44987e+00 3.99913e-01 3.14070e+00 7.54049e+00 3.99921e-01 3.18260e+00 7.63110e+00 3.99928e-01 3.22460e+00 7.72171e+00 3.99935e-01 3.26660e+00 7.81232e+00 3.99942e-01 3.30870e+00 7.90293e+00 3.99948e-01 3.35070e+00 7.99354e+00 3.99954e-01 3.39280e+00 8.08416e+00 3.99959e-01 3.43490e+00 8.17478e+00 3.99964e-01 3.47710e+00 8.26541e+00 3.99968e-01 3.51920e+00 8.35604e+00 3.99972e-01 3.56140e+00 8.44668e+00 3.99976e-01 3.60350e+00 8.53732e+00 3.99979e-01 3.64570e+00 8.62797e+00 3.99982e-01 3.68790e+00 8.71863e+00 3.99985e-01 3.73000e+00 8.80929e+00 3.99987e-01 3.77220e+00 8.89996e+00 3.99989e-01 3.81430e+00 8.99063e+00 3.99990e-01 3.85650e+00 9.08131e+00 3.99992e-01 3.89860e+00 9.17200e+00 3.99993e-01 3.94080e+00 9.26269e+00 3.99995e-01 3.98290e+00 0.00000e+00 5.00000e-01 8.00000e-01 9.86495e-02 5.00000e-01 8.01463e-01 1.95446e-01 5.00000e-01 8.04592e-01 2.91387e-01 5.00000e-01 8.08666e-01 3.87229e-01 5.00000e-01 8.13142e-01 4.83292e-01 5.00000e-01 8.19047e-01 5.79225e-01 5.00000e-01 8.25851e-01 6.75302e-01 5.00000e-01 8.33934e-01 7.71268e-01 5.00000e-01 8.42995e-01 8.67294e-01 5.00000e-01 8.53205e-01 9.63230e-01 5.00000e-01 8.64393e-01 1.05917e+00 5.00000e-01 8.76647e-01 1.15503e+00 5.00000e-01 8.89859e-01 1.25085e+00 5.00000e-01 9.04070e-01 1.34658e+00 5.00000e-01 9.19220e-01 1.44225e+00 5.00000e-01 9.35310e-01 1.53782e+00 5.00000e-01 9.52300e-01 1.63331e+00 5.00000e-01 9.70200e-01 1.72870e+00 5.00000e-01 9.88950e-01 1.82399e+00 5.00000e-01 1.00856e+00 1.91918e+00 5.00000e-01 1.02900e+00 2.01425e+00 5.00000e-01 1.05025e+00 2.10921e+00 5.00000e-01 1.07229e+00 2.20405e+00 5.00000e-01 1.09510e+00 2.29878e+00 5.00000e-01 1.11866e+00 2.39338e+00 5.00000e-01 1.14295e+00 2.48787e+00 5.00000e-01 1.16795e+00 2.58223e+00 5.00000e-01 1.19364e+00 2.67646e+00 5.00000e-01 1.22001e+00 2.77057e+00 5.00000e-01 1.24703e+00 2.86456e+00 5.00000e-01 1.27469e+00 2.95843e+00 5.00000e-01 1.30297e+00 3.05217e+00 5.00000e-01 1.33185e+00 3.14578e+00 5.00000e-01 1.36131e+00 3.23928e+00 5.00000e-01 1.39133e+00 3.33265e+00 5.00000e-01 1.42191e+00 3.42591e+00 5.00000e-01 1.45302e+00 3.51904e+00 5.00000e-01 1.48464e+00 3.61206e+00 5.00000e-01 1.51677e+00 3.70497e+00 5.00000e-01 1.54937e+00 3.79776e+00 5.00000e-01 1.58245e+00 3.89045e+00 5.00000e-01 1.61597e+00 3.98302e+00 5.00000e-01 1.64993e+00 4.07549e+00 5.00000e-01 1.68432e+00 4.16786e+00 5.00000e-01 1.71911e+00 4.26013e+00 5.00000e-01 1.75429e+00 4.35230e+00 5.00000e-01 1.78986e+00 4.44438e+00 5.00000e-01 1.82580e+00 4.53637e+00 5.00000e-01 1.86210e+00 4.62827e+00 5.00000e-01 1.89870e+00 4.72008e+00 5.00000e-01 1.93560e+00 4.81181e+00 5.00000e-01 1.97290e+00 4.90346e+00 5.00000e-01 2.01040e+00 4.99504e+00 5.00000e-01 2.04830e+00 5.08655e+00 5.00000e-01 2.08640e+00 5.17798e+00 5.00000e-01 2.12480e+00 5.26935e+00 5.00000e-01 2.16340e+00 5.36065e+00 5.00000e-01 2.20230e+00 5.45190e+00 5.00000e-01 2.24140e+00 5.54309e+00 5.00000e-01 2.28070e+00 5.63422e+00 5.00000e-01 2.32020e+00 5.72530e+00 5.00000e-01 2.35990e+00 5.81634e+00 5.00000e-01 2.39990e+00 5.90733e+00 5.00000e-01 2.44000e+00 5.99828e+00 5.00000e-01 2.48020e+00 6.08919e+00 5.00000e-01 2.52060e+00 6.18006e+00 5.00000e-01 2.56120e+00 6.27090e+00 5.00000e-01 2.60190e+00 6.36171e+00 5.00000e-01 2.64280e+00 6.45249e+00 5.00000e-01 2.68380e+00 6.54324e+00 5.00000e-01 2.72490e+00 6.63397e+00 5.00000e-01 2.76610e+00 6.72468e+00 5.00000e-01 2.80740e+00 6.81537e+00 5.00000e-01 2.84880e+00 6.90605e+00 5.00000e-01 2.89030e+00 6.99671e+00 5.00000e-01 2.93180e+00 7.08736e+00 5.00000e-01 2.97350e+00 7.17800e+00 5.00000e-01 3.01520e+00 7.26863e+00 5.00000e-01 3.05700e+00 7.35925e+00 5.00000e-01 3.09880e+00 7.44987e+00 5.00000e-01 3.14070e+00 7.54048e+00 5.00000e-01 3.18260e+00 7.63109e+00 5.00000e-01 3.22460e+00 7.72170e+00 5.00000e-01 3.26660e+00 7.81231e+00 5.00000e-01 3.30870e+00 7.90293e+00 5.00000e-01 3.35070e+00 7.99354e+00 5.00000e-01 3.39280e+00 8.08416e+00 5.00000e-01 3.43490e+00 8.17478e+00 5.00000e-01 3.47710e+00 8.26541e+00 5.00000e-01 3.51920e+00 8.35604e+00 5.00000e-01 3.56140e+00 8.44668e+00 5.00000e-01 3.60350e+00 8.53732e+00 5.00000e-01 3.64570e+00 8.62797e+00 5.00000e-01 3.68790e+00 8.71862e+00 5.00000e-01 3.73000e+00 8.80929e+00 5.00000e-01 3.77220e+00 8.89996e+00 5.00000e-01 3.81430e+00 8.99063e+00 5.00000e-01 3.85650e+00 9.08131e+00 5.00000e-01 3.89860e+00 9.17200e+00 5.00000e-01 3.94080e+00 9.26269e+00 5.00000e-01 3.98290e+00 0.00000e+00 6.00000e-01 8.00000e-01 9.85493e-02 6.00684e-01 8.01405e-01 1.95510e-01 6.01233e-01 8.04488e-01 2.91279e-01 6.01632e-01 8.08506e-01 3.87251e-01 6.01830e-01 8.12951e-01 4.83228e-01 6.01976e-01 8.18835e-01 5.79234e-01 6.02007e-01 8.25625e-01 6.75284e-01 6.02029e-01 8.33698e-01 7.71285e-01 6.01999e-01 8.42753e-01 8.67306e-01 6.01968e-01 8.52958e-01 9.63260e-01 6.01919e-01 8.64147e-01 1.05920e+00 6.01872e-01 8.76401e-01 1.15507e+00 6.01819e-01 8.89616e-01 1.25089e+00 6.01770e-01 9.03830e-01 1.34663e+00 6.01720e-01 9.18980e-01 1.44230e+00 6.01673e-01 9.35080e-01 1.53788e+00 6.01626e-01 9.52080e-01 1.63337e+00 6.01582e-01 9.69980e-01 1.72876e+00 6.01538e-01 9.88740e-01 1.82405e+00 6.01496e-01 1.00836e+00 1.91923e+00 6.01455e-01 1.02880e+00 2.01431e+00 6.01415e-01 1.05005e+00 2.10927e+00 6.01375e-01 1.07210e+00 2.20411e+00 6.01337e-01 1.09491e+00 2.29883e+00 6.01299e-01 1.11847e+00 2.39344e+00 6.01262e-01 1.14277e+00 2.48792e+00 6.01225e-01 1.16778e+00 2.58228e+00 6.01190e-01 1.19347e+00 2.67652e+00 6.01154e-01 1.21985e+00 2.77063e+00 6.01120e-01 1.24687e+00 2.86462e+00 6.01086e-01 1.27454e+00 2.95848e+00 6.01053e-01 1.30282e+00 3.05222e+00 6.01020e-01 1.33170e+00 3.14584e+00 6.00988e-01 1.36117e+00 3.23933e+00 6.00956e-01 1.39120e+00 3.33270e+00 6.00925e-01 1.42178e+00 3.42596e+00 6.00895e-01 1.45289e+00 3.51909e+00 6.00865e-01 1.48452e+00 3.61211e+00 6.00836e-01 1.51665e+00 3.70502e+00 6.00808e-01 1.54926e+00 3.79781e+00 6.00780e-01 1.58234e+00 3.89049e+00 6.00752e-01 1.61587e+00 3.98307e+00 6.00725e-01 1.64983e+00 4.07554e+00 6.00699e-01 1.68422e+00 4.16791e+00 6.00673e-01 1.71902e+00 4.26017e+00 6.00648e-01 1.75420e+00 4.35234e+00 6.00624e-01 1.78977e+00 4.44442e+00 6.00600e-01 1.82570e+00 4.53641e+00 6.00576e-01 1.86200e+00 4.62830e+00 6.00553e-01 1.89860e+00 4.72012e+00 6.00531e-01 1.93550e+00 4.81185e+00 6.00509e-01 1.97280e+00 4.90350e+00 6.00488e-01 2.01040e+00 4.99507e+00 6.00467e-01 2.04820e+00 5.08658e+00 6.00447e-01 2.08630e+00 5.17801e+00 6.00427e-01 2.12470e+00 5.26938e+00 6.00408e-01 2.16330e+00 5.36068e+00 6.00389e-01 2.20220e+00 5.45192e+00 6.00371e-01 2.24130e+00 5.54311e+00 6.00353e-01 2.28060e+00 5.63424e+00 6.00336e-01 2.32020e+00 5.72533e+00 6.00319e-01 2.35990e+00 5.81636e+00 6.00303e-01 2.39980e+00 5.90735e+00 6.00287e-01 2.43990e+00 5.99830e+00 6.00271e-01 2.48020e+00 6.08921e+00 6.00256e-01 2.52060e+00 6.18008e+00 6.00242e-01 2.56120e+00 6.27092e+00 6.00228e-01 2.60190e+00 6.36172e+00 6.00215e-01 2.64280e+00 6.45250e+00 6.00202e-01 2.68370e+00 6.54326e+00 6.00189e-01 2.72480e+00 6.63399e+00 6.00177e-01 2.76600e+00 6.72470e+00 6.00165e-01 2.80730e+00 6.81539e+00 6.00154e-01 2.84870e+00 6.90606e+00 6.00143e-01 2.89020e+00 6.99672e+00 6.00133e-01 2.93180e+00 7.08737e+00 6.00123e-01 2.97350e+00 7.17801e+00 6.00113e-01 3.01520e+00 7.26864e+00 6.00104e-01 3.05700e+00 7.35926e+00 6.00095e-01 3.09880e+00 7.44987e+00 6.00087e-01 3.14070e+00 7.54049e+00 6.00079e-01 3.18260e+00 7.63110e+00 6.00072e-01 3.22460e+00 7.72171e+00 6.00065e-01 3.26660e+00 7.81232e+00 6.00058e-01 3.30870e+00 7.90293e+00 6.00052e-01 3.35070e+00 7.99354e+00 6.00046e-01 3.39280e+00 8.08416e+00 6.00041e-01 3.43490e+00 8.17478e+00 6.00036e-01 3.47710e+00 8.26541e+00 6.00031e-01 3.51920e+00 8.35604e+00 6.00027e-01 3.56140e+00 8.44668e+00 6.00024e-01 3.60350e+00 8.53732e+00 6.00020e-01 3.64570e+00 8.62797e+00 6.00017e-01 3.68790e+00 8.71863e+00 6.00015e-01 3.73000e+00 8.80929e+00 6.00013e-01 3.77220e+00 8.89996e+00 6.00011e-01 3.81430e+00 8.99063e+00 6.00009e-01 3.85650e+00 9.08131e+00 6.00008e-01 3.89860e+00 9.17200e+00 6.00006e-01 3.94080e+00 9.26269e+00 6.00005e-01 3.98290e+00 0.00000e+00 7.00000e-01 8.00000e-01 9.86327e-02 7.01438e-01 8.01226e-01 1.95312e-01 7.02628e-01 8.04129e-01 2.91233e-01 7.03304e-01 8.07999e-01 3.87086e-01 7.03778e-01 8.12370e-01 4.83173e-01 7.03932e-01 8.18188e-01 5.79172e-01 7.04056e-01 8.24942e-01 6.75287e-01 7.04035e-01 8.32984e-01 7.71309e-01 7.04004e-01 8.42023e-01 8.67370e-01 7.03919e-01 8.52221e-01 9.63344e-01 7.03833e-01 8.63409e-01 1.05931e+00 7.03731e-01 8.75668e-01 1.15519e+00 7.03633e-01 8.88892e-01 1.25103e+00 7.03532e-01 9.03120e-01 1.34677e+00 7.03435e-01 9.18280e-01 1.44245e+00 7.03340e-01 9.34400e-01 1.53803e+00 7.03249e-01 9.51410e-01 1.63353e+00 7.03160e-01 9.69320e-01 1.72892e+00 7.03074e-01 9.88100e-01 1.82422e+00 7.02990e-01 1.00773e+00 1.91940e+00 7.02908e-01 1.02819e+00 2.01448e+00 7.02828e-01 1.04946e+00 2.10944e+00 7.02749e-01 1.07152e+00 2.20428e+00 7.02672e-01 1.09435e+00 2.29901e+00 7.02597e-01 1.11793e+00 2.39361e+00 7.02523e-01 1.14224e+00 2.48809e+00 7.02450e-01 1.16726e+00 2.58245e+00 7.02378e-01 1.19298e+00 2.67669e+00 7.02308e-01 1.21936e+00 2.77080e+00 7.02239e-01 1.24641e+00 2.86478e+00 7.02171e-01 1.27408e+00 2.95864e+00 7.02104e-01 1.30238e+00 3.05238e+00 7.02039e-01 1.33128e+00 3.14600e+00 7.01975e-01 1.36076e+00 3.23949e+00 7.01912e-01 1.39080e+00 3.33286e+00 7.01850e-01 1.42140e+00 3.42611e+00 7.01790e-01 1.45252e+00 3.51924e+00 7.01730e-01 1.48416e+00 3.61226e+00 7.01672e-01 1.51630e+00 3.70516e+00 7.01615e-01 1.54892e+00 3.79795e+00 7.01559e-01 1.58201e+00 3.89063e+00 7.01504e-01 1.61556e+00 3.98320e+00 7.01451e-01 1.64953e+00 4.07567e+00 7.01398e-01 1.68393e+00 4.16803e+00 7.01347e-01 1.71874e+00 4.26030e+00 7.01297e-01 1.75394e+00 4.35247e+00 7.01248e-01 1.78951e+00 4.44454e+00 7.01200e-01 1.82550e+00 4.53652e+00 7.01153e-01 1.86170e+00 4.62842e+00 7.01107e-01 1.89840e+00 4.72022e+00 7.01062e-01 1.93530e+00 4.81195e+00 7.01019e-01 1.97260e+00 4.90360e+00 7.00976e-01 2.01020e+00 4.99517e+00 7.00934e-01 2.04800e+00 5.08667e+00 7.00894e-01 2.08610e+00 5.17810e+00 7.00854e-01 2.12450e+00 5.26946e+00 7.00816e-01 2.16320e+00 5.36076e+00 7.00778e-01 2.20210e+00 5.45201e+00 7.00742e-01 2.24120e+00 5.54319e+00 7.00706e-01 2.28050e+00 5.63432e+00 7.00672e-01 2.32000e+00 5.72540e+00 7.00638e-01 2.35980e+00 5.81643e+00 7.00605e-01 2.39970e+00 5.90741e+00 7.00574e-01 2.43980e+00 5.99836e+00 7.00543e-01 2.48010e+00 6.08926e+00 7.00513e-01 2.52050e+00 6.18013e+00 7.00484e-01 2.56110e+00 6.27097e+00 7.00456e-01 2.60180e+00 6.36177e+00 7.00429e-01 2.64270e+00 6.45255e+00 7.00403e-01 2.68370e+00 6.54330e+00 7.00378e-01 2.72480e+00 6.63403e+00 7.00354e-01 2.76600e+00 6.72473e+00 7.00330e-01 2.80730e+00 6.81542e+00 7.00308e-01 2.84870e+00 6.90609e+00 7.00286e-01 2.89020e+00 6.99675e+00 7.00265e-01 2.93180e+00 7.08740e+00 7.00245e-01 2.97340e+00 7.17803e+00 7.00226e-01 3.01510e+00 7.26866e+00 7.00208e-01 3.05690e+00 7.35928e+00 7.00191e-01 3.09880e+00 7.44989e+00 7.00174e-01 3.14070e+00 7.54051e+00 7.00158e-01 3.18260e+00 7.63111e+00 7.00144e-01 3.22460e+00 7.72172e+00 7.00130e-01 3.26660e+00 7.81233e+00 7.00116e-01 3.30860e+00 7.90294e+00 7.00104e-01 3.35070e+00 7.99355e+00 7.00092e-01 3.39280e+00 8.08417e+00 7.00082e-01 3.43490e+00 8.17479e+00 7.00072e-01 3.47710e+00 8.26541e+00 7.00063e-01 3.51920e+00 8.35604e+00 7.00054e-01 3.56140e+00 8.44668e+00 7.00047e-01 3.60350e+00 8.53732e+00 7.00041e-01 3.64570e+00 8.62797e+00 7.00035e-01 3.68790e+00 8.71863e+00 7.00030e-01 3.73000e+00 8.80929e+00 7.00026e-01 3.77220e+00 8.89996e+00 7.00022e-01 3.81430e+00 8.99063e+00 7.00019e-01 3.85650e+00 9.08131e+00 7.00016e-01 3.89860e+00 9.17200e+00 7.00013e-01 3.94080e+00 9.26269e+00 7.00010e-01 3.98290e+00 0.00000e+00 8.00000e-01 8.00000e-01 9.84045e-02 8.02467e-01 8.00856e-01 1.95202e-01 8.04232e-01 8.03482e-01 2.90857e-01 8.05336e-01 8.07116e-01 3.86877e-01 8.05686e-01 8.11354e-01 4.83008e-01 8.06022e-01 8.17076e-01 5.79111e-01 8.06057e-01 8.23772e-01 6.75291e-01 8.06075e-01 8.31769e-01 7.71382e-01 8.05977e-01 8.40793e-01 8.67492e-01 8.05872e-01 8.50981e-01 9.63510e-01 8.05728e-01 8.62178e-01 1.05951e+00 8.05586e-01 8.74447e-01 1.15541e+00 8.05435e-01 8.87691e-01 1.25127e+00 8.05290e-01 9.01940e-01 1.34703e+00 8.05145e-01 9.17130e-01 1.44272e+00 8.05005e-01 9.33270e-01 1.53831e+00 8.04869e-01 9.50310e-01 1.63381e+00 8.04737e-01 9.68250e-01 1.72921e+00 8.04609e-01 9.87050e-01 1.82451e+00 8.04484e-01 1.00671e+00 1.91969e+00 8.04362e-01 1.02720e+00 2.01477e+00 8.04242e-01 1.04849e+00 2.10973e+00 8.04125e-01 1.07058e+00 2.20457e+00 8.04010e-01 1.09344e+00 2.29930e+00 8.03897e-01 1.11704e+00 2.39390e+00 8.03786e-01 1.14138e+00 2.48838e+00 8.03677e-01 1.16642e+00 2.58274e+00 8.03570e-01 1.19216e+00 2.67697e+00 8.03464e-01 1.21857e+00 2.77108e+00 8.03361e-01 1.24564e+00 2.86506e+00 8.03259e-01 1.27334e+00 2.95892e+00 8.03160e-01 1.30166e+00 3.05266e+00 8.03062e-01 1.33058e+00 3.14627e+00 8.02966e-01 1.36008e+00 3.23976e+00 8.02871e-01 1.39015e+00 3.33312e+00 8.02779e-01 1.42076e+00 3.42637e+00 8.02688e-01 1.45191e+00 3.51950e+00 8.02599e-01 1.48357e+00 3.61251e+00 8.02512e-01 1.51573e+00 3.70541e+00 8.02426e-01 1.54837e+00 3.79819e+00 8.02342e-01 1.58148e+00 3.89087e+00 8.02260e-01 1.61504e+00 3.98343e+00 8.02180e-01 1.64904e+00 4.07589e+00 8.02101e-01 1.68346e+00 4.16825e+00 8.02024e-01 1.71828e+00 4.26051e+00 8.01949e-01 1.75350e+00 4.35267e+00 8.01875e-01 1.78909e+00 4.44474e+00 8.01803e-01 1.82500e+00 4.53672e+00 8.01733e-01 1.86140e+00 4.62861e+00 8.01664e-01 1.89800e+00 4.72041e+00 8.01597e-01 1.93500e+00 4.81213e+00 8.01531e-01 1.97230e+00 4.90377e+00 8.01467e-01 2.00980e+00 4.99534e+00 8.01405e-01 2.04770e+00 5.08683e+00 8.01344e-01 2.08580e+00 5.17826e+00 8.01284e-01 2.12420e+00 5.26961e+00 8.01226e-01 2.16290e+00 5.36091e+00 8.01170e-01 2.20180e+00 5.45214e+00 8.01115e-01 2.24090e+00 5.54332e+00 8.01062e-01 2.28030e+00 5.63444e+00 8.01010e-01 2.31980e+00 5.72552e+00 8.00959e-01 2.35960e+00 5.81654e+00 8.00910e-01 2.39950e+00 5.90752e+00 8.00863e-01 2.43960e+00 5.99846e+00 8.00817e-01 2.47990e+00 6.08936e+00 8.00772e-01 2.52030e+00 6.18023e+00 8.00728e-01 2.56090e+00 6.27106e+00 8.00686e-01 2.60170e+00 6.36186e+00 8.00646e-01 2.64250e+00 6.45263e+00 8.00606e-01 2.68350e+00 6.54338e+00 8.00568e-01 2.72460e+00 6.63410e+00 8.00532e-01 2.76590e+00 6.72480e+00 8.00497e-01 2.80720e+00 6.81549e+00 8.00463e-01 2.84860e+00 6.90615e+00 8.00430e-01 2.89010e+00 6.99681e+00 8.00399e-01 2.93170e+00 7.08745e+00 8.00369e-01 2.97330e+00 7.17808e+00 8.00340e-01 3.01510e+00 7.26870e+00 8.00313e-01 3.05690e+00 7.35932e+00 8.00287e-01 3.09870e+00 7.44993e+00 8.00262e-01 3.14060e+00 7.54054e+00 8.00238e-01 3.18260e+00 7.63114e+00 8.00216e-01 3.22450e+00 7.72175e+00 8.00195e-01 3.26660e+00 7.81235e+00 8.00175e-01 3.30860e+00 7.90296e+00 8.00156e-01 3.35070e+00 7.99357e+00 8.00139e-01 3.39280e+00 8.08419e+00 8.00122e-01 3.43490e+00 8.17480e+00 8.00108e-01 3.47710e+00 8.26543e+00 8.00094e-01 3.51920e+00 8.35605e+00 8.00081e-01 3.56140e+00 8.44669e+00 8.00070e-01 3.60350e+00 8.53733e+00 8.00060e-01 3.64570e+00 8.62798e+00 8.00052e-01 3.68790e+00 8.71863e+00 8.00044e-01 3.73000e+00 8.80929e+00 8.00038e-01 3.77220e+00 8.89996e+00 8.00032e-01 3.81440e+00 8.99063e+00 8.00027e-01 3.85650e+00 9.08131e+00 8.00023e-01 3.89870e+00 9.17200e+00 8.00018e-01 3.94080e+00 9.26269e+00 8.00014e-01 3.98290e+00 0.00000e+00 9.00000e-01 8.00000e-01 9.84251e-02 9.04028e-01 8.00291e-01 1.94343e-01 9.06619e-01 8.02506e-01 2.90266e-01 9.07113e-01 8.05795e-01 3.86533e-01 9.07805e-01 8.09896e-01 4.82793e-01 9.07965e-01 8.15479e-01 5.79077e-01 9.08095e-01 8.22109e-01 6.75344e-01 9.08032e-01 8.30063e-01 7.71542e-01 9.07937e-01 8.39079e-01 8.67709e-01 9.07774e-01 8.49271e-01 9.63786e-01 9.07600e-01 8.60488e-01 1.05982e+00 9.07408e-01 8.72781e-01 1.15575e+00 9.07218e-01 8.86058e-01 1.25163e+00 9.07025e-01 9.00340e-01 1.34740e+00 9.06839e-01 9.15560e-01 1.44311e+00 9.06655e-01 9.31740e-01 1.53870e+00 9.06477e-01 9.48810e-01 1.63421e+00 9.06304e-01 9.66790e-01 1.72962e+00 9.06135e-01 9.85630e-01 1.82492e+00 9.05969e-01 1.00533e+00 1.92010e+00 9.05807e-01 1.02585e+00 2.01518e+00 9.05649e-01 1.04718e+00 2.11015e+00 9.05494e-01 1.06930e+00 2.20499e+00 9.05341e-01 1.09219e+00 2.29971e+00 9.05191e-01 1.11583e+00 2.39432e+00 9.05044e-01 1.14020e+00 2.48880e+00 9.04899e-01 1.16528e+00 2.58315e+00 9.04757e-01 1.19106e+00 2.67738e+00 9.04617e-01 1.21750e+00 2.77149e+00 9.04480e-01 1.24460e+00 2.86546e+00 9.04345e-01 1.27233e+00 2.95932e+00 9.04212e-01 1.30068e+00 3.05305e+00 9.04082e-01 1.32963e+00 3.14665e+00 9.03954e-01 1.35916e+00 3.24014e+00 9.03829e-01 1.38926e+00 3.33350e+00 9.03706e-01 1.41991e+00 3.42674e+00 9.03585e-01 1.45108e+00 3.51986e+00 9.03467e-01 1.48277e+00 3.61286e+00 9.03351e-01 1.51496e+00 3.70575e+00 9.03237e-01 1.54763e+00 3.79853e+00 9.03125e-01 1.58076e+00 3.89120e+00 9.03016e-01 1.61435e+00 3.98376e+00 9.02909e-01 1.64837e+00 4.07621e+00 9.02804e-01 1.68281e+00 4.16856e+00 9.02702e-01 1.71766e+00 4.26081e+00 9.02602e-01 1.75290e+00 4.35297e+00 9.02503e-01 1.78852e+00 4.44503e+00 9.02407e-01 1.82450e+00 4.53700e+00 9.02314e-01 1.86080e+00 4.62888e+00 9.02222e-01 1.89750e+00 4.72067e+00 9.02132e-01 1.93450e+00 4.81238e+00 9.02045e-01 1.97180e+00 4.90402e+00 9.01960e-01 2.00940e+00 4.99558e+00 9.01876e-01 2.04730e+00 5.08706e+00 9.01795e-01 2.08540e+00 5.17848e+00 9.01716e-01 2.12390e+00 5.26983e+00 9.01639e-01 2.16250e+00 5.36111e+00 9.01563e-01 2.20140e+00 5.45234e+00 9.01490e-01 2.24060e+00 5.54351e+00 9.01419e-01 2.27990e+00 5.63463e+00 9.01349e-01 2.31950e+00 5.72569e+00 9.01282e-01 2.35930e+00 5.81671e+00 9.01216e-01 2.39920e+00 5.90768e+00 9.01153e-01 2.43940e+00 5.99861e+00 9.01091e-01 2.47970e+00 6.08951e+00 9.01031e-01 2.52010e+00 6.18036e+00 9.00973e-01 2.56070e+00 6.27119e+00 9.00917e-01 2.60150e+00 6.36198e+00 9.00863e-01 2.64240e+00 6.45274e+00 9.00811e-01 2.68340e+00 6.54348e+00 9.00760e-01 2.72450e+00 6.63420e+00 9.00711e-01 2.76570e+00 6.72490e+00 9.00664e-01 2.80700e+00 6.81558e+00 9.00619e-01 2.84850e+00 6.90624e+00 9.00575e-01 2.89000e+00 6.99688e+00 9.00533e-01 2.93160e+00 7.08752e+00 9.00493e-01 2.97330e+00 7.17815e+00 9.00455e-01 3.01500e+00 7.26876e+00 9.00418e-01 3.05680e+00 7.35938e+00 9.00383e-01 3.09860e+00 7.44998e+00 9.00350e-01 3.14060e+00 7.54059e+00 9.00318e-01 3.18250e+00 7.63119e+00 9.00288e-01 3.22450e+00 7.72179e+00 9.00260e-01 3.26650e+00 7.81239e+00 9.00233e-01 3.30860e+00 7.90299e+00 9.00208e-01 3.35070e+00 7.99360e+00 9.00185e-01 3.39280e+00 8.08421e+00 9.00163e-01 3.43490e+00 8.17482e+00 9.00143e-01 3.47700e+00 8.26544e+00 9.00125e-01 3.51920e+00 8.35607e+00 9.00108e-01 3.56140e+00 8.44670e+00 9.00093e-01 3.60350e+00 8.53734e+00 9.00080e-01 3.64570e+00 8.62798e+00 9.00068e-01 3.68790e+00 8.71863e+00 9.00058e-01 3.73000e+00 8.80929e+00 9.00050e-01 3.77220e+00 8.89996e+00 9.00042e-01 3.81440e+00 8.99063e+00 9.00036e-01 3.85650e+00 9.08131e+00 9.00030e-01 3.89870e+00 9.17200e+00 9.00023e-01 3.94080e+00 9.26269e+00 9.00016e-01 3.98290e+00 0.00000e+00 1.00000e+00 8.00000e-01 9.66481e-02 1.00747e+00 7.99290e-01 1.92934e-01 1.00786e+00 8.01022e-01 2.89718e-01 1.00911e+00 8.03840e-01 3.86085e-01 1.00945e+00 8.07793e-01 4.82721e-01 1.00984e+00 8.13230e-01 5.79124e-01 1.00988e+00 8.19836e-01 6.75569e-01 1.00988e+00 8.27785e-01 7.71845e-01 1.00973e+00 8.36827e-01 8.68095e-01 1.00957e+00 8.47057e-01 9.64215e-01 1.00935e+00 8.58318e-01 1.06028e+00 1.00914e+00 8.70659e-01 1.15624e+00 1.00890e+00 8.83983e-01 1.25213e+00 1.00868e+00 8.98314e-01 1.34792e+00 1.00845e+00 9.13590e-01 1.44363e+00 1.00823e+00 9.29810e-01 1.53924e+00 1.00801e+00 9.46930e-01 1.63475e+00 1.00780e+00 9.64960e-01 1.73016e+00 1.00759e+00 9.83840e-01 1.82546e+00 1.00739e+00 1.00359e+00 1.92066e+00 1.00719e+00 1.02415e+00 2.01574e+00 1.00700e+00 1.04553e+00 2.11070e+00 1.00680e+00 1.06770e+00 2.20554e+00 1.00662e+00 1.09063e+00 2.30026e+00 1.00643e+00 1.11432e+00 2.39487e+00 1.00625e+00 1.13873e+00 2.48934e+00 1.00607e+00 1.16385e+00 2.58369e+00 1.00590e+00 1.18966e+00 2.67792e+00 1.00572e+00 1.21615e+00 2.77202e+00 1.00555e+00 1.24329e+00 2.86599e+00 1.00539e+00 1.27106e+00 2.95984e+00 1.00522e+00 1.29945e+00 3.05356e+00 1.00506e+00 1.32844e+00 3.14716e+00 1.00490e+00 1.35801e+00 3.24064e+00 1.00475e+00 1.38814e+00 3.33399e+00 1.00460e+00 1.41882e+00 3.42722e+00 1.00445e+00 1.45004e+00 3.52034e+00 1.00430e+00 1.48176e+00 3.61333e+00 1.00416e+00 1.51398e+00 3.70622e+00 1.00402e+00 1.54668e+00 3.79898e+00 1.00388e+00 1.57985e+00 3.89164e+00 1.00374e+00 1.61347e+00 3.98419e+00 1.00361e+00 1.64753e+00 4.07664e+00 1.00348e+00 1.68200e+00 4.16898e+00 1.00336e+00 1.71688e+00 4.26122e+00 1.00323e+00 1.75215e+00 4.35336e+00 1.00311e+00 1.78779e+00 4.44541e+00 1.00299e+00 1.82380e+00 4.53737e+00 1.00287e+00 1.86020e+00 4.62924e+00 1.00276e+00 1.89690e+00 4.72102e+00 1.00265e+00 1.93390e+00 4.81272e+00 1.00254e+00 1.97120e+00 4.90434e+00 1.00244e+00 2.00880e+00 4.99589e+00 1.00233e+00 2.04670e+00 5.08737e+00 1.00223e+00 2.08490e+00 5.17877e+00 1.00213e+00 2.12340e+00 5.27011e+00 1.00204e+00 2.16210e+00 5.36139e+00 1.00194e+00 2.20100e+00 5.45260e+00 1.00185e+00 2.24020e+00 5.54376e+00 1.00176e+00 2.27960e+00 5.63487e+00 1.00168e+00 2.31910e+00 5.72592e+00 1.00160e+00 2.35890e+00 5.81693e+00 1.00151e+00 2.39890e+00 5.90789e+00 1.00143e+00 2.43900e+00 5.99882e+00 1.00136e+00 2.47940e+00 6.08970e+00 1.00128e+00 2.51980e+00 6.18055e+00 1.00121e+00 2.56050e+00 6.27136e+00 1.00114e+00 2.60120e+00 6.36214e+00 1.00107e+00 2.64210e+00 6.45290e+00 1.00101e+00 2.68310e+00 6.54363e+00 1.00095e+00 2.72430e+00 6.63434e+00 1.00089e+00 2.76550e+00 6.72503e+00 1.00083e+00 2.80690e+00 6.81570e+00 1.00077e+00 2.84830e+00 6.90635e+00 1.00072e+00 2.88980e+00 6.99699e+00 1.00066e+00 2.93150e+00 7.08762e+00 1.00061e+00 2.97310e+00 7.17824e+00 1.00057e+00 3.01490e+00 7.26885e+00 1.00052e+00 3.05670e+00 7.35945e+00 1.00048e+00 3.09860e+00 7.45005e+00 1.00044e+00 3.14050e+00 7.54065e+00 1.00040e+00 3.18240e+00 7.63125e+00 1.00036e+00 3.22440e+00 7.72184e+00 1.00032e+00 3.26650e+00 7.81244e+00 1.00029e+00 3.30850e+00 7.90303e+00 1.00026e+00 3.35060e+00 7.99364e+00 1.00023e+00 3.39270e+00 8.08424e+00 1.00020e+00 3.43490e+00 8.17485e+00 1.00018e+00 3.47700e+00 8.26547e+00 1.00016e+00 3.51920e+00 8.35609e+00 1.00014e+00 3.56140e+00 8.44671e+00 1.00012e+00 3.60350e+00 8.53735e+00 1.00010e+00 3.64570e+00 8.62799e+00 1.00009e+00 3.68790e+00 8.71864e+00 1.00007e+00 3.73000e+00 8.80930e+00 1.00006e+00 3.77220e+00 8.89996e+00 1.00005e+00 3.81440e+00 8.99063e+00 1.00005e+00 3.85650e+00 9.08131e+00 1.00004e+00 3.89870e+00 9.17200e+00 1.00003e+00 3.94080e+00 9.26269e+00 1.00002e+00 3.98300e+00 0.00000e+00 0.00000e+00 9.00000e-01 9.54143e-02 -8.78540e-03 9.01342e-01 1.89845e-01 -9.36100e-03 9.03532e-01 2.85755e-01 -1.15820e-02 9.05672e-01 3.81135e-01 -1.20080e-02 9.09786e-01 4.76687e-01 -1.25390e-02 9.14879e-01 5.72012e-01 -1.25510e-02 9.21541e-01 6.67286e-01 -1.25170e-02 9.29269e-01 7.62469e-01 -1.23260e-02 9.38274e-01 8.57573e-01 -1.21010e-02 9.48314e-01 9.52629e-01 -1.18370e-02 9.59474e-01 1.04761e+00 -1.15580e-02 9.71628e-01 1.14255e+00 -1.12790e-02 9.84810e-01 1.23741e+00 -1.09960e-02 9.98947e-01 1.33222e+00 -1.07210e-02 1.01405e+00 1.42696e+00 -1.04480e-02 1.03007e+00 1.52164e+00 -1.01840e-02 1.04701e+00 1.61624e+00 -9.92190e-03 1.06482e+00 1.71076e+00 -9.66800e-03 1.08351e+00 1.80519e+00 -9.41660e-03 1.10304e+00 1.89955e+00 -9.17150e-03 1.12340e+00 1.99380e+00 -8.92920e-03 1.14457e+00 2.08797e+00 -8.69190e-03 1.16652e+00 2.18204e+00 -8.45750e-03 1.18924e+00 2.27601e+00 -8.22750e-03 1.21270e+00 2.36988e+00 -8.00040e-03 1.23690e+00 2.46364e+00 -7.77730e-03 1.26180e+00 2.55730e+00 -7.55730e-03 1.28740e+00 2.65086e+00 -7.34100e-03 1.31366e+00 2.74431e+00 -7.12790e-03 1.34059e+00 2.83765e+00 -6.91840e-03 1.36814e+00 2.93089e+00 -6.71220e-03 1.39632e+00 3.02402e+00 -6.50950e-03 1.42510e+00 3.11704e+00 -6.31010e-03 1.45446e+00 3.20996e+00 -6.11420e-03 1.48439e+00 3.30278e+00 -5.92170e-03 1.51486e+00 3.39549e+00 -5.73250e-03 1.54587e+00 3.48810e+00 -5.54670e-03 1.57740e+00 3.58062e+00 -5.36440e-03 1.60943e+00 3.67303e+00 -5.18530e-03 1.64194e+00 3.76534e+00 -5.00960e-03 1.67492e+00 3.85757e+00 -4.83730e-03 1.70835e+00 3.94969e+00 -4.66820e-03 1.74223e+00 4.04173e+00 -4.50250e-03 1.77652e+00 4.13368e+00 -4.34000e-03 1.81123e+00 4.22555e+00 -4.18090e-03 1.84633e+00 4.31733e+00 -4.02490e-03 1.88181e+00 4.40903e+00 -3.87230e-03 1.91770e+00 4.50066e+00 -3.72280e-03 1.95390e+00 4.59221e+00 -3.57660e-03 1.99040e+00 4.68368e+00 -3.43350e-03 2.02730e+00 4.77509e+00 -3.29360e-03 2.06450e+00 4.86643e+00 -3.15690e-03 2.10190e+00 4.95771e+00 -3.02330e-03 2.13970e+00 5.04893e+00 -2.89290e-03 2.17780e+00 5.14009e+00 -2.76550e-03 2.21610e+00 5.23119e+00 -2.64130e-03 2.25470e+00 5.32224e+00 -2.52010e-03 2.29350e+00 5.41324e+00 -2.40190e-03 2.33260e+00 5.50420e+00 -2.28680e-03 2.37180e+00 5.59512e+00 -2.17470e-03 2.41130e+00 5.68599e+00 -2.06570e-03 2.45100e+00 5.77682e+00 -1.95960e-03 2.49090e+00 5.86762e+00 -1.85640e-03 2.53090e+00 5.95839e+00 -1.75630e-03 2.57120e+00 6.04913e+00 -1.65910e-03 2.61160e+00 6.13984e+00 -1.56480e-03 2.65210e+00 6.23052e+00 -1.47340e-03 2.69280e+00 6.32119e+00 -1.38490e-03 2.73360e+00 6.41183e+00 -1.29920e-03 2.77460e+00 6.50246e+00 -1.21650e-03 2.81560e+00 6.59307e+00 -1.13660e-03 2.85680e+00 6.68366e+00 -1.05950e-03 2.89810e+00 6.77425e+00 -9.85280e-04 2.93950e+00 6.86482e+00 -9.13850e-04 2.98100e+00 6.95539e+00 -8.45220e-04 3.02260e+00 7.04595e+00 -7.79390e-04 3.06420e+00 7.13651e+00 -7.16330e-04 3.10590e+00 7.22707e+00 -6.56040e-04 3.14770e+00 7.31762e+00 -5.98500e-04 3.18950e+00 7.40818e+00 -5.43710e-04 3.23140e+00 7.49873e+00 -4.91660e-04 3.27330e+00 7.58929e+00 -4.42340e-04 3.31530e+00 7.67985e+00 -3.95740e-04 3.35730e+00 7.77042e+00 -3.51850e-04 3.39940e+00 7.86100e+00 -3.10680e-04 3.44140e+00 7.95158e+00 -2.72220e-04 3.48350e+00 8.04216e+00 -2.36470e-04 3.52560e+00 8.13276e+00 -2.03430e-04 3.56780e+00 8.22336e+00 -1.73100e-04 3.60990e+00 8.31397e+00 -1.45500e-04 3.65210e+00 8.40459e+00 -1.20620e-04 3.69420e+00 8.49522e+00 -9.84710e-05 3.73640e+00 8.58586e+00 -7.90390e-05 3.77860e+00 8.67651e+00 -6.22890e-05 3.82070e+00 8.76716e+00 -4.81170e-05 3.86290e+00 8.85783e+00 -3.63530e-05 3.90510e+00 8.94850e+00 -2.65650e-05 3.94720e+00 9.03918e+00 -1.82030e-05 3.98940e+00 9.12986e+00 -9.79570e-06 4.03150e+00 9.22055e+00 -1.43870e-06 4.07370e+00 0.00000e+00 1.00000e-01 9.00000e-01 9.76877e-02 9.53774e-02 9.02417e-01 1.91652e-01 9.21655e-02 9.05219e-01 2.86549e-01 9.11962e-02 9.07667e-01 3.81758e-01 9.02220e-02 9.11939e-01 4.76785e-01 9.00082e-02 9.17143e-01 5.71996e-01 8.98400e-02 9.23795e-01 6.67032e-01 8.99360e-02 9.31526e-01 7.62150e-01 9.00582e-02 9.40480e-01 8.57149e-01 9.02666e-02 9.50486e-01 9.52171e-01 9.04801e-02 9.61591e-01 1.04711e+00 9.07158e-02 9.73701e-01 1.14203e+00 9.09474e-02 9.86830e-01 1.23687e+00 9.11800e-02 1.00092e+00 1.33167e+00 9.14062e-02 1.01597e+00 1.42640e+00 9.16278e-02 1.03195e+00 1.52108e+00 9.18437e-02 1.04884e+00 1.61567e+00 9.20545e-02 1.06661e+00 1.71019e+00 9.22607e-02 1.08525e+00 1.80462e+00 9.24624e-02 1.10474e+00 1.89897e+00 9.26605e-02 1.12505e+00 1.99323e+00 9.28548e-02 1.14617e+00 2.08739e+00 9.30460e-02 1.16808e+00 2.18146e+00 9.32339e-02 1.19075e+00 2.27543e+00 9.34190e-02 1.21418e+00 2.36930e+00 9.36010e-02 1.23833e+00 2.46307e+00 9.37803e-02 1.26319e+00 2.55674e+00 9.39568e-02 1.28875e+00 2.65030e+00 9.41304e-02 1.31497e+00 2.74375e+00 9.43013e-02 1.34186e+00 2.83710e+00 9.44694e-02 1.36938e+00 2.93034e+00 9.46348e-02 1.39751e+00 3.02348e+00 9.47974e-02 1.42625e+00 3.11651e+00 9.49572e-02 1.45558e+00 3.20944e+00 9.51143e-02 1.48547e+00 3.30227e+00 9.52686e-02 1.51591e+00 3.39499e+00 9.54202e-02 1.54688e+00 3.48761e+00 9.55690e-02 1.57838e+00 3.58013e+00 9.57152e-02 1.61037e+00 3.67255e+00 9.58586e-02 1.64285e+00 3.76487e+00 9.59993e-02 1.67580e+00 3.85711e+00 9.61373e-02 1.70920e+00 3.94924e+00 9.62726e-02 1.74304e+00 4.04129e+00 9.64053e-02 1.77731e+00 4.13325e+00 9.65353e-02 1.81198e+00 4.22513e+00 9.66627e-02 1.84705e+00 4.31692e+00 9.67874e-02 1.88251e+00 4.40864e+00 9.69096e-02 1.91830e+00 4.50027e+00 9.70291e-02 1.95450e+00 4.59183e+00 9.71461e-02 1.99100e+00 4.68332e+00 9.72604e-02 2.02790e+00 4.77474e+00 9.73723e-02 2.06500e+00 4.86609e+00 9.74815e-02 2.10250e+00 4.95738e+00 9.75883e-02 2.14020e+00 5.04861e+00 9.76925e-02 2.17830e+00 5.13978e+00 9.77943e-02 2.21660e+00 5.23089e+00 9.78936e-02 2.25510e+00 5.32196e+00 9.79904e-02 2.29390e+00 5.41297e+00 9.80847e-02 2.33300e+00 5.50394e+00 9.81766e-02 2.37220e+00 5.59486e+00 9.82661e-02 2.41170e+00 5.68574e+00 9.83532e-02 2.45130e+00 5.77659e+00 9.84379e-02 2.49120e+00 5.86740e+00 9.85202e-02 2.53120e+00 5.95818e+00 9.86001e-02 2.57140e+00 6.04893e+00 9.86777e-02 2.61180e+00 6.13965e+00 9.87529e-02 2.65230e+00 6.23034e+00 9.88258e-02 2.69300e+00 6.32101e+00 9.88964e-02 2.73380e+00 6.41166e+00 9.89647e-02 2.77480e+00 6.50230e+00 9.90307e-02 2.81580e+00 6.59292e+00 9.90944e-02 2.85700e+00 6.68352e+00 9.91558e-02 2.89830e+00 6.77412e+00 9.92150e-02 2.93970e+00 6.86470e+00 9.92719e-02 2.98110e+00 6.95528e+00 9.93266e-02 3.02270e+00 7.04585e+00 9.93791e-02 3.06430e+00 7.13641e+00 9.94293e-02 3.10600e+00 7.22697e+00 9.94774e-02 3.14780e+00 7.31754e+00 9.95232e-02 3.18960e+00 7.40810e+00 9.95669e-02 3.23150e+00 7.49866e+00 9.96084e-02 3.27340e+00 7.58923e+00 9.96476e-02 3.31530e+00 7.67980e+00 9.96848e-02 3.35730e+00 7.77037e+00 9.97197e-02 3.39940e+00 7.86095e+00 9.97525e-02 3.44150e+00 7.95153e+00 9.97831e-02 3.48350e+00 8.04213e+00 9.98116e-02 3.52570e+00 8.13273e+00 9.98379e-02 3.56780e+00 8.22333e+00 9.98620e-02 3.60990e+00 8.31395e+00 9.98839e-02 3.65210e+00 8.40458e+00 9.99036e-02 3.69420e+00 8.49521e+00 9.99212e-02 3.73640e+00 8.58585e+00 9.99366e-02 3.77860e+00 8.67650e+00 9.99498e-02 3.82070e+00 8.76716e+00 9.99610e-02 3.86290e+00 8.85782e+00 9.99703e-02 3.90510e+00 8.94850e+00 9.99781e-02 3.94720e+00 9.03918e+00 9.99851e-02 3.98940e+00 9.12986e+00 9.99918e-02 4.03150e+00 9.22055e+00 9.99986e-02 4.07360e+00 0.00000e+00 2.00000e-01 9.00000e-01 9.77345e-02 1.97036e-01 9.03331e-01 1.92527e-01 1.94925e-01 9.06727e-01 2.87112e-01 1.93474e-01 9.09232e-01 3.82178e-01 1.92914e-01 9.13630e-01 4.77020e-01 1.92475e-01 9.18895e-01 5.72061e-01 1.92419e-01 9.25586e-01 6.66982e-01 1.92399e-01 9.33323e-01 7.61992e-01 1.92523e-01 9.42269e-01 8.56922e-01 1.92654e-01 9.52252e-01 9.51886e-01 1.92831e-01 9.63329e-01 1.04678e+00 1.93004e-01 9.75404e-01 1.14167e+00 1.93186e-01 9.88499e-01 1.23649e+00 1.93363e-01 1.00255e+00 1.33128e+00 1.93537e-01 1.01757e+00 1.42600e+00 1.93706e-01 1.03350e+00 1.52066e+00 1.93871e-01 1.05036e+00 1.61525e+00 1.94031e-01 1.06809e+00 1.70976e+00 1.94187e-01 1.08669e+00 1.80419e+00 1.94339e-01 1.10614e+00 1.89854e+00 1.94489e-01 1.12642e+00 1.99280e+00 1.94636e-01 1.14750e+00 2.08696e+00 1.94780e-01 1.16937e+00 2.18103e+00 1.94921e-01 1.19201e+00 2.27500e+00 1.95061e-01 1.21540e+00 2.36887e+00 1.95198e-01 1.23952e+00 2.46265e+00 1.95333e-01 1.26435e+00 2.55631e+00 1.95466e-01 1.28987e+00 2.64988e+00 1.95596e-01 1.31606e+00 2.74333e+00 1.95725e-01 1.34291e+00 2.83669e+00 1.95851e-01 1.37040e+00 2.92994e+00 1.95976e-01 1.39851e+00 3.02308e+00 1.96098e-01 1.42721e+00 3.11612e+00 1.96218e-01 1.45651e+00 3.20905e+00 1.96336e-01 1.48637e+00 3.30188e+00 1.96452e-01 1.51678e+00 3.39461e+00 1.96566e-01 1.54772e+00 3.48723e+00 1.96678e-01 1.57919e+00 3.57976e+00 1.96788e-01 1.61115e+00 3.67219e+00 1.96896e-01 1.64360e+00 3.76452e+00 1.97001e-01 1.67652e+00 3.85676e+00 1.97105e-01 1.70990e+00 3.94891e+00 1.97207e-01 1.74372e+00 4.04096e+00 1.97306e-01 1.77796e+00 4.13293e+00 1.97404e-01 1.81261e+00 4.22482e+00 1.97500e-01 1.84766e+00 4.31662e+00 1.97593e-01 1.88309e+00 4.40834e+00 1.97685e-01 1.91890e+00 4.49998e+00 1.97775e-01 1.95500e+00 4.59155e+00 1.97862e-01 1.99150e+00 4.68305e+00 1.97948e-01 2.02840e+00 4.77447e+00 1.98032e-01 2.06550e+00 4.86584e+00 1.98114e-01 2.10290e+00 4.95713e+00 1.98194e-01 2.14070e+00 5.04837e+00 1.98272e-01 2.17870e+00 5.13955e+00 1.98348e-01 2.21700e+00 5.23067e+00 1.98423e-01 2.25550e+00 5.32174e+00 1.98495e-01 2.29430e+00 5.41277e+00 1.98566e-01 2.33330e+00 5.50374e+00 1.98635e-01 2.37250e+00 5.59467e+00 1.98702e-01 2.41200e+00 5.68556e+00 1.98767e-01 2.45160e+00 5.77642e+00 1.98831e-01 2.49150e+00 5.86724e+00 1.98892e-01 2.53150e+00 5.95802e+00 1.98952e-01 2.57170e+00 6.04878e+00 1.99010e-01 2.61200e+00 6.13950e+00 1.99066e-01 2.65260e+00 6.23021e+00 1.99121e-01 2.69320e+00 6.32089e+00 1.99174e-01 2.73400e+00 6.41154e+00 1.99225e-01 2.77490e+00 6.50219e+00 1.99274e-01 2.81600e+00 6.59281e+00 1.99322e-01 2.85710e+00 6.68342e+00 1.99368e-01 2.89840e+00 6.77402e+00 1.99412e-01 2.93980e+00 6.86461e+00 1.99455e-01 2.98120e+00 6.95519e+00 1.99496e-01 3.02280e+00 7.04577e+00 1.99535e-01 3.06440e+00 7.13634e+00 1.99573e-01 3.10610e+00 7.22691e+00 1.99609e-01 3.14780e+00 7.31748e+00 1.99643e-01 3.18960e+00 7.40804e+00 1.99676e-01 3.23150e+00 7.49861e+00 1.99707e-01 3.27340e+00 7.58918e+00 1.99736e-01 3.31540e+00 7.67976e+00 1.99764e-01 3.35740e+00 7.77033e+00 1.99790e-01 3.39940e+00 7.86092e+00 1.99814e-01 3.44150e+00 7.95151e+00 1.99837e-01 3.48360e+00 8.04210e+00 1.99858e-01 3.52570e+00 8.13271e+00 1.99878e-01 3.56780e+00 8.22332e+00 1.99896e-01 3.60990e+00 8.31394e+00 1.99912e-01 3.65210e+00 8.40456e+00 1.99927e-01 3.69420e+00 8.49520e+00 1.99940e-01 3.73640e+00 8.58584e+00 1.99952e-01 3.77860e+00 8.67650e+00 1.99961e-01 3.82070e+00 8.76716e+00 1.99970e-01 3.86290e+00 8.85782e+00 1.99977e-01 3.90500e+00 8.94850e+00 1.99983e-01 3.94720e+00 9.03918e+00 1.99988e-01 3.98930e+00 9.12986e+00 1.99993e-01 4.03150e+00 9.22055e+00 1.99998e-01 4.07360e+00 0.00000e+00 3.00000e-01 9.00000e-01 9.80347e-02 2.98204e-01 9.03797e-01 1.92595e-01 2.96759e-01 9.07719e-01 2.87457e-01 2.95903e-01 9.10371e-01 3.82371e-01 2.95281e-01 9.14834e-01 4.77202e-01 2.95066e-01 9.20128e-01 5.72136e-01 2.94909e-01 9.26854e-01 6.66991e-01 2.94937e-01 9.34597e-01 7.61929e-01 2.94975e-01 9.43551e-01 8.56805e-01 2.95083e-01 9.53522e-01 9.51724e-01 2.95187e-01 9.64587e-01 1.04658e+00 2.95313e-01 9.76640e-01 1.14145e+00 2.95432e-01 9.89715e-01 1.23625e+00 2.95554e-01 1.00374e+00 1.33103e+00 2.95671e-01 1.01873e+00 1.42573e+00 2.95786e-01 1.03464e+00 1.52039e+00 2.95897e-01 1.05147e+00 1.61496e+00 2.96005e-01 1.06917e+00 1.70948e+00 2.96110e-01 1.08775e+00 1.80390e+00 2.96213e-01 1.10717e+00 1.89825e+00 2.96314e-01 1.12742e+00 1.99250e+00 2.96412e-01 1.14848e+00 2.08667e+00 2.96509e-01 1.17032e+00 2.18074e+00 2.96604e-01 1.19294e+00 2.27471e+00 2.96697e-01 1.21630e+00 2.36858e+00 2.96789e-01 1.24039e+00 2.46235e+00 2.96879e-01 1.26519e+00 2.55602e+00 2.96968e-01 1.29069e+00 2.64959e+00 2.97056e-01 1.31686e+00 2.74305e+00 2.97142e-01 1.34369e+00 2.83640e+00 2.97227e-01 1.37115e+00 2.92965e+00 2.97310e-01 1.39923e+00 3.02280e+00 2.97392e-01 1.42792e+00 3.11584e+00 2.97472e-01 1.45719e+00 3.20878e+00 2.97551e-01 1.48703e+00 3.30161e+00 2.97629e-01 1.51742e+00 3.39434e+00 2.97705e-01 1.54834e+00 3.48698e+00 2.97780e-01 1.57978e+00 3.57951e+00 2.97854e-01 1.61173e+00 3.67194e+00 2.97926e-01 1.64416e+00 3.76428e+00 2.97997e-01 1.67706e+00 3.85652e+00 2.98066e-01 1.71042e+00 3.94868e+00 2.98134e-01 1.74421e+00 4.04074e+00 2.98201e-01 1.77844e+00 4.13271e+00 2.98266e-01 1.81307e+00 4.22460e+00 2.98330e-01 1.84810e+00 4.31641e+00 2.98392e-01 1.88351e+00 4.40814e+00 2.98454e-01 1.91930e+00 4.49978e+00 2.98514e-01 1.95540e+00 4.59136e+00 2.98572e-01 1.99190e+00 4.68286e+00 2.98630e-01 2.02870e+00 4.77429e+00 2.98686e-01 2.06580e+00 4.86566e+00 2.98740e-01 2.10330e+00 4.95696e+00 2.98794e-01 2.14100e+00 5.04821e+00 2.98846e-01 2.17900e+00 5.13939e+00 2.98897e-01 2.21720e+00 5.23052e+00 2.98947e-01 2.25580e+00 5.32160e+00 2.98995e-01 2.29450e+00 5.41263e+00 2.99043e-01 2.33350e+00 5.50361e+00 2.99089e-01 2.37280e+00 5.59455e+00 2.99133e-01 2.41220e+00 5.68544e+00 2.99177e-01 2.45180e+00 5.77630e+00 2.99219e-01 2.49170e+00 5.86713e+00 2.99260e-01 2.53170e+00 5.95792e+00 2.99300e-01 2.57190e+00 6.04868e+00 2.99339e-01 2.61220e+00 6.13941e+00 2.99377e-01 2.65270e+00 6.23012e+00 2.99413e-01 2.69340e+00 6.32080e+00 2.99449e-01 2.73420e+00 6.41146e+00 2.99483e-01 2.77510e+00 6.50211e+00 2.99516e-01 2.81610e+00 6.59274e+00 2.99547e-01 2.85730e+00 6.68336e+00 2.99578e-01 2.89850e+00 6.77396e+00 2.99608e-01 2.93990e+00 6.86455e+00 2.99636e-01 2.98130e+00 6.95514e+00 2.99663e-01 3.02290e+00 7.04572e+00 2.99690e-01 3.06450e+00 7.13629e+00 2.99715e-01 3.10610e+00 7.22687e+00 2.99739e-01 3.14790e+00 7.31744e+00 2.99762e-01 3.18970e+00 7.40801e+00 2.99783e-01 3.23160e+00 7.49858e+00 2.99804e-01 3.27350e+00 7.58915e+00 2.99824e-01 3.31540e+00 7.67973e+00 2.99842e-01 3.35740e+00 7.77031e+00 2.99859e-01 3.39940e+00 7.86090e+00 2.99876e-01 3.44150e+00 7.95149e+00 2.99891e-01 3.48360e+00 8.04209e+00 2.99905e-01 3.52570e+00 8.13269e+00 2.99918e-01 3.56780e+00 8.22331e+00 2.99930e-01 3.60990e+00 8.31393e+00 2.99941e-01 3.65210e+00 8.40456e+00 2.99951e-01 3.69420e+00 8.49519e+00 2.99960e-01 3.73640e+00 8.58584e+00 2.99967e-01 3.77860e+00 8.67649e+00 2.99974e-01 3.82070e+00 8.76715e+00 2.99979e-01 3.86290e+00 8.85782e+00 2.99984e-01 3.90500e+00 8.94850e+00 2.99988e-01 3.94720e+00 9.03918e+00 2.99992e-01 3.98930e+00 9.12986e+00 2.99995e-01 4.03150e+00 9.22055e+00 2.99998e-01 4.07360e+00 0.00000e+00 4.00000e-01 9.00000e-01 9.79518e-02 3.99133e-01 9.04041e-01 1.92790e-01 3.98463e-01 9.08216e-01 2.87462e-01 3.97964e-01 9.11003e-01 3.82538e-01 3.97707e-01 9.15534e-01 4.77247e-01 3.97522e-01 9.20851e-01 5.72215e-01 3.97478e-01 9.27599e-01 6.66991e-01 3.97453e-01 9.35353e-01 7.61918e-01 3.97491e-01 9.44311e-01 8.56745e-01 3.97529e-01 9.54282e-01 9.51647e-01 3.97590e-01 9.65342e-01 1.04648e+00 3.97647e-01 9.77387e-01 1.14133e+00 3.97711e-01 9.90449e-01 1.23612e+00 3.97771e-01 1.00446e+00 1.33088e+00 3.97831e-01 1.01944e+00 1.42558e+00 3.97888e-01 1.03533e+00 1.52023e+00 3.97945e-01 1.05214e+00 1.61480e+00 3.97999e-01 1.06983e+00 1.70931e+00 3.98052e-01 1.08839e+00 1.80373e+00 3.98103e-01 1.10780e+00 1.89808e+00 3.98154e-01 1.12803e+00 1.99233e+00 3.98203e-01 1.14907e+00 2.08650e+00 3.98252e-01 1.17090e+00 2.18056e+00 3.98299e-01 1.19350e+00 2.27454e+00 3.98346e-01 1.21685e+00 2.36841e+00 3.98392e-01 1.24092e+00 2.46218e+00 3.98438e-01 1.26571e+00 2.55585e+00 3.98482e-01 1.29119e+00 2.64942e+00 3.98526e-01 1.31734e+00 2.74288e+00 3.98569e-01 1.34416e+00 2.83624e+00 3.98612e-01 1.37160e+00 2.92949e+00 3.98653e-01 1.39967e+00 3.02264e+00 3.98695e-01 1.42835e+00 3.11568e+00 3.98735e-01 1.45760e+00 3.20862e+00 3.98774e-01 1.48743e+00 3.30146e+00 3.98813e-01 1.51780e+00 3.39419e+00 3.98852e-01 1.54872e+00 3.48683e+00 3.98889e-01 1.58015e+00 3.57936e+00 3.98926e-01 1.61208e+00 3.67180e+00 3.98962e-01 1.64450e+00 3.76414e+00 3.98997e-01 1.67739e+00 3.85639e+00 3.99032e-01 1.71073e+00 3.94854e+00 3.99066e-01 1.74452e+00 4.04061e+00 3.99100e-01 1.77873e+00 4.13258e+00 3.99132e-01 1.81335e+00 4.22448e+00 3.99164e-01 1.84837e+00 4.31629e+00 3.99196e-01 1.88377e+00 4.40802e+00 3.99226e-01 1.91950e+00 4.49967e+00 3.99256e-01 1.95570e+00 4.59125e+00 3.99286e-01 1.99210e+00 4.68275e+00 3.99314e-01 2.02890e+00 4.77419e+00 3.99342e-01 2.06600e+00 4.86556e+00 3.99370e-01 2.10350e+00 4.95687e+00 3.99397e-01 2.14120e+00 5.04811e+00 3.99423e-01 2.17920e+00 5.13930e+00 3.99448e-01 2.21740e+00 5.23043e+00 3.99473e-01 2.25590e+00 5.32151e+00 3.99497e-01 2.29470e+00 5.41255e+00 3.99521e-01 2.33370e+00 5.50353e+00 3.99544e-01 2.37290e+00 5.59447e+00 3.99566e-01 2.41230e+00 5.68537e+00 3.99588e-01 2.45200e+00 5.77623e+00 3.99609e-01 2.49180e+00 5.86706e+00 3.99630e-01 2.53180e+00 5.95785e+00 3.99650e-01 2.57200e+00 6.04862e+00 3.99669e-01 2.61230e+00 6.13935e+00 3.99688e-01 2.65280e+00 6.23006e+00 3.99706e-01 2.69350e+00 6.32075e+00 3.99724e-01 2.73420e+00 6.41142e+00 3.99741e-01 2.77510e+00 6.50207e+00 3.99758e-01 2.81620e+00 6.59270e+00 3.99774e-01 2.85730e+00 6.68332e+00 3.99789e-01 2.89860e+00 6.77392e+00 3.99804e-01 2.93990e+00 6.86452e+00 3.99818e-01 2.98140e+00 6.95511e+00 3.99832e-01 3.02290e+00 7.04569e+00 3.99845e-01 3.06450e+00 7.13627e+00 3.99857e-01 3.10620e+00 7.22684e+00 3.99869e-01 3.14790e+00 7.31742e+00 3.99881e-01 3.18970e+00 7.40799e+00 3.99891e-01 3.23160e+00 7.49856e+00 3.99902e-01 3.27350e+00 7.58914e+00 3.99912e-01 3.31540e+00 7.67971e+00 3.99921e-01 3.35740e+00 7.77030e+00 3.99930e-01 3.39950e+00 7.86089e+00 3.99938e-01 3.44150e+00 7.95148e+00 3.99945e-01 3.48360e+00 8.04208e+00 3.99952e-01 3.52570e+00 8.13269e+00 3.99959e-01 3.56780e+00 8.22330e+00 3.99965e-01 3.60990e+00 8.31392e+00 3.99970e-01 3.65210e+00 8.40455e+00 3.99975e-01 3.69420e+00 8.49519e+00 3.99980e-01 3.73640e+00 8.58584e+00 3.99983e-01 3.77860e+00 8.67649e+00 3.99987e-01 3.82070e+00 8.76715e+00 3.99989e-01 3.86290e+00 8.85782e+00 3.99992e-01 3.90500e+00 8.94850e+00 3.99994e-01 3.94720e+00 9.03918e+00 3.99996e-01 3.98930e+00 9.12986e+00 3.99997e-01 4.03150e+00 9.22055e+00 3.99999e-01 4.07360e+00 0.00000e+00 5.00000e-01 9.00000e-01 9.80784e-02 5.00000e-01 9.04103e-01 1.92704e-01 5.00000e-01 9.08384e-01 2.87574e-01 5.00000e-01 9.11202e-01 3.82501e-01 5.00000e-01 9.15764e-01 4.77318e-01 5.00000e-01 9.21090e-01 5.72202e-01 5.00000e-01 9.27845e-01 6.67017e-01 5.00000e-01 9.35602e-01 7.61901e-01 5.00000e-01 9.44564e-01 8.56738e-01 5.00000e-01 9.54533e-01 9.51617e-01 5.00000e-01 9.65593e-01 1.04645e+00 5.00000e-01 9.77634e-01 1.14129e+00 5.00000e-01 9.90694e-01 1.23607e+00 5.00000e-01 1.00470e+00 1.33083e+00 5.00000e-01 1.01968e+00 1.42553e+00 5.00000e-01 1.03556e+00 1.52018e+00 5.00000e-01 1.05237e+00 1.61475e+00 5.00000e-01 1.07005e+00 1.70926e+00 5.00000e-01 1.08861e+00 1.80368e+00 5.00000e-01 1.10801e+00 1.89802e+00 5.00000e-01 1.12824e+00 1.99227e+00 5.00000e-01 1.14927e+00 2.08644e+00 5.00000e-01 1.17110e+00 2.18051e+00 5.00000e-01 1.19369e+00 2.27448e+00 5.00000e-01 1.21703e+00 2.36835e+00 5.00000e-01 1.24110e+00 2.46213e+00 5.00000e-01 1.26588e+00 2.55580e+00 5.00000e-01 1.29136e+00 2.64936e+00 5.00000e-01 1.31751e+00 2.74283e+00 5.00000e-01 1.34431e+00 2.83618e+00 5.00000e-01 1.37176e+00 2.92944e+00 5.00000e-01 1.39982e+00 3.02258e+00 5.00000e-01 1.42849e+00 3.11563e+00 5.00000e-01 1.45774e+00 3.20857e+00 5.00000e-01 1.48756e+00 3.30141e+00 5.00000e-01 1.51793e+00 3.39414e+00 5.00000e-01 1.54884e+00 3.48678e+00 5.00000e-01 1.58027e+00 3.57931e+00 5.00000e-01 1.61219e+00 3.67175e+00 5.00000e-01 1.64461e+00 3.76409e+00 5.00000e-01 1.67749e+00 3.85634e+00 5.00000e-01 1.71083e+00 3.94850e+00 5.00000e-01 1.74462e+00 4.04056e+00 5.00000e-01 1.77882e+00 4.13254e+00 5.00000e-01 1.81344e+00 4.22444e+00 5.00000e-01 1.84846e+00 4.31625e+00 5.00000e-01 1.88386e+00 4.40798e+00 5.00000e-01 1.91960e+00 4.49963e+00 5.00000e-01 1.95570e+00 4.59121e+00 5.00000e-01 1.99220e+00 4.68272e+00 5.00000e-01 2.02900e+00 4.77416e+00 5.00000e-01 2.06610e+00 4.86553e+00 5.00000e-01 2.10350e+00 4.95684e+00 5.00000e-01 2.14120e+00 5.04808e+00 5.00000e-01 2.17920e+00 5.13927e+00 5.00000e-01 2.21750e+00 5.23041e+00 5.00000e-01 2.25600e+00 5.32149e+00 5.00000e-01 2.29470e+00 5.41252e+00 5.00000e-01 2.33370e+00 5.50351e+00 5.00000e-01 2.37290e+00 5.59445e+00 5.00000e-01 2.41240e+00 5.68535e+00 5.00000e-01 2.45200e+00 5.77621e+00 5.00000e-01 2.49180e+00 5.86704e+00 5.00000e-01 2.53180e+00 5.95783e+00 5.00000e-01 2.57200e+00 6.04860e+00 5.00000e-01 2.61230e+00 6.13934e+00 5.00000e-01 2.65280e+00 6.23005e+00 5.00000e-01 2.69350e+00 6.32074e+00 5.00000e-01 2.73430e+00 6.41140e+00 5.00000e-01 2.77520e+00 6.50205e+00 5.00000e-01 2.81620e+00 6.59269e+00 5.00000e-01 2.85730e+00 6.68331e+00 5.00000e-01 2.89860e+00 6.77391e+00 5.00000e-01 2.93990e+00 6.86451e+00 5.00000e-01 2.98140e+00 6.95510e+00 5.00000e-01 3.02290e+00 7.04568e+00 5.00000e-01 3.06450e+00 7.13626e+00 5.00000e-01 3.10620e+00 7.22684e+00 5.00000e-01 3.14790e+00 7.31741e+00 5.00000e-01 3.18970e+00 7.40798e+00 5.00000e-01 3.23160e+00 7.49855e+00 5.00000e-01 3.27350e+00 7.58913e+00 5.00000e-01 3.31550e+00 7.67971e+00 5.00000e-01 3.35740e+00 7.77029e+00 5.00000e-01 3.39950e+00 7.86088e+00 5.00000e-01 3.44150e+00 7.95148e+00 5.00000e-01 3.48360e+00 8.04208e+00 5.00000e-01 3.52570e+00 8.13268e+00 5.00000e-01 3.56780e+00 8.22330e+00 5.00000e-01 3.60990e+00 8.31392e+00 5.00000e-01 3.65210e+00 8.40455e+00 5.00000e-01 3.69420e+00 8.49519e+00 5.00000e-01 3.73640e+00 8.58584e+00 5.00000e-01 3.77860e+00 8.67649e+00 5.00000e-01 3.82070e+00 8.76715e+00 5.00000e-01 3.86290e+00 8.85782e+00 5.00000e-01 3.90500e+00 8.94850e+00 5.00000e-01 3.94720e+00 9.03918e+00 5.00000e-01 3.98930e+00 9.12986e+00 5.00000e-01 4.03150e+00 9.22055e+00 5.00000e-01 4.07360e+00 0.00000e+00 6.00000e-01 9.00000e-01 9.79518e-02 6.00867e-01 9.04041e-01 1.92790e-01 6.01537e-01 9.08216e-01 2.87462e-01 6.02036e-01 9.11003e-01 3.82538e-01 6.02293e-01 9.15534e-01 4.77247e-01 6.02478e-01 9.20851e-01 5.72215e-01 6.02522e-01 9.27599e-01 6.66991e-01 6.02547e-01 9.35353e-01 7.61918e-01 6.02510e-01 9.44311e-01 8.56745e-01 6.02471e-01 9.54282e-01 9.51647e-01 6.02410e-01 9.65342e-01 1.04648e+00 6.02353e-01 9.77387e-01 1.14133e+00 6.02289e-01 9.90449e-01 1.23612e+00 6.02229e-01 1.00446e+00 1.33088e+00 6.02169e-01 1.01944e+00 1.42558e+00 6.02112e-01 1.03533e+00 1.52023e+00 6.02055e-01 1.05214e+00 1.61480e+00 6.02001e-01 1.06983e+00 1.70931e+00 6.01948e-01 1.08839e+00 1.80373e+00 6.01897e-01 1.10780e+00 1.89808e+00 6.01846e-01 1.12803e+00 1.99233e+00 6.01797e-01 1.14907e+00 2.08650e+00 6.01748e-01 1.17090e+00 2.18056e+00 6.01701e-01 1.19350e+00 2.27454e+00 6.01654e-01 1.21685e+00 2.36841e+00 6.01608e-01 1.24092e+00 2.46218e+00 6.01562e-01 1.26571e+00 2.55585e+00 6.01518e-01 1.29119e+00 2.64942e+00 6.01474e-01 1.31734e+00 2.74288e+00 6.01431e-01 1.34416e+00 2.83624e+00 6.01388e-01 1.37160e+00 2.92949e+00 6.01347e-01 1.39967e+00 3.02264e+00 6.01305e-01 1.42835e+00 3.11568e+00 6.01265e-01 1.45760e+00 3.20862e+00 6.01225e-01 1.48743e+00 3.30146e+00 6.01187e-01 1.51780e+00 3.39419e+00 6.01148e-01 1.54872e+00 3.48683e+00 6.01111e-01 1.58015e+00 3.57936e+00 6.01074e-01 1.61208e+00 3.67180e+00 6.01038e-01 1.64450e+00 3.76414e+00 6.01002e-01 1.67739e+00 3.85639e+00 6.00968e-01 1.71073e+00 3.94854e+00 6.00934e-01 1.74452e+00 4.04061e+00 6.00900e-01 1.77873e+00 4.13258e+00 6.00868e-01 1.81335e+00 4.22448e+00 6.00836e-01 1.84837e+00 4.31629e+00 6.00804e-01 1.88377e+00 4.40802e+00 6.00774e-01 1.91950e+00 4.49967e+00 6.00744e-01 1.95570e+00 4.59125e+00 6.00714e-01 1.99210e+00 4.68275e+00 6.00685e-01 2.02890e+00 4.77419e+00 6.00657e-01 2.06600e+00 4.86556e+00 6.00630e-01 2.10350e+00 4.95687e+00 6.00603e-01 2.14120e+00 5.04811e+00 6.00577e-01 2.17920e+00 5.13930e+00 6.00552e-01 2.21740e+00 5.23043e+00 6.00527e-01 2.25590e+00 5.32151e+00 6.00502e-01 2.29470e+00 5.41255e+00 6.00479e-01 2.33370e+00 5.50353e+00 6.00456e-01 2.37290e+00 5.59447e+00 6.00433e-01 2.41230e+00 5.68537e+00 6.00412e-01 2.45200e+00 5.77623e+00 6.00390e-01 2.49180e+00 5.86706e+00 6.00370e-01 2.53180e+00 5.95785e+00 6.00350e-01 2.57200e+00 6.04862e+00 6.00330e-01 2.61230e+00 6.13935e+00 6.00312e-01 2.65280e+00 6.23006e+00 6.00293e-01 2.69350e+00 6.32075e+00 6.00276e-01 2.73420e+00 6.41142e+00 6.00259e-01 2.77510e+00 6.50207e+00 6.00242e-01 2.81620e+00 6.59270e+00 6.00226e-01 2.85730e+00 6.68332e+00 6.00211e-01 2.89860e+00 6.77392e+00 6.00196e-01 2.93990e+00 6.86452e+00 6.00182e-01 2.98140e+00 6.95511e+00 6.00168e-01 3.02290e+00 7.04569e+00 6.00155e-01 3.06450e+00 7.13627e+00 6.00143e-01 3.10620e+00 7.22684e+00 6.00131e-01 3.14790e+00 7.31742e+00 6.00119e-01 3.18970e+00 7.40799e+00 6.00108e-01 3.23160e+00 7.49856e+00 6.00098e-01 3.27350e+00 7.58914e+00 6.00088e-01 3.31540e+00 7.67971e+00 6.00079e-01 3.35740e+00 7.77030e+00 6.00070e-01 3.39950e+00 7.86089e+00 6.00062e-01 3.44150e+00 7.95148e+00 6.00054e-01 3.48360e+00 8.04208e+00 6.00047e-01 3.52570e+00 8.13269e+00 6.00041e-01 3.56780e+00 8.22330e+00 6.00035e-01 3.60990e+00 8.31392e+00 6.00029e-01 3.65210e+00 8.40455e+00 6.00024e-01 3.69420e+00 8.49519e+00 6.00020e-01 3.73640e+00 8.58584e+00 6.00016e-01 3.77860e+00 8.67649e+00 6.00013e-01 3.82070e+00 8.76715e+00 6.00010e-01 3.86290e+00 8.85782e+00 6.00008e-01 3.90500e+00 8.94850e+00 6.00006e-01 3.94720e+00 9.03918e+00 6.00004e-01 3.98930e+00 9.12986e+00 6.00002e-01 4.03150e+00 9.22055e+00 6.00001e-01 4.07360e+00 0.00000e+00 7.00000e-01 9.00000e-01 9.80347e-02 7.01796e-01 9.03797e-01 1.92595e-01 7.03241e-01 9.07719e-01 2.87457e-01 7.04097e-01 9.10371e-01 3.82371e-01 7.04719e-01 9.14834e-01 4.77202e-01 7.04934e-01 9.20128e-01 5.72136e-01 7.05091e-01 9.26854e-01 6.66991e-01 7.05063e-01 9.34597e-01 7.61929e-01 7.05025e-01 9.43551e-01 8.56805e-01 7.04917e-01 9.53522e-01 9.51724e-01 7.04813e-01 9.64587e-01 1.04658e+00 7.04687e-01 9.76640e-01 1.14145e+00 7.04568e-01 9.89715e-01 1.23625e+00 7.04446e-01 1.00374e+00 1.33103e+00 7.04329e-01 1.01873e+00 1.42573e+00 7.04214e-01 1.03464e+00 1.52039e+00 7.04103e-01 1.05147e+00 1.61496e+00 7.03994e-01 1.06917e+00 1.70948e+00 7.03889e-01 1.08775e+00 1.80390e+00 7.03787e-01 1.10717e+00 1.89825e+00 7.03686e-01 1.12742e+00 1.99250e+00 7.03588e-01 1.14848e+00 2.08667e+00 7.03491e-01 1.17032e+00 2.18074e+00 7.03396e-01 1.19294e+00 2.27471e+00 7.03303e-01 1.21630e+00 2.36858e+00 7.03211e-01 1.24039e+00 2.46235e+00 7.03120e-01 1.26519e+00 2.55602e+00 7.03031e-01 1.29069e+00 2.64959e+00 7.02944e-01 1.31686e+00 2.74305e+00 7.02858e-01 1.34369e+00 2.83640e+00 7.02773e-01 1.37115e+00 2.92965e+00 7.02690e-01 1.39923e+00 3.02280e+00 7.02608e-01 1.42792e+00 3.11584e+00 7.02527e-01 1.45719e+00 3.20878e+00 7.02448e-01 1.48703e+00 3.30161e+00 7.02371e-01 1.51742e+00 3.39434e+00 7.02294e-01 1.54834e+00 3.48698e+00 7.02220e-01 1.57978e+00 3.57951e+00 7.02146e-01 1.61173e+00 3.67194e+00 7.02074e-01 1.64416e+00 3.76428e+00 7.02003e-01 1.67706e+00 3.85652e+00 7.01934e-01 1.71042e+00 3.94868e+00 7.01866e-01 1.74421e+00 4.04074e+00 7.01799e-01 1.77844e+00 4.13271e+00 7.01734e-01 1.81307e+00 4.22460e+00 7.01670e-01 1.84810e+00 4.31641e+00 7.01607e-01 1.88351e+00 4.40814e+00 7.01546e-01 1.91930e+00 4.49978e+00 7.01486e-01 1.95540e+00 4.59136e+00 7.01427e-01 1.99190e+00 4.68286e+00 7.01370e-01 2.02870e+00 4.77429e+00 7.01314e-01 2.06580e+00 4.86566e+00 7.01259e-01 2.10330e+00 4.95696e+00 7.01206e-01 2.14100e+00 5.04821e+00 7.01154e-01 2.17900e+00 5.13939e+00 7.01103e-01 2.21720e+00 5.23052e+00 7.01053e-01 2.25580e+00 5.32160e+00 7.01004e-01 2.29450e+00 5.41263e+00 7.00957e-01 2.33350e+00 5.50361e+00 7.00911e-01 2.37280e+00 5.59455e+00 7.00866e-01 2.41220e+00 5.68544e+00 7.00823e-01 2.45180e+00 5.77630e+00 7.00780e-01 2.49170e+00 5.86713e+00 7.00739e-01 2.53170e+00 5.95792e+00 7.00699e-01 2.57190e+00 6.04868e+00 7.00661e-01 2.61220e+00 6.13941e+00 7.00623e-01 2.65270e+00 6.23012e+00 7.00587e-01 2.69340e+00 6.32080e+00 7.00551e-01 2.73420e+00 6.41146e+00 7.00517e-01 2.77510e+00 6.50211e+00 7.00484e-01 2.81610e+00 6.59274e+00 7.00452e-01 2.85730e+00 6.68336e+00 7.00422e-01 2.89850e+00 6.77396e+00 7.00392e-01 2.93990e+00 6.86455e+00 7.00364e-01 2.98130e+00 6.95514e+00 7.00336e-01 3.02290e+00 7.04572e+00 7.00310e-01 3.06450e+00 7.13629e+00 7.00285e-01 3.10610e+00 7.22687e+00 7.00261e-01 3.14790e+00 7.31744e+00 7.00238e-01 3.18970e+00 7.40801e+00 7.00216e-01 3.23160e+00 7.49858e+00 7.00196e-01 3.27350e+00 7.58915e+00 7.00176e-01 3.31540e+00 7.67973e+00 7.00158e-01 3.35740e+00 7.77031e+00 7.00140e-01 3.39940e+00 7.86090e+00 7.00124e-01 3.44150e+00 7.95149e+00 7.00109e-01 3.48360e+00 8.04209e+00 7.00094e-01 3.52570e+00 8.13269e+00 7.00081e-01 3.56780e+00 8.22331e+00 7.00069e-01 3.60990e+00 8.31393e+00 7.00058e-01 3.65210e+00 8.40456e+00 7.00049e-01 3.69420e+00 8.49519e+00 7.00040e-01 3.73640e+00 8.58584e+00 7.00032e-01 3.77860e+00 8.67649e+00 7.00026e-01 3.82070e+00 8.76715e+00 7.00020e-01 3.86290e+00 8.85782e+00 7.00016e-01 3.90500e+00 8.94850e+00 7.00011e-01 3.94720e+00 9.03918e+00 7.00008e-01 3.98930e+00 9.12986e+00 7.00005e-01 4.03150e+00 9.22055e+00 7.00001e-01 4.07360e+00 0.00000e+00 8.00000e-01 9.00000e-01 9.77345e-02 8.02964e-01 9.03331e-01 1.92527e-01 8.05075e-01 9.06727e-01 2.87112e-01 8.06526e-01 9.09232e-01 3.82178e-01 8.07086e-01 9.13630e-01 4.77020e-01 8.07525e-01 9.18895e-01 5.72061e-01 8.07581e-01 9.25586e-01 6.66982e-01 8.07601e-01 9.33323e-01 7.61992e-01 8.07477e-01 9.42269e-01 8.56922e-01 8.07346e-01 9.52252e-01 9.51886e-01 8.07169e-01 9.63329e-01 1.04678e+00 8.06996e-01 9.75404e-01 1.14167e+00 8.06814e-01 9.88499e-01 1.23649e+00 8.06638e-01 1.00255e+00 1.33128e+00 8.06463e-01 1.01757e+00 1.42600e+00 8.06294e-01 1.03350e+00 1.52066e+00 8.06129e-01 1.05036e+00 1.61525e+00 8.05969e-01 1.06809e+00 1.70976e+00 8.05813e-01 1.08669e+00 1.80419e+00 8.05661e-01 1.10614e+00 1.89854e+00 8.05511e-01 1.12642e+00 1.99280e+00 8.05364e-01 1.14750e+00 2.08696e+00 8.05220e-01 1.16937e+00 2.18103e+00 8.05079e-01 1.19201e+00 2.27500e+00 8.04939e-01 1.21540e+00 2.36887e+00 8.04802e-01 1.23952e+00 2.46265e+00 8.04667e-01 1.26435e+00 2.55631e+00 8.04534e-01 1.28987e+00 2.64988e+00 8.04404e-01 1.31606e+00 2.74333e+00 8.04275e-01 1.34291e+00 2.83669e+00 8.04149e-01 1.37040e+00 2.92994e+00 8.04024e-01 1.39851e+00 3.02308e+00 8.03902e-01 1.42721e+00 3.11612e+00 8.03782e-01 1.45651e+00 3.20905e+00 8.03664e-01 1.48637e+00 3.30188e+00 8.03548e-01 1.51678e+00 3.39461e+00 8.03434e-01 1.54772e+00 3.48723e+00 8.03322e-01 1.57919e+00 3.57976e+00 8.03212e-01 1.61115e+00 3.67219e+00 8.03104e-01 1.64360e+00 3.76452e+00 8.02999e-01 1.67652e+00 3.85676e+00 8.02895e-01 1.70990e+00 3.94891e+00 8.02793e-01 1.74372e+00 4.04096e+00 8.02694e-01 1.77796e+00 4.13293e+00 8.02596e-01 1.81261e+00 4.22482e+00 8.02500e-01 1.84766e+00 4.31662e+00 8.02407e-01 1.88309e+00 4.40834e+00 8.02315e-01 1.91890e+00 4.49998e+00 8.02225e-01 1.95500e+00 4.59155e+00 8.02138e-01 1.99150e+00 4.68305e+00 8.02052e-01 2.02840e+00 4.77447e+00 8.01968e-01 2.06550e+00 4.86584e+00 8.01886e-01 2.10290e+00 4.95713e+00 8.01806e-01 2.14070e+00 5.04837e+00 8.01728e-01 2.17870e+00 5.13955e+00 8.01652e-01 2.21700e+00 5.23067e+00 8.01577e-01 2.25550e+00 5.32174e+00 8.01505e-01 2.29430e+00 5.41277e+00 8.01434e-01 2.33330e+00 5.50374e+00 8.01365e-01 2.37250e+00 5.59467e+00 8.01298e-01 2.41200e+00 5.68556e+00 8.01233e-01 2.45160e+00 5.77642e+00 8.01169e-01 2.49150e+00 5.86724e+00 8.01108e-01 2.53150e+00 5.95802e+00 8.01048e-01 2.57170e+00 6.04878e+00 8.00990e-01 2.61200e+00 6.13950e+00 8.00933e-01 2.65260e+00 6.23021e+00 8.00879e-01 2.69320e+00 6.32089e+00 8.00826e-01 2.73400e+00 6.41154e+00 8.00775e-01 2.77490e+00 6.50219e+00 8.00725e-01 2.81600e+00 6.59281e+00 8.00678e-01 2.85710e+00 6.68342e+00 8.00632e-01 2.89840e+00 6.77402e+00 8.00587e-01 2.93980e+00 6.86461e+00 8.00545e-01 2.98120e+00 6.95519e+00 8.00504e-01 3.02280e+00 7.04577e+00 8.00465e-01 3.06440e+00 7.13634e+00 8.00427e-01 3.10610e+00 7.22691e+00 8.00391e-01 3.14780e+00 7.31748e+00 8.00357e-01 3.18960e+00 7.40804e+00 8.00324e-01 3.23150e+00 7.49861e+00 8.00293e-01 3.27340e+00 7.58918e+00 8.00264e-01 3.31540e+00 7.67976e+00 8.00236e-01 3.35740e+00 7.77033e+00 8.00210e-01 3.39940e+00 7.86092e+00 8.00185e-01 3.44150e+00 7.95151e+00 8.00163e-01 3.48360e+00 8.04210e+00 8.00141e-01 3.52570e+00 8.13271e+00 8.00122e-01 3.56780e+00 8.22332e+00 8.00104e-01 3.60990e+00 8.31394e+00 8.00087e-01 3.65210e+00 8.40456e+00 8.00073e-01 3.69420e+00 8.49520e+00 8.00059e-01 3.73640e+00 8.58584e+00 8.00048e-01 3.77860e+00 8.67650e+00 8.00038e-01 3.82070e+00 8.76716e+00 8.00030e-01 3.86290e+00 8.85782e+00 8.00023e-01 3.90500e+00 8.94850e+00 8.00017e-01 3.94720e+00 9.03918e+00 8.00011e-01 3.98930e+00 9.12986e+00 8.00006e-01 4.03150e+00 9.22055e+00 8.00001e-01 4.07360e+00 0.00000e+00 9.00000e-01 9.00000e-01 9.76877e-02 9.04623e-01 9.02417e-01 1.91652e-01 9.07834e-01 9.05219e-01 2.86549e-01 9.08804e-01 9.07667e-01 3.81758e-01 9.09778e-01 9.11939e-01 4.76785e-01 9.09992e-01 9.17143e-01 5.71996e-01 9.10160e-01 9.23795e-01 6.67032e-01 9.10064e-01 9.31526e-01 7.62150e-01 9.09942e-01 9.40480e-01 8.57149e-01 9.09733e-01 9.50486e-01 9.52171e-01 9.09520e-01 9.61591e-01 1.04711e+00 9.09284e-01 9.73701e-01 1.14203e+00 9.09053e-01 9.86830e-01 1.23687e+00 9.08820e-01 1.00092e+00 1.33167e+00 9.08594e-01 1.01597e+00 1.42640e+00 9.08372e-01 1.03195e+00 1.52108e+00 9.08156e-01 1.04884e+00 1.61567e+00 9.07946e-01 1.06661e+00 1.71019e+00 9.07739e-01 1.08525e+00 1.80462e+00 9.07538e-01 1.10474e+00 1.89897e+00 9.07340e-01 1.12505e+00 1.99323e+00 9.07145e-01 1.14617e+00 2.08739e+00 9.06954e-01 1.16808e+00 2.18146e+00 9.06766e-01 1.19075e+00 2.27543e+00 9.06581e-01 1.21418e+00 2.36930e+00 9.06399e-01 1.23833e+00 2.46307e+00 9.06220e-01 1.26319e+00 2.55674e+00 9.06043e-01 1.28875e+00 2.65030e+00 9.05869e-01 1.31497e+00 2.74375e+00 9.05699e-01 1.34186e+00 2.83710e+00 9.05531e-01 1.36938e+00 2.93034e+00 9.05365e-01 1.39751e+00 3.02348e+00 9.05203e-01 1.42625e+00 3.11651e+00 9.05043e-01 1.45558e+00 3.20944e+00 9.04886e-01 1.48547e+00 3.30227e+00 9.04731e-01 1.51591e+00 3.39499e+00 9.04580e-01 1.54688e+00 3.48761e+00 9.04431e-01 1.57838e+00 3.58013e+00 9.04285e-01 1.61037e+00 3.67255e+00 9.04141e-01 1.64285e+00 3.76487e+00 9.04001e-01 1.67580e+00 3.85711e+00 9.03863e-01 1.70920e+00 3.94924e+00 9.03727e-01 1.74304e+00 4.04129e+00 9.03595e-01 1.77731e+00 4.13325e+00 9.03465e-01 1.81198e+00 4.22513e+00 9.03337e-01 1.84705e+00 4.31692e+00 9.03212e-01 1.88251e+00 4.40864e+00 9.03090e-01 1.91830e+00 4.50027e+00 9.02971e-01 1.95450e+00 4.59183e+00 9.02854e-01 1.99100e+00 4.68332e+00 9.02739e-01 2.02790e+00 4.77474e+00 9.02628e-01 2.06500e+00 4.86609e+00 9.02518e-01 2.10250e+00 4.95738e+00 9.02412e-01 2.14020e+00 5.04861e+00 9.02307e-01 2.17830e+00 5.13978e+00 9.02206e-01 2.21660e+00 5.23089e+00 9.02106e-01 2.25510e+00 5.32196e+00 9.02010e-01 2.29390e+00 5.41297e+00 9.01915e-01 2.33300e+00 5.50394e+00 9.01823e-01 2.37220e+00 5.59486e+00 9.01734e-01 2.41170e+00 5.68574e+00 9.01647e-01 2.45130e+00 5.77659e+00 9.01562e-01 2.49120e+00 5.86740e+00 9.01480e-01 2.53120e+00 5.95818e+00 9.01400e-01 2.57140e+00 6.04893e+00 9.01322e-01 2.61180e+00 6.13965e+00 9.01247e-01 2.65230e+00 6.23034e+00 9.01174e-01 2.69300e+00 6.32101e+00 9.01103e-01 2.73380e+00 6.41166e+00 9.01035e-01 2.77480e+00 6.50230e+00 9.00969e-01 2.81580e+00 6.59292e+00 9.00905e-01 2.85700e+00 6.68352e+00 9.00844e-01 2.89830e+00 6.77412e+00 9.00785e-01 2.93970e+00 6.86470e+00 9.00728e-01 2.98110e+00 6.95528e+00 9.00673e-01 3.02270e+00 7.04585e+00 9.00621e-01 3.06430e+00 7.13641e+00 9.00570e-01 3.10600e+00 7.22697e+00 9.00522e-01 3.14780e+00 7.31754e+00 9.00477e-01 3.18960e+00 7.40810e+00 9.00433e-01 3.23150e+00 7.49866e+00 9.00391e-01 3.27340e+00 7.58923e+00 9.00352e-01 3.31530e+00 7.67980e+00 9.00315e-01 3.35730e+00 7.77037e+00 9.00280e-01 3.39940e+00 7.86095e+00 9.00247e-01 3.44150e+00 7.95153e+00 9.00217e-01 3.48350e+00 8.04213e+00 9.00188e-01 3.52570e+00 8.13273e+00 9.00162e-01 3.56780e+00 8.22333e+00 9.00138e-01 3.60990e+00 8.31395e+00 9.00116e-01 3.65210e+00 8.40458e+00 9.00096e-01 3.69420e+00 8.49521e+00 9.00078e-01 3.73640e+00 8.58585e+00 9.00063e-01 3.77860e+00 8.67650e+00 9.00050e-01 3.82070e+00 8.76716e+00 9.00039e-01 3.86290e+00 8.85782e+00 9.00029e-01 3.90510e+00 8.94850e+00 9.00021e-01 3.94720e+00 9.03918e+00 9.00015e-01 3.98940e+00 9.12986e+00 9.00008e-01 4.03150e+00 9.22055e+00 9.00001e-01 4.07360e+00 0.00000e+00 1.00000e+00 9.00000e-01 9.54143e-02 1.00879e+00 9.01342e-01 1.89845e-01 1.00936e+00 9.03532e-01 2.85755e-01 1.01158e+00 9.05672e-01 3.81135e-01 1.01201e+00 9.09786e-01 4.76687e-01 1.01254e+00 9.14879e-01 5.72012e-01 1.01255e+00 9.21541e-01 6.67286e-01 1.01252e+00 9.29269e-01 7.62469e-01 1.01233e+00 9.38274e-01 8.57573e-01 1.01210e+00 9.48314e-01 9.52629e-01 1.01184e+00 9.59474e-01 1.04761e+00 1.01156e+00 9.71628e-01 1.14255e+00 1.01128e+00 9.84810e-01 1.23741e+00 1.01100e+00 9.98947e-01 1.33222e+00 1.01072e+00 1.01405e+00 1.42696e+00 1.01045e+00 1.03007e+00 1.52164e+00 1.01018e+00 1.04701e+00 1.61624e+00 1.00992e+00 1.06482e+00 1.71076e+00 1.00967e+00 1.08351e+00 1.80519e+00 1.00942e+00 1.10304e+00 1.89955e+00 1.00917e+00 1.12340e+00 1.99380e+00 1.00893e+00 1.14457e+00 2.08797e+00 1.00869e+00 1.16652e+00 2.18204e+00 1.00846e+00 1.18924e+00 2.27601e+00 1.00823e+00 1.21270e+00 2.36988e+00 1.00800e+00 1.23690e+00 2.46364e+00 1.00778e+00 1.26180e+00 2.55730e+00 1.00756e+00 1.28740e+00 2.65086e+00 1.00734e+00 1.31366e+00 2.74431e+00 1.00713e+00 1.34059e+00 2.83765e+00 1.00692e+00 1.36814e+00 2.93089e+00 1.00671e+00 1.39632e+00 3.02402e+00 1.00651e+00 1.42510e+00 3.11704e+00 1.00631e+00 1.45446e+00 3.20996e+00 1.00611e+00 1.48439e+00 3.30278e+00 1.00592e+00 1.51486e+00 3.39549e+00 1.00573e+00 1.54587e+00 3.48810e+00 1.00555e+00 1.57740e+00 3.58062e+00 1.00536e+00 1.60943e+00 3.67303e+00 1.00519e+00 1.64194e+00 3.76534e+00 1.00501e+00 1.67492e+00 3.85757e+00 1.00484e+00 1.70835e+00 3.94969e+00 1.00467e+00 1.74223e+00 4.04173e+00 1.00450e+00 1.77652e+00 4.13368e+00 1.00434e+00 1.81123e+00 4.22555e+00 1.00418e+00 1.84633e+00 4.31733e+00 1.00402e+00 1.88181e+00 4.40903e+00 1.00387e+00 1.91770e+00 4.50066e+00 1.00372e+00 1.95390e+00 4.59221e+00 1.00358e+00 1.99040e+00 4.68368e+00 1.00343e+00 2.02730e+00 4.77509e+00 1.00329e+00 2.06450e+00 4.86643e+00 1.00316e+00 2.10190e+00 4.95771e+00 1.00302e+00 2.13970e+00 5.04893e+00 1.00289e+00 2.17780e+00 5.14009e+00 1.00277e+00 2.21610e+00 5.23119e+00 1.00264e+00 2.25470e+00 5.32224e+00 1.00252e+00 2.29350e+00 5.41325e+00 1.00240e+00 2.33260e+00 5.50420e+00 1.00229e+00 2.37180e+00 5.59512e+00 1.00217e+00 2.41130e+00 5.68599e+00 1.00207e+00 2.45100e+00 5.77682e+00 1.00196e+00 2.49090e+00 5.86762e+00 1.00186e+00 2.53090e+00 5.95839e+00 1.00176e+00 2.57120e+00 6.04913e+00 1.00166e+00 2.61160e+00 6.13984e+00 1.00156e+00 2.65210e+00 6.23052e+00 1.00147e+00 2.69280e+00 6.32119e+00 1.00138e+00 2.73360e+00 6.41183e+00 1.00130e+00 2.77460e+00 6.50246e+00 1.00122e+00 2.81560e+00 6.59307e+00 1.00114e+00 2.85680e+00 6.68366e+00 1.00106e+00 2.89810e+00 6.77425e+00 1.00099e+00 2.93950e+00 6.86482e+00 1.00091e+00 2.98100e+00 6.95539e+00 1.00084e+00 3.02260e+00 7.04595e+00 1.00078e+00 3.06420e+00 7.13651e+00 1.00072e+00 3.10590e+00 7.22707e+00 1.00066e+00 3.14770e+00 7.31762e+00 1.00060e+00 3.18950e+00 7.40818e+00 1.00054e+00 3.23140e+00 7.49873e+00 1.00049e+00 3.27330e+00 7.58929e+00 1.00044e+00 3.31530e+00 7.67985e+00 1.00040e+00 3.35730e+00 7.77042e+00 1.00035e+00 3.39940e+00 7.86100e+00 1.00031e+00 3.44140e+00 7.95158e+00 1.00027e+00 3.48350e+00 8.04216e+00 1.00024e+00 3.52560e+00 8.13276e+00 1.00020e+00 3.56780e+00 8.22336e+00 1.00017e+00 3.60990e+00 8.31397e+00 1.00015e+00 3.65210e+00 8.40459e+00 1.00012e+00 3.69420e+00 8.49522e+00 1.00010e+00 3.73640e+00 8.58586e+00 1.00008e+00 3.77860e+00 8.67651e+00 1.00006e+00 3.82070e+00 8.76716e+00 1.00005e+00 3.86290e+00 8.85783e+00 1.00004e+00 3.90510e+00 8.94850e+00 1.00003e+00 3.94720e+00 9.03918e+00 1.00002e+00 3.98940e+00 9.12986e+00 1.00001e+00 4.03150e+00 9.22055e+00 1.00000e+00 4.07370e+00 0.00000e+00 0.00000e+00 1.00000e+00 9.31807e-02 -9.56440e-03 1.00608e+00 1.86823e-01 -1.09400e-02 1.00548e+00 2.82097e-01 -1.38000e-02 1.00898e+00 3.76017e-01 -1.41340e-02 1.01214e+00 4.70516e-01 -1.49140e-02 1.01766e+00 5.64444e-01 -1.48020e-02 1.02389e+00 6.58617e-01 -1.48390e-02 1.03169e+00 7.52535e-01 -1.45460e-02 1.04041e+00 8.46563e-01 -1.43250e-02 1.05038e+00 9.40465e-01 -1.39830e-02 1.06131e+00 1.03441e+00 -1.36840e-02 1.07332e+00 1.12828e+00 -1.33410e-02 1.08628e+00 1.22215e+00 -1.30270e-02 1.10024e+00 1.31597e+00 -1.26990e-02 1.11512e+00 1.40976e+00 -1.23900e-02 1.13094e+00 1.50349e+00 -1.20770e-02 1.14765e+00 1.59719e+00 -1.17780e-02 1.16525e+00 1.69082e+00 -1.14780e-02 1.18371e+00 1.78440e+00 -1.11880e-02 1.20301e+00 1.87791e+00 -1.08990e-02 1.22314e+00 1.97136e+00 -1.06170e-02 1.24407e+00 2.06473e+00 -1.03380e-02 1.26579e+00 2.15803e+00 -1.00640e-02 1.28827e+00 2.25125e+00 -9.79250e-03 1.31150e+00 2.34439e+00 -9.52610e-03 1.33546e+00 2.43745e+00 -9.26300e-03 1.36013e+00 2.53043e+00 -9.00420e-03 1.38549e+00 2.62332e+00 -8.74890e-03 1.41153e+00 2.71612e+00 -8.49770e-03 1.43822e+00 2.80884e+00 -8.25020e-03 1.46555e+00 2.90148e+00 -8.00670e-03 1.49350e+00 2.99402e+00 -7.76690e-03 1.52205e+00 3.08648e+00 -7.53120e-03 1.55119e+00 3.17885e+00 -7.29920e-03 1.58090e+00 3.27114e+00 -7.07120e-03 1.61116e+00 3.36334e+00 -6.84690e-03 1.64195e+00 3.45545e+00 -6.62660e-03 1.67327e+00 3.54749e+00 -6.41020e-03 1.70509e+00 3.63944e+00 -6.19760e-03 1.73740e+00 3.73131e+00 -5.98880e-03 1.77018e+00 3.82310e+00 -5.78390e-03 1.80342e+00 3.91482e+00 -5.58280e-03 1.83710e+00 4.00646e+00 -5.38550e-03 1.87121e+00 4.09803e+00 -5.19200e-03 1.90573e+00 4.18952e+00 -5.00230e-03 1.94065e+00 4.28095e+00 -4.81640e-03 1.97596e+00 4.37232e+00 -4.63420e-03 2.01160e+00 4.46361e+00 -4.45580e-03 2.04770e+00 4.55485e+00 -4.28110e-03 2.08410e+00 4.64603e+00 -4.11020e-03 2.12080e+00 4.73715e+00 -3.94290e-03 2.15780e+00 4.82822e+00 -3.77940e-03 2.19520e+00 4.91923e+00 -3.61950e-03 2.23280e+00 5.01020e+00 -3.46330e-03 2.27070e+00 5.10112e+00 -3.31070e-03 2.30890e+00 5.19200e+00 -3.16170e-03 2.34740e+00 5.28284e+00 -3.01640e-03 2.38610e+00 5.37363e+00 -2.87460e-03 2.42500e+00 5.46440e+00 -2.73640e-03 2.46410e+00 5.55512e+00 -2.60180e-03 2.50350e+00 5.64582e+00 -2.47070e-03 2.54310e+00 5.73649e+00 -2.34320e-03 2.58290e+00 5.82714e+00 -2.21920e-03 2.62280e+00 5.91776e+00 -2.09870e-03 2.66300e+00 6.00836e+00 -1.98170e-03 2.70330e+00 6.09894e+00 -1.86810e-03 2.74380e+00 6.18950e+00 -1.75800e-03 2.78440e+00 6.28005e+00 -1.65140e-03 2.82510e+00 6.37059e+00 -1.54820e-03 2.86600e+00 6.46111e+00 -1.44840e-03 2.90700e+00 6.55163e+00 -1.35200e-03 2.94810e+00 6.64214e+00 -1.25900e-03 2.98940e+00 6.73265e+00 -1.16940e-03 3.03070e+00 6.82315e+00 -1.08320e-03 3.07210e+00 6.91365e+00 -1.00030e-03 3.11360e+00 7.00416e+00 -9.20730e-04 3.15520e+00 7.09466e+00 -8.44520e-04 3.19690e+00 7.18517e+00 -7.71630e-04 3.23860e+00 7.27568e+00 -7.02060e-04 3.28040e+00 7.36619e+00 -6.35800e-04 3.32230e+00 7.45671e+00 -5.72830e-04 3.36420e+00 7.54724e+00 -5.13140e-04 3.40610e+00 7.63778e+00 -4.56740e-04 3.44810e+00 7.72833e+00 -4.03620e-04 3.49010e+00 7.81888e+00 -3.53770e-04 3.53220e+00 7.90945e+00 -3.07180e-04 3.57430e+00 8.00002e+00 -2.63870e-04 3.61640e+00 8.09061e+00 -2.23830e-04 3.65850e+00 8.18121e+00 -1.87080e-04 3.70060e+00 8.27181e+00 -1.53610e-04 3.74280e+00 8.36243e+00 -1.23450e-04 3.78490e+00 8.45306e+00 -9.65900e-05 3.82710e+00 8.54370e+00 -7.30470e-05 3.86930e+00 8.63435e+00 -5.27940e-05 3.91140e+00 8.72501e+00 -3.57720e-05 3.95360e+00 8.81568e+00 -2.18250e-05 3.99580e+00 8.90635e+00 -1.06550e-05 4.03790e+00 8.99704e+00 -1.65990e-06 4.08010e+00 9.08772e+00 6.07600e-06 4.12220e+00 9.17841e+00 1.33640e-05 4.16430e+00 0.00000e+00 1.00000e-01 1.00000e+00 9.55223e-02 9.46133e-02 1.00755e+00 1.88739e-01 9.07185e-02 1.00742e+00 2.83002e-01 8.93750e-02 1.01085e+00 3.76655e-01 8.82470e-02 1.01442e+00 4.70639e-01 8.80050e-02 1.01980e+00 5.64436e-01 8.78070e-02 1.02615e+00 6.58366e-01 8.79440e-02 1.03383e+00 7.52222e-01 8.80800e-02 1.04257e+00 8.46141e-01 8.83380e-02 1.05245e+00 9.40014e-01 8.85800e-02 1.06335e+00 1.03391e+00 8.88620e-02 1.07530e+00 1.12777e+00 8.91280e-02 1.08822e+00 1.22162e+00 8.94030e-02 1.10213e+00 1.31542e+00 8.96650e-02 1.11697e+00 1.40921e+00 8.99260e-02 1.13274e+00 1.50294e+00 9.01778e-02 1.14940e+00 1.59663e+00 9.04267e-02 1.16696e+00 1.69026e+00 9.06690e-02 1.18538e+00 1.78383e+00 9.09081e-02 1.20464e+00 1.87734e+00 9.11421e-02 1.22472e+00 1.97079e+00 9.13730e-02 1.24561e+00 2.06416e+00 9.15999e-02 1.26729e+00 2.15746e+00 9.18238e-02 1.28973e+00 2.25068e+00 9.20441e-02 1.31292e+00 2.34383e+00 9.22614e-02 1.33684e+00 2.43689e+00 9.24753e-02 1.36147e+00 2.52987e+00 9.26863e-02 1.38679e+00 2.62277e+00 9.28939e-02 1.41278e+00 2.71558e+00 9.30985e-02 1.43944e+00 2.80830e+00 9.32999e-02 1.46673e+00 2.90094e+00 9.34981e-02 1.49464e+00 2.99349e+00 9.36932e-02 1.52316e+00 3.08596e+00 9.38851e-02 1.55226e+00 3.17834e+00 9.40738e-02 1.58193e+00 3.27063e+00 9.42593e-02 1.61216e+00 3.36284e+00 9.44417e-02 1.64292e+00 3.45497e+00 9.46209e-02 1.67420e+00 3.54701e+00 9.47970e-02 1.70599e+00 3.63897e+00 9.49699e-02 1.73827e+00 3.73085e+00 9.51397e-02 1.77102e+00 3.82265e+00 9.53063e-02 1.80422e+00 3.91438e+00 9.54698e-02 1.83788e+00 4.00603e+00 9.56301e-02 1.87196e+00 4.09761e+00 9.57874e-02 1.90645e+00 4.18912e+00 9.59416e-02 1.94135e+00 4.28056e+00 9.60927e-02 1.97663e+00 4.37193e+00 9.62407e-02 2.01230e+00 4.46324e+00 9.63856e-02 2.04830e+00 4.55449e+00 9.65276e-02 2.08470e+00 4.64567e+00 9.66664e-02 2.12130e+00 4.73681e+00 9.68023e-02 2.15840e+00 4.82788e+00 9.69351e-02 2.19570e+00 4.91891e+00 9.70650e-02 2.23330e+00 5.00989e+00 9.71919e-02 2.27120e+00 5.10082e+00 9.73158e-02 2.30930e+00 5.19171e+00 9.74367e-02 2.34780e+00 5.28256e+00 9.75547e-02 2.38650e+00 5.37336e+00 9.76698e-02 2.42540e+00 5.46414e+00 9.77819e-02 2.46450e+00 5.55488e+00 9.78912e-02 2.50390e+00 5.64558e+00 9.79976e-02 2.54340e+00 5.73626e+00 9.81011e-02 2.58320e+00 5.82692e+00 9.82017e-02 2.62310e+00 5.91755e+00 9.82995e-02 2.66330e+00 6.00816e+00 9.83944e-02 2.70350e+00 6.09875e+00 9.84866e-02 2.74400e+00 6.18932e+00 9.85759e-02 2.78460e+00 6.27988e+00 9.86624e-02 2.82530e+00 6.37042e+00 9.87461e-02 2.86620e+00 6.46096e+00 9.88270e-02 2.90720e+00 6.55148e+00 9.89052e-02 2.94830e+00 6.64200e+00 9.89806e-02 2.98950e+00 6.73252e+00 9.90533e-02 3.03080e+00 6.82303e+00 9.91232e-02 3.07230e+00 6.91354e+00 9.91904e-02 3.11380e+00 7.00405e+00 9.92549e-02 3.15530e+00 7.09456e+00 9.93167e-02 3.19700e+00 7.18508e+00 9.93758e-02 3.23870e+00 7.27559e+00 9.94322e-02 3.28050e+00 7.36612e+00 9.94859e-02 3.32240e+00 7.45664e+00 9.95370e-02 3.36420e+00 7.54718e+00 9.95854e-02 3.40620e+00 7.63772e+00 9.96311e-02 3.44820e+00 7.72827e+00 9.96741e-02 3.49020e+00 7.81884e+00 9.97145e-02 3.53220e+00 7.90941e+00 9.97523e-02 3.57430e+00 7.99999e+00 9.97874e-02 3.61640e+00 8.09058e+00 9.98198e-02 3.65850e+00 8.18118e+00 9.98495e-02 3.70060e+00 8.27179e+00 9.98766e-02 3.74280e+00 8.36241e+00 9.99010e-02 3.78490e+00 8.45305e+00 9.99227e-02 3.82710e+00 8.54369e+00 9.99416e-02 3.86930e+00 8.63434e+00 9.99579e-02 3.91140e+00 8.72500e+00 9.99715e-02 3.95360e+00 8.81567e+00 9.99827e-02 3.99570e+00 8.90635e+00 9.99918e-02 4.03790e+00 8.99704e+00 9.99992e-02 4.08000e+00 9.08772e+00 1.00006e-01 4.12220e+00 9.17841e+00 1.00012e-01 4.16430e+00 0.00000e+00 2.00000e-01 1.00000e+00 9.51632e-02 1.96346e-01 1.00880e+00 1.89295e-01 1.93793e-01 1.00945e+00 2.83547e-01 1.92081e-01 1.01271e+00 3.77050e-01 1.91399e-01 1.01637e+00 4.70881e-01 1.90909e-01 1.02171e+00 5.64507e-01 1.90855e-01 1.02805e+00 6.58332e-01 1.90836e-01 1.03571e+00 7.52077e-01 1.90990e-01 1.04441e+00 8.45934e-01 1.91139e-01 1.05425e+00 9.39744e-01 1.91350e-01 1.06511e+00 1.03361e+00 1.91548e-01 1.07701e+00 1.12743e+00 1.91764e-01 1.08989e+00 1.22126e+00 1.91967e-01 1.10376e+00 1.31505e+00 1.92173e-01 1.11856e+00 1.40882e+00 1.92369e-01 1.13429e+00 1.50254e+00 1.92564e-01 1.15092e+00 1.59623e+00 1.92752e-01 1.16844e+00 1.68985e+00 1.92938e-01 1.18682e+00 1.78343e+00 1.93119e-01 1.20604e+00 1.87693e+00 1.93298e-01 1.22609e+00 1.97038e+00 1.93473e-01 1.24694e+00 2.06375e+00 1.93645e-01 1.26858e+00 2.15705e+00 1.93815e-01 1.29099e+00 2.25027e+00 1.93982e-01 1.31414e+00 2.34342e+00 1.94147e-01 1.33803e+00 2.43648e+00 1.94309e-01 1.36262e+00 2.52946e+00 1.94469e-01 1.38791e+00 2.62236e+00 1.94626e-01 1.41387e+00 2.71518e+00 1.94781e-01 1.44049e+00 2.80791e+00 1.94934e-01 1.46775e+00 2.90055e+00 1.95084e-01 1.49563e+00 2.99311e+00 1.95232e-01 1.52412e+00 3.08558e+00 1.95378e-01 1.55319e+00 3.17796e+00 1.95521e-01 1.58283e+00 3.27026e+00 1.95661e-01 1.61303e+00 3.36248e+00 1.95799e-01 1.64376e+00 3.45461e+00 1.95935e-01 1.67501e+00 3.54666e+00 1.96068e-01 1.70677e+00 3.63863e+00 1.96199e-01 1.73902e+00 3.73051e+00 1.96328e-01 1.77175e+00 3.82232e+00 1.96454e-01 1.80493e+00 3.91406e+00 1.96578e-01 1.83855e+00 4.00571e+00 1.96699e-01 1.87261e+00 4.09730e+00 1.96818e-01 1.90708e+00 4.18882e+00 1.96935e-01 1.94195e+00 4.28026e+00 1.97049e-01 1.97721e+00 4.37164e+00 1.97161e-01 2.01280e+00 4.46296e+00 1.97270e-01 2.04880e+00 4.55422e+00 1.97378e-01 2.08520e+00 4.64541e+00 1.97483e-01 2.12180e+00 4.73655e+00 1.97586e-01 2.15880e+00 4.82764e+00 1.97686e-01 2.19610e+00 4.91868e+00 1.97784e-01 2.23370e+00 5.00966e+00 1.97880e-01 2.27160e+00 5.10060e+00 1.97974e-01 2.30970e+00 5.19150e+00 1.98065e-01 2.34810e+00 5.28235e+00 1.98154e-01 2.38680e+00 5.37317e+00 1.98241e-01 2.42570e+00 5.46395e+00 1.98326e-01 2.46480e+00 5.55470e+00 1.98408e-01 2.50420e+00 5.64541e+00 1.98489e-01 2.54370e+00 5.73610e+00 1.98567e-01 2.58350e+00 5.82676e+00 1.98643e-01 2.62340e+00 5.91740e+00 1.98717e-01 2.66350e+00 6.00802e+00 1.98788e-01 2.70380e+00 6.09861e+00 1.98858e-01 2.74420e+00 6.18919e+00 1.98925e-01 2.78480e+00 6.27976e+00 1.98991e-01 2.82550e+00 6.37031e+00 1.99054e-01 2.86640e+00 6.46085e+00 1.99115e-01 2.90730e+00 6.55138e+00 1.99174e-01 2.94840e+00 6.64191e+00 1.99231e-01 2.98970e+00 6.73243e+00 1.99286e-01 3.03100e+00 6.82295e+00 1.99338e-01 3.07240e+00 6.91347e+00 1.99389e-01 3.11390e+00 7.00398e+00 1.99438e-01 3.15540e+00 7.09450e+00 1.99484e-01 3.19710e+00 7.18502e+00 1.99529e-01 3.23880e+00 7.27554e+00 1.99572e-01 3.28060e+00 7.36607e+00 1.99612e-01 3.32240e+00 7.45660e+00 1.99651e-01 3.36430e+00 7.54714e+00 1.99687e-01 3.40620e+00 7.63769e+00 1.99722e-01 3.44820e+00 7.72824e+00 1.99754e-01 3.49020e+00 7.81881e+00 1.99784e-01 3.53230e+00 7.90938e+00 1.99813e-01 3.57430e+00 7.99996e+00 1.99839e-01 3.61640e+00 8.09056e+00 1.99864e-01 3.65850e+00 8.18116e+00 1.99886e-01 3.70060e+00 8.27178e+00 1.99907e-01 3.74280e+00 8.36240e+00 1.99925e-01 3.78490e+00 8.45304e+00 1.99941e-01 3.82710e+00 8.54368e+00 1.99955e-01 3.86920e+00 8.63434e+00 1.99968e-01 3.91140e+00 8.72500e+00 1.99978e-01 3.95360e+00 8.81567e+00 1.99986e-01 3.99570e+00 8.90635e+00 1.99993e-01 4.03790e+00 8.99704e+00 1.99999e-01 4.08000e+00 9.08772e+00 2.00004e-01 4.12220e+00 9.17841e+00 2.00009e-01 4.16430e+00 0.00000e+00 3.00000e-01 1.00000e+00 9.52394e-02 2.97787e-01 1.00957e+00 1.89140e-01 2.96005e-01 1.01047e+00 2.83802e-01 2.94970e-01 1.01412e+00 3.77208e-01 2.94285e-01 1.01765e+00 4.71071e-01 2.94022e-01 1.02309e+00 5.64576e-01 2.93864e-01 1.02937e+00 6.58358e-01 2.93895e-01 1.03705e+00 7.52020e-01 2.93944e-01 1.04571e+00 8.45835e-01 2.94068e-01 1.05554e+00 9.39594e-01 2.94188e-01 1.06637e+00 1.03343e+00 2.94333e-01 1.07825e+00 1.12722e+00 2.94470e-01 1.09110e+00 1.22104e+00 2.94613e-01 1.10495e+00 1.31481e+00 2.94748e-01 1.11971e+00 1.40857e+00 2.94884e-01 1.13542e+00 1.50228e+00 2.95014e-01 1.15202e+00 1.59596e+00 2.95142e-01 1.16952e+00 1.68958e+00 2.95266e-01 1.18787e+00 1.78315e+00 2.95389e-01 1.20706e+00 1.87666e+00 2.95508e-01 1.22708e+00 1.97010e+00 2.95626e-01 1.24791e+00 2.06347e+00 2.95742e-01 1.26952e+00 2.15677e+00 2.95856e-01 1.29191e+00 2.24999e+00 2.95968e-01 1.31503e+00 2.34314e+00 2.96079e-01 1.33889e+00 2.43621e+00 2.96188e-01 1.36346e+00 2.52919e+00 2.96295e-01 1.38873e+00 2.62209e+00 2.96401e-01 1.41467e+00 2.71491e+00 2.96505e-01 1.44126e+00 2.80764e+00 2.96607e-01 1.46850e+00 2.90028e+00 2.96708e-01 1.49635e+00 2.99284e+00 2.96807e-01 1.52482e+00 3.08532e+00 2.96905e-01 1.55387e+00 3.17771e+00 2.97001e-01 1.58349e+00 3.27001e+00 2.97095e-01 1.61366e+00 3.36223e+00 2.97188e-01 1.64437e+00 3.45437e+00 2.97279e-01 1.67561e+00 3.54642e+00 2.97368e-01 1.70735e+00 3.63839e+00 2.97456e-01 1.73958e+00 3.73028e+00 2.97542e-01 1.77228e+00 3.82210e+00 2.97627e-01 1.80544e+00 3.91384e+00 2.97710e-01 1.83905e+00 4.00550e+00 2.97791e-01 1.87309e+00 4.09709e+00 2.97871e-01 1.90754e+00 4.18861e+00 2.97949e-01 1.94239e+00 4.28007e+00 2.98025e-01 1.97763e+00 4.37145e+00 2.98100e-01 2.01320e+00 4.46278e+00 2.98174e-01 2.04920e+00 4.55404e+00 2.98246e-01 2.08550e+00 4.64524e+00 2.98316e-01 2.12220e+00 4.73639e+00 2.98385e-01 2.15920e+00 4.82748e+00 2.98452e-01 2.19640e+00 4.91852e+00 2.98518e-01 2.23400e+00 5.00951e+00 2.98582e-01 2.27190e+00 5.10046e+00 2.98645e-01 2.31000e+00 5.19136e+00 2.98706e-01 2.34840e+00 5.28222e+00 2.98765e-01 2.38710e+00 5.37304e+00 2.98824e-01 2.42590e+00 5.46383e+00 2.98880e-01 2.46510e+00 5.55458e+00 2.98936e-01 2.50440e+00 5.64530e+00 2.98989e-01 2.54390e+00 5.73599e+00 2.99042e-01 2.58370e+00 5.82666e+00 2.99092e-01 2.62360e+00 5.91730e+00 2.99142e-01 2.66370e+00 6.00792e+00 2.99190e-01 2.70390e+00 6.09852e+00 2.99236e-01 2.74440e+00 6.18911e+00 2.99281e-01 2.78490e+00 6.27968e+00 2.99325e-01 2.82560e+00 6.37024e+00 2.99367e-01 2.86650e+00 6.46078e+00 2.99408e-01 2.90750e+00 6.55132e+00 2.99448e-01 2.94860e+00 6.64185e+00 2.99486e-01 2.98980e+00 6.73238e+00 2.99522e-01 3.03110e+00 6.82290e+00 2.99558e-01 3.07250e+00 6.91342e+00 2.99591e-01 3.11390e+00 7.00394e+00 2.99624e-01 3.15550e+00 7.09446e+00 2.99655e-01 3.19710e+00 7.18498e+00 2.99685e-01 3.23890e+00 7.27550e+00 2.99713e-01 3.28060e+00 7.36603e+00 2.99740e-01 3.32250e+00 7.45657e+00 2.99766e-01 3.36430e+00 7.54711e+00 2.99791e-01 3.40630e+00 7.63766e+00 2.99814e-01 3.44820e+00 7.72822e+00 2.99835e-01 3.49020e+00 7.81879e+00 2.99856e-01 3.53230e+00 7.90937e+00 2.99875e-01 3.57430e+00 7.99995e+00 2.99892e-01 3.61640e+00 8.09055e+00 2.99909e-01 3.65850e+00 8.18116e+00 2.99923e-01 3.70070e+00 8.27177e+00 2.99937e-01 3.74280e+00 8.36240e+00 2.99949e-01 3.78490e+00 8.45304e+00 2.99960e-01 3.82710e+00 8.54368e+00 2.99970e-01 3.86920e+00 8.63434e+00 2.99978e-01 3.91140e+00 8.72500e+00 2.99985e-01 3.95360e+00 8.81567e+00 2.99990e-01 3.99570e+00 8.90635e+00 2.99995e-01 4.03790e+00 8.99704e+00 2.99999e-01 4.08000e+00 9.08772e+00 3.00003e-01 4.12220e+00 9.17841e+00 3.00006e-01 4.16430e+00 0.00000e+00 4.00000e-01 1.00000e+00 9.50098e-02 3.98931e-01 1.00997e+00 1.89200e-01 3.98106e-01 1.01114e+00 2.83754e-01 3.97512e-01 1.01482e+00 3.77337e-01 3.97207e-01 1.01849e+00 4.71114e-01 3.97004e-01 1.02386e+00 5.64655e-01 3.96955e-01 1.03019e+00 6.58362e-01 3.96931e-01 1.03782e+00 7.52015e-01 3.96974e-01 1.04650e+00 8.45781e-01 3.97018e-01 1.05631e+00 9.39525e-01 3.97088e-01 1.06713e+00 1.03333e+00 3.97153e-01 1.07900e+00 1.12711e+00 3.97226e-01 1.09184e+00 1.22091e+00 3.97295e-01 1.10566e+00 1.31468e+00 3.97365e-01 1.12042e+00 1.40843e+00 3.97432e-01 1.13611e+00 1.50214e+00 3.97499e-01 1.15270e+00 1.59581e+00 3.97562e-01 1.17017e+00 1.68943e+00 3.97625e-01 1.18850e+00 1.78300e+00 3.97687e-01 1.20769e+00 1.87650e+00 3.97747e-01 1.22769e+00 1.96994e+00 3.97806e-01 1.24850e+00 2.06331e+00 3.97864e-01 1.27010e+00 2.15661e+00 3.97922e-01 1.29246e+00 2.24983e+00 3.97978e-01 1.31558e+00 2.34298e+00 3.98034e-01 1.33942e+00 2.43605e+00 3.98088e-01 1.36398e+00 2.52903e+00 3.98142e-01 1.38922e+00 2.62193e+00 3.98195e-01 1.41515e+00 2.71475e+00 3.98247e-01 1.44173e+00 2.80748e+00 3.98299e-01 1.46895e+00 2.90013e+00 3.98350e-01 1.49679e+00 2.99269e+00 3.98399e-01 1.52524e+00 3.08517e+00 3.98448e-01 1.55428e+00 3.17756e+00 3.98496e-01 1.58389e+00 3.26987e+00 3.98544e-01 1.61405e+00 3.36209e+00 3.98590e-01 1.64475e+00 3.45423e+00 3.98636e-01 1.67597e+00 3.54628e+00 3.98681e-01 1.70769e+00 3.63826e+00 3.98725e-01 1.73991e+00 3.73015e+00 3.98768e-01 1.77260e+00 3.82197e+00 3.98810e-01 1.80576e+00 3.91371e+00 3.98852e-01 1.83935e+00 4.00538e+00 3.98893e-01 1.87338e+00 4.09697e+00 3.98933e-01 1.90782e+00 4.18850e+00 3.98972e-01 1.94266e+00 4.27995e+00 3.99010e-01 1.97789e+00 4.37134e+00 3.99048e-01 2.01350e+00 4.46267e+00 3.99085e-01 2.04950e+00 4.55393e+00 3.99121e-01 2.08580e+00 4.64514e+00 3.99156e-01 2.12240e+00 4.73629e+00 3.99191e-01 2.15940e+00 4.82738e+00 3.99224e-01 2.19660e+00 4.91843e+00 3.99257e-01 2.23420e+00 5.00942e+00 3.99289e-01 2.27210e+00 5.10037e+00 3.99321e-01 2.31020e+00 5.19128e+00 3.99352e-01 2.34860e+00 5.28214e+00 3.99381e-01 2.38720e+00 5.37297e+00 3.99411e-01 2.42610e+00 5.46375e+00 3.99439e-01 2.46520e+00 5.55451e+00 3.99467e-01 2.50450e+00 5.64523e+00 3.99494e-01 2.54410e+00 5.73593e+00 3.99520e-01 2.58380e+00 5.82660e+00 3.99545e-01 2.62370e+00 5.91725e+00 3.99570e-01 2.66380e+00 6.00787e+00 3.99594e-01 2.70400e+00 6.09847e+00 3.99617e-01 2.74450e+00 6.18906e+00 3.99640e-01 2.78500e+00 6.27963e+00 3.99662e-01 2.82570e+00 6.37019e+00 3.99683e-01 2.86660e+00 6.46074e+00 3.99703e-01 2.90750e+00 6.55128e+00 3.99723e-01 2.94860e+00 6.64182e+00 3.99742e-01 2.98980e+00 6.73234e+00 3.99761e-01 3.03110e+00 6.82287e+00 3.99778e-01 3.07250e+00 6.91339e+00 3.99795e-01 3.11400e+00 7.00391e+00 3.99812e-01 3.15550e+00 7.09443e+00 3.99827e-01 3.19720e+00 7.18496e+00 3.99842e-01 3.23890e+00 7.27549e+00 3.99856e-01 3.28070e+00 7.36602e+00 3.99870e-01 3.32250e+00 7.45656e+00 3.99883e-01 3.36440e+00 7.54710e+00 3.99895e-01 3.40630e+00 7.63765e+00 3.99906e-01 3.44820e+00 7.72821e+00 3.99917e-01 3.49030e+00 7.81878e+00 3.99927e-01 3.53230e+00 7.90936e+00 3.99937e-01 3.57430e+00 7.99995e+00 3.99946e-01 3.61640e+00 8.09054e+00 3.99954e-01 3.65850e+00 8.18115e+00 3.99961e-01 3.70070e+00 8.27177e+00 3.99968e-01 3.74280e+00 8.36240e+00 3.99974e-01 3.78490e+00 8.45303e+00 3.99980e-01 3.82710e+00 8.54368e+00 3.99984e-01 3.86920e+00 8.63434e+00 3.99989e-01 3.91140e+00 8.72500e+00 3.99992e-01 3.95360e+00 8.81567e+00 3.99995e-01 3.99570e+00 8.90635e+00 3.99997e-01 4.03790e+00 8.99704e+00 3.99999e-01 4.08000e+00 9.08772e+00 4.00001e-01 4.12220e+00 9.17841e+00 4.00003e-01 4.16430e+00 0.00000e+00 5.00000e-01 1.00000e+00 9.51016e-02 5.00000e-01 1.01009e+00 1.89061e-01 5.00000e-01 1.01129e+00 2.83840e-01 5.00000e-01 1.01511e+00 3.77293e-01 5.00000e-01 1.01871e+00 4.71181e-01 5.00000e-01 1.02416e+00 5.64641e-01 5.00000e-01 1.03043e+00 6.58391e-01 5.00000e-01 1.03811e+00 7.51997e-01 5.00000e-01 1.04675e+00 8.45778e-01 5.00000e-01 1.05658e+00 9.39496e-01 5.00000e-01 1.06738e+00 1.03331e+00 5.00000e-01 1.07925e+00 1.12707e+00 5.00000e-01 1.09208e+00 1.22087e+00 5.00000e-01 1.10591e+00 1.31463e+00 5.00000e-01 1.12065e+00 1.40839e+00 5.00000e-01 1.13634e+00 1.50209e+00 5.00000e-01 1.15292e+00 1.59576e+00 5.00000e-01 1.17039e+00 1.68938e+00 5.00000e-01 1.18872e+00 1.78295e+00 5.00000e-01 1.20790e+00 1.87645e+00 5.00000e-01 1.22789e+00 1.96989e+00 5.00000e-01 1.24870e+00 2.06326e+00 5.00000e-01 1.27029e+00 2.15656e+00 5.00000e-01 1.29265e+00 2.24978e+00 5.00000e-01 1.31576e+00 2.34293e+00 5.00000e-01 1.33960e+00 2.43599e+00 5.00000e-01 1.36415e+00 2.52898e+00 5.00000e-01 1.38939e+00 2.62188e+00 5.00000e-01 1.41531e+00 2.71470e+00 5.00000e-01 1.44189e+00 2.80743e+00 5.00000e-01 1.46910e+00 2.90008e+00 5.00000e-01 1.49694e+00 2.99264e+00 5.00000e-01 1.52539e+00 3.08512e+00 5.00000e-01 1.55442e+00 3.17751e+00 5.00000e-01 1.58402e+00 3.26982e+00 5.00000e-01 1.61418e+00 3.36204e+00 5.00000e-01 1.64487e+00 3.45418e+00 5.00000e-01 1.67609e+00 3.54624e+00 5.00000e-01 1.70781e+00 3.63821e+00 5.00000e-01 1.74003e+00 3.73011e+00 5.00000e-01 1.77271e+00 3.82193e+00 5.00000e-01 1.80586e+00 3.91367e+00 5.00000e-01 1.83945e+00 4.00534e+00 5.00000e-01 1.87348e+00 4.09693e+00 5.00000e-01 1.90791e+00 4.18846e+00 5.00000e-01 1.94275e+00 4.27992e+00 5.00000e-01 1.97798e+00 4.37131e+00 5.00000e-01 2.01360e+00 4.46263e+00 5.00000e-01 2.04950e+00 4.55390e+00 5.00000e-01 2.08580e+00 4.64511e+00 5.00000e-01 2.12250e+00 4.73626e+00 5.00000e-01 2.15940e+00 4.82735e+00 5.00000e-01 2.19670e+00 4.91840e+00 5.00000e-01 2.23430e+00 5.00939e+00 5.00000e-01 2.27210e+00 5.10034e+00 5.00000e-01 2.31030e+00 5.19125e+00 5.00000e-01 2.34860e+00 5.28212e+00 5.00000e-01 2.38730e+00 5.37294e+00 5.00000e-01 2.42610e+00 5.46373e+00 5.00000e-01 2.46520e+00 5.55449e+00 5.00000e-01 2.50460e+00 5.64521e+00 5.00000e-01 2.54410e+00 5.73591e+00 5.00000e-01 2.58380e+00 5.82658e+00 5.00000e-01 2.62370e+00 5.91723e+00 5.00000e-01 2.66380e+00 6.00785e+00 5.00000e-01 2.70410e+00 6.09846e+00 5.00000e-01 2.74450e+00 6.18905e+00 5.00000e-01 2.78500e+00 6.27962e+00 5.00000e-01 2.82580e+00 6.37018e+00 5.00000e-01 2.86660e+00 6.46073e+00 5.00000e-01 2.90760e+00 6.55127e+00 5.00000e-01 2.94860e+00 6.64180e+00 5.00000e-01 2.98980e+00 6.73233e+00 5.00000e-01 3.03110e+00 6.82286e+00 5.00000e-01 3.07250e+00 6.91338e+00 5.00000e-01 3.11400e+00 7.00390e+00 5.00000e-01 3.15560e+00 7.09443e+00 5.00000e-01 3.19720e+00 7.18495e+00 5.00000e-01 3.23890e+00 7.27548e+00 5.00000e-01 3.28070e+00 7.36601e+00 5.00000e-01 3.32250e+00 7.45655e+00 5.00000e-01 3.36440e+00 7.54710e+00 5.00000e-01 3.40630e+00 7.63765e+00 5.00000e-01 3.44830e+00 7.72821e+00 5.00000e-01 3.49030e+00 7.81878e+00 5.00000e-01 3.53230e+00 7.90936e+00 5.00000e-01 3.57430e+00 7.99994e+00 5.00000e-01 3.61640e+00 8.09054e+00 5.00000e-01 3.65850e+00 8.18115e+00 5.00000e-01 3.70070e+00 8.27177e+00 5.00000e-01 3.74280e+00 8.36240e+00 5.00000e-01 3.78490e+00 8.45303e+00 5.00000e-01 3.82710e+00 8.54368e+00 5.00000e-01 3.86920e+00 8.63434e+00 5.00000e-01 3.91140e+00 8.72500e+00 5.00000e-01 3.95360e+00 8.81567e+00 5.00000e-01 3.99570e+00 8.90635e+00 5.00000e-01 4.03790e+00 8.99704e+00 5.00000e-01 4.08000e+00 9.08772e+00 5.00000e-01 4.12220e+00 9.17841e+00 5.00000e-01 4.16430e+00 0.00000e+00 6.00000e-01 1.00000e+00 9.50098e-02 6.01069e-01 1.00997e+00 1.89200e-01 6.01894e-01 1.01114e+00 2.83754e-01 6.02488e-01 1.01482e+00 3.77337e-01 6.02793e-01 1.01849e+00 4.71114e-01 6.02996e-01 1.02386e+00 5.64655e-01 6.03046e-01 1.03019e+00 6.58362e-01 6.03069e-01 1.03782e+00 7.52015e-01 6.03026e-01 1.04650e+00 8.45781e-01 6.02982e-01 1.05631e+00 9.39525e-01 6.02912e-01 1.06713e+00 1.03333e+00 6.02847e-01 1.07900e+00 1.12711e+00 6.02774e-01 1.09184e+00 1.22091e+00 6.02705e-01 1.10566e+00 1.31468e+00 6.02635e-01 1.12042e+00 1.40843e+00 6.02568e-01 1.13611e+00 1.50214e+00 6.02502e-01 1.15270e+00 1.59581e+00 6.02438e-01 1.17017e+00 1.68943e+00 6.02375e-01 1.18850e+00 1.78300e+00 6.02313e-01 1.20769e+00 1.87650e+00 6.02253e-01 1.22769e+00 1.96994e+00 6.02194e-01 1.24850e+00 2.06331e+00 6.02136e-01 1.27010e+00 2.15661e+00 6.02078e-01 1.29246e+00 2.24983e+00 6.02022e-01 1.31558e+00 2.34298e+00 6.01966e-01 1.33942e+00 2.43605e+00 6.01912e-01 1.36398e+00 2.52903e+00 6.01858e-01 1.38922e+00 2.62193e+00 6.01805e-01 1.41515e+00 2.71475e+00 6.01753e-01 1.44173e+00 2.80748e+00 6.01701e-01 1.46895e+00 2.90013e+00 6.01650e-01 1.49679e+00 2.99269e+00 6.01601e-01 1.52524e+00 3.08517e+00 6.01552e-01 1.55428e+00 3.17756e+00 6.01504e-01 1.58389e+00 3.26987e+00 6.01456e-01 1.61405e+00 3.36209e+00 6.01410e-01 1.64475e+00 3.45423e+00 6.01364e-01 1.67597e+00 3.54628e+00 6.01319e-01 1.70769e+00 3.63826e+00 6.01275e-01 1.73991e+00 3.73015e+00 6.01232e-01 1.77260e+00 3.82197e+00 6.01189e-01 1.80576e+00 3.91371e+00 6.01148e-01 1.83935e+00 4.00538e+00 6.01107e-01 1.87338e+00 4.09697e+00 6.01067e-01 1.90782e+00 4.18850e+00 6.01028e-01 1.94266e+00 4.27995e+00 6.00989e-01 1.97789e+00 4.37134e+00 6.00952e-01 2.01350e+00 4.46267e+00 6.00915e-01 2.04950e+00 4.55393e+00 6.00879e-01 2.08580e+00 4.64514e+00 6.00844e-01 2.12240e+00 4.73629e+00 6.00809e-01 2.15940e+00 4.82738e+00 6.00776e-01 2.19660e+00 4.91843e+00 6.00743e-01 2.23420e+00 5.00942e+00 6.00710e-01 2.27210e+00 5.10037e+00 6.00679e-01 2.31020e+00 5.19128e+00 6.00648e-01 2.34860e+00 5.28214e+00 6.00618e-01 2.38720e+00 5.37297e+00 6.00589e-01 2.42610e+00 5.46375e+00 6.00561e-01 2.46520e+00 5.55451e+00 6.00533e-01 2.50450e+00 5.64523e+00 6.00506e-01 2.54410e+00 5.73593e+00 6.00480e-01 2.58380e+00 5.82660e+00 6.00455e-01 2.62370e+00 5.91725e+00 6.00430e-01 2.66380e+00 6.00787e+00 6.00406e-01 2.70400e+00 6.09847e+00 6.00382e-01 2.74450e+00 6.18906e+00 6.00360e-01 2.78500e+00 6.27963e+00 6.00338e-01 2.82570e+00 6.37019e+00 6.00317e-01 2.86660e+00 6.46074e+00 6.00296e-01 2.90750e+00 6.55128e+00 6.00277e-01 2.94860e+00 6.64182e+00 6.00258e-01 2.98980e+00 6.73234e+00 6.00239e-01 3.03110e+00 6.82287e+00 6.00221e-01 3.07250e+00 6.91339e+00 6.00205e-01 3.11400e+00 7.00391e+00 6.00188e-01 3.15550e+00 7.09443e+00 6.00173e-01 3.19720e+00 7.18496e+00 6.00158e-01 3.23890e+00 7.27549e+00 6.00143e-01 3.28070e+00 7.36602e+00 6.00130e-01 3.32250e+00 7.45656e+00 6.00117e-01 3.36440e+00 7.54710e+00 6.00105e-01 3.40630e+00 7.63765e+00 6.00093e-01 3.44820e+00 7.72821e+00 6.00082e-01 3.49030e+00 7.81878e+00 6.00072e-01 3.53230e+00 7.90936e+00 6.00063e-01 3.57430e+00 7.99995e+00 6.00054e-01 3.61640e+00 8.09054e+00 6.00046e-01 3.65850e+00 8.18115e+00 6.00038e-01 3.70070e+00 8.27177e+00 6.00031e-01 3.74280e+00 8.36240e+00 6.00025e-01 3.78490e+00 8.45303e+00 6.00020e-01 3.82710e+00 8.54368e+00 6.00015e-01 3.86920e+00 8.63434e+00 6.00011e-01 3.91140e+00 8.72500e+00 6.00008e-01 3.95360e+00 8.81567e+00 6.00005e-01 3.99570e+00 8.90635e+00 6.00002e-01 4.03790e+00 8.99704e+00 6.00000e-01 4.08000e+00 9.08772e+00 5.99999e-01 4.12220e+00 9.17841e+00 5.99997e-01 4.16430e+00 0.00000e+00 7.00000e-01 1.00000e+00 9.52394e-02 7.02213e-01 1.00957e+00 1.89140e-01 7.03995e-01 1.01047e+00 2.83802e-01 7.05030e-01 1.01412e+00 3.77208e-01 7.05715e-01 1.01765e+00 4.71071e-01 7.05978e-01 1.02309e+00 5.64576e-01 7.06136e-01 1.02937e+00 6.58358e-01 7.06105e-01 1.03705e+00 7.52020e-01 7.06056e-01 1.04571e+00 8.45835e-01 7.05932e-01 1.05554e+00 9.39594e-01 7.05812e-01 1.06637e+00 1.03343e+00 7.05666e-01 1.07825e+00 1.12722e+00 7.05530e-01 1.09110e+00 1.22104e+00 7.05387e-01 1.10495e+00 1.31481e+00 7.05252e-01 1.11971e+00 1.40857e+00 7.05116e-01 1.13542e+00 1.50228e+00 7.04986e-01 1.15202e+00 1.59596e+00 7.04858e-01 1.16952e+00 1.68958e+00 7.04734e-01 1.18787e+00 1.78315e+00 7.04611e-01 1.20706e+00 1.87666e+00 7.04492e-01 1.22708e+00 1.97010e+00 7.04374e-01 1.24791e+00 2.06347e+00 7.04258e-01 1.26952e+00 2.15677e+00 7.04144e-01 1.29191e+00 2.24999e+00 7.04032e-01 1.31503e+00 2.34314e+00 7.03921e-01 1.33889e+00 2.43621e+00 7.03812e-01 1.36346e+00 2.52919e+00 7.03705e-01 1.38873e+00 2.62209e+00 7.03599e-01 1.41467e+00 2.71491e+00 7.03495e-01 1.44126e+00 2.80764e+00 7.03393e-01 1.46850e+00 2.90028e+00 7.03292e-01 1.49635e+00 2.99284e+00 7.03193e-01 1.52482e+00 3.08532e+00 7.03095e-01 1.55387e+00 3.17771e+00 7.02999e-01 1.58349e+00 3.27001e+00 7.02905e-01 1.61366e+00 3.36223e+00 7.02812e-01 1.64437e+00 3.45437e+00 7.02721e-01 1.67561e+00 3.54642e+00 7.02632e-01 1.70735e+00 3.63839e+00 7.02544e-01 1.73958e+00 3.73028e+00 7.02458e-01 1.77228e+00 3.82210e+00 7.02373e-01 1.80544e+00 3.91384e+00 7.02290e-01 1.83905e+00 4.00550e+00 7.02209e-01 1.87309e+00 4.09709e+00 7.02129e-01 1.90754e+00 4.18861e+00 7.02051e-01 1.94239e+00 4.28007e+00 7.01974e-01 1.97763e+00 4.37145e+00 7.01900e-01 2.01320e+00 4.46278e+00 7.01826e-01 2.04920e+00 4.55404e+00 7.01754e-01 2.08550e+00 4.64524e+00 7.01684e-01 2.12220e+00 4.73639e+00 7.01615e-01 2.15920e+00 4.82748e+00 7.01548e-01 2.19640e+00 4.91852e+00 7.01482e-01 2.23400e+00 5.00951e+00 7.01418e-01 2.27190e+00 5.10046e+00 7.01355e-01 2.31000e+00 5.19136e+00 7.01294e-01 2.34840e+00 5.28222e+00 7.01234e-01 2.38710e+00 5.37304e+00 7.01176e-01 2.42590e+00 5.46383e+00 7.01120e-01 2.46510e+00 5.55458e+00 7.01064e-01 2.50440e+00 5.64530e+00 7.01010e-01 2.54390e+00 5.73599e+00 7.00958e-01 2.58370e+00 5.82666e+00 7.00907e-01 2.62360e+00 5.91730e+00 7.00858e-01 2.66370e+00 6.00792e+00 7.00810e-01 2.70390e+00 6.09852e+00 7.00763e-01 2.74440e+00 6.18911e+00 7.00718e-01 2.78490e+00 6.27968e+00 7.00675e-01 2.82560e+00 6.37024e+00 7.00632e-01 2.86650e+00 6.46078e+00 7.00592e-01 2.90750e+00 6.55132e+00 7.00552e-01 2.94860e+00 6.64185e+00 7.00514e-01 2.98980e+00 6.73238e+00 7.00477e-01 3.03110e+00 6.82290e+00 7.00442e-01 3.07250e+00 6.91342e+00 7.00408e-01 3.11390e+00 7.00394e+00 7.00376e-01 3.15550e+00 7.09446e+00 7.00345e-01 3.19710e+00 7.18498e+00 7.00315e-01 3.23890e+00 7.27550e+00 7.00286e-01 3.28060e+00 7.36603e+00 7.00259e-01 3.32250e+00 7.45657e+00 7.00234e-01 3.36430e+00 7.54711e+00 7.00209e-01 3.40630e+00 7.63766e+00 7.00186e-01 3.44820e+00 7.72822e+00 7.00164e-01 3.49020e+00 7.81879e+00 7.00144e-01 3.53230e+00 7.90937e+00 7.00125e-01 3.57430e+00 7.99995e+00 7.00107e-01 3.61640e+00 8.09055e+00 7.00091e-01 3.65850e+00 8.18116e+00 7.00076e-01 3.70070e+00 8.27177e+00 7.00063e-01 3.74280e+00 8.36240e+00 7.00050e-01 3.78490e+00 8.45304e+00 7.00040e-01 3.82710e+00 8.54368e+00 7.00030e-01 3.86920e+00 8.63434e+00 7.00022e-01 3.91140e+00 8.72500e+00 7.00015e-01 3.95360e+00 8.81567e+00 7.00009e-01 3.99570e+00 8.90635e+00 7.00005e-01 4.03790e+00 8.99704e+00 7.00001e-01 4.08000e+00 9.08772e+00 6.99997e-01 4.12220e+00 9.17841e+00 6.99994e-01 4.16430e+00 0.00000e+00 8.00000e-01 1.00000e+00 9.51632e-02 8.03654e-01 1.00880e+00 1.89295e-01 8.06207e-01 1.00945e+00 2.83547e-01 8.07919e-01 1.01271e+00 3.77050e-01 8.08601e-01 1.01637e+00 4.70881e-01 8.09091e-01 1.02171e+00 5.64507e-01 8.09145e-01 1.02805e+00 6.58332e-01 8.09164e-01 1.03571e+00 7.52077e-01 8.09010e-01 1.04441e+00 8.45934e-01 8.08861e-01 1.05425e+00 9.39744e-01 8.08650e-01 1.06511e+00 1.03361e+00 8.08453e-01 1.07701e+00 1.12743e+00 8.08236e-01 1.08989e+00 1.22126e+00 8.08034e-01 1.10376e+00 1.31505e+00 8.07827e-01 1.11856e+00 1.40882e+00 8.07631e-01 1.13429e+00 1.50254e+00 8.07436e-01 1.15092e+00 1.59623e+00 8.07248e-01 1.16844e+00 1.68985e+00 8.07062e-01 1.18682e+00 1.78343e+00 8.06881e-01 1.20604e+00 1.87693e+00 8.06702e-01 1.22609e+00 1.97038e+00 8.06527e-01 1.24694e+00 2.06375e+00 8.06355e-01 1.26858e+00 2.15705e+00 8.06185e-01 1.29099e+00 2.25027e+00 8.06018e-01 1.31414e+00 2.34342e+00 8.05853e-01 1.33803e+00 2.43648e+00 8.05691e-01 1.36262e+00 2.52946e+00 8.05531e-01 1.38791e+00 2.62236e+00 8.05374e-01 1.41387e+00 2.71518e+00 8.05219e-01 1.44049e+00 2.80791e+00 8.05066e-01 1.46775e+00 2.90055e+00 8.04916e-01 1.49563e+00 2.99311e+00 8.04768e-01 1.52412e+00 3.08558e+00 8.04623e-01 1.55319e+00 3.17796e+00 8.04480e-01 1.58283e+00 3.27026e+00 8.04339e-01 1.61303e+00 3.36248e+00 8.04201e-01 1.64376e+00 3.45461e+00 8.04065e-01 1.67501e+00 3.54666e+00 8.03932e-01 1.70677e+00 3.63863e+00 8.03801e-01 1.73902e+00 3.73051e+00 8.03672e-01 1.77175e+00 3.82232e+00 8.03546e-01 1.80493e+00 3.91406e+00 8.03422e-01 1.83855e+00 4.00571e+00 8.03301e-01 1.87261e+00 4.09730e+00 8.03182e-01 1.90708e+00 4.18882e+00 8.03065e-01 1.94195e+00 4.28026e+00 8.02951e-01 1.97721e+00 4.37164e+00 8.02839e-01 2.01280e+00 4.46296e+00 8.02729e-01 2.04880e+00 4.55422e+00 8.02622e-01 2.08520e+00 4.64541e+00 8.02517e-01 2.12180e+00 4.73655e+00 8.02414e-01 2.15880e+00 4.82764e+00 8.02314e-01 2.19610e+00 4.91868e+00 8.02216e-01 2.23370e+00 5.00966e+00 8.02120e-01 2.27160e+00 5.10060e+00 8.02026e-01 2.30970e+00 5.19150e+00 8.01935e-01 2.34810e+00 5.28235e+00 8.01846e-01 2.38680e+00 5.37317e+00 8.01759e-01 2.42570e+00 5.46395e+00 8.01674e-01 2.46480e+00 5.55470e+00 8.01591e-01 2.50420e+00 5.64541e+00 8.01511e-01 2.54370e+00 5.73610e+00 8.01433e-01 2.58350e+00 5.82676e+00 8.01357e-01 2.62340e+00 5.91740e+00 8.01283e-01 2.66350e+00 6.00802e+00 8.01211e-01 2.70380e+00 6.09861e+00 8.01142e-01 2.74420e+00 6.18919e+00 8.01074e-01 2.78480e+00 6.27976e+00 8.01009e-01 2.82550e+00 6.37031e+00 8.00946e-01 2.86640e+00 6.46085e+00 8.00885e-01 2.90730e+00 6.55138e+00 8.00826e-01 2.94840e+00 6.64191e+00 8.00769e-01 2.98970e+00 6.73243e+00 8.00714e-01 3.03100e+00 6.82295e+00 8.00661e-01 3.07240e+00 6.91347e+00 8.00611e-01 3.11390e+00 7.00398e+00 8.00562e-01 3.15540e+00 7.09450e+00 8.00515e-01 3.19710e+00 7.18502e+00 8.00471e-01 3.23880e+00 7.27554e+00 8.00428e-01 3.28060e+00 7.36607e+00 8.00388e-01 3.32240e+00 7.45660e+00 8.00349e-01 3.36430e+00 7.54714e+00 8.00313e-01 3.40620e+00 7.63769e+00 8.00278e-01 3.44820e+00 7.72824e+00 8.00246e-01 3.49020e+00 7.81881e+00 8.00215e-01 3.53230e+00 7.90938e+00 8.00187e-01 3.57430e+00 7.99996e+00 8.00160e-01 3.61640e+00 8.09056e+00 8.00136e-01 3.65850e+00 8.18116e+00 8.00114e-01 3.70060e+00 8.27178e+00 8.00093e-01 3.74280e+00 8.36240e+00 8.00075e-01 3.78490e+00 8.45304e+00 8.00059e-01 3.82710e+00 8.54368e+00 8.00044e-01 3.86920e+00 8.63434e+00 8.00032e-01 3.91140e+00 8.72500e+00 8.00022e-01 3.95360e+00 8.81567e+00 8.00013e-01 3.99570e+00 8.90635e+00 8.00006e-01 4.03790e+00 8.99704e+00 8.00001e-01 4.08000e+00 9.08772e+00 7.99995e-01 4.12220e+00 9.17841e+00 7.99990e-01 4.16430e+00 0.00000e+00 9.00000e-01 1.00000e+00 9.55223e-02 9.05387e-01 1.00755e+00 1.88739e-01 9.09282e-01 1.00742e+00 2.83002e-01 9.10625e-01 1.01085e+00 3.76655e-01 9.11753e-01 1.01442e+00 4.70639e-01 9.11995e-01 1.01980e+00 5.64436e-01 9.12193e-01 1.02615e+00 6.58366e-01 9.12056e-01 1.03383e+00 7.52222e-01 9.11920e-01 1.04257e+00 8.46141e-01 9.11662e-01 1.05245e+00 9.40014e-01 9.11420e-01 1.06335e+00 1.03391e+00 9.11138e-01 1.07530e+00 1.12777e+00 9.10872e-01 1.08822e+00 1.22162e+00 9.10597e-01 1.10213e+00 1.31542e+00 9.10335e-01 1.11697e+00 1.40921e+00 9.10074e-01 1.13274e+00 1.50294e+00 9.09822e-01 1.14940e+00 1.59663e+00 9.09573e-01 1.16696e+00 1.69026e+00 9.09331e-01 1.18538e+00 1.78383e+00 9.09092e-01 1.20464e+00 1.87734e+00 9.08858e-01 1.22472e+00 1.97079e+00 9.08627e-01 1.24561e+00 2.06416e+00 9.08400e-01 1.26729e+00 2.15746e+00 9.08176e-01 1.28973e+00 2.25068e+00 9.07956e-01 1.31292e+00 2.34383e+00 9.07739e-01 1.33684e+00 2.43689e+00 9.07525e-01 1.36147e+00 2.52987e+00 9.07314e-01 1.38679e+00 2.62277e+00 9.07106e-01 1.41278e+00 2.71558e+00 9.06901e-01 1.43944e+00 2.80830e+00 9.06700e-01 1.46673e+00 2.90094e+00 9.06502e-01 1.49464e+00 2.99349e+00 9.06307e-01 1.52316e+00 3.08596e+00 9.06115e-01 1.55226e+00 3.17834e+00 9.05926e-01 1.58193e+00 3.27063e+00 9.05741e-01 1.61216e+00 3.36284e+00 9.05558e-01 1.64292e+00 3.45497e+00 9.05379e-01 1.67420e+00 3.54701e+00 9.05203e-01 1.70599e+00 3.63897e+00 9.05030e-01 1.73827e+00 3.73085e+00 9.04860e-01 1.77102e+00 3.82265e+00 9.04694e-01 1.80422e+00 3.91438e+00 9.04530e-01 1.83788e+00 4.00603e+00 9.04370e-01 1.87196e+00 4.09761e+00 9.04212e-01 1.90645e+00 4.18912e+00 9.04058e-01 1.94135e+00 4.28056e+00 9.03907e-01 1.97663e+00 4.37193e+00 9.03759e-01 2.01230e+00 4.46324e+00 9.03614e-01 2.04830e+00 4.55449e+00 9.03472e-01 2.08470e+00 4.64567e+00 9.03333e-01 2.12130e+00 4.73681e+00 9.03198e-01 2.15840e+00 4.82788e+00 9.03065e-01 2.19570e+00 4.91891e+00 9.02935e-01 2.23330e+00 5.00989e+00 9.02808e-01 2.27120e+00 5.10082e+00 9.02684e-01 2.30930e+00 5.19171e+00 9.02563e-01 2.34780e+00 5.28256e+00 9.02445e-01 2.38650e+00 5.37336e+00 9.02330e-01 2.42540e+00 5.46414e+00 9.02218e-01 2.46450e+00 5.55488e+00 9.02109e-01 2.50390e+00 5.64558e+00 9.02002e-01 2.54340e+00 5.73626e+00 9.01899e-01 2.58320e+00 5.82692e+00 9.01798e-01 2.62310e+00 5.91755e+00 9.01700e-01 2.66330e+00 6.00816e+00 9.01605e-01 2.70350e+00 6.09875e+00 9.01513e-01 2.74400e+00 6.18932e+00 9.01424e-01 2.78460e+00 6.27988e+00 9.01337e-01 2.82530e+00 6.37042e+00 9.01254e-01 2.86620e+00 6.46096e+00 9.01173e-01 2.90720e+00 6.55148e+00 9.01095e-01 2.94830e+00 6.64200e+00 9.01019e-01 2.98950e+00 6.73252e+00 9.00946e-01 3.03080e+00 6.82303e+00 9.00877e-01 3.07230e+00 6.91354e+00 9.00809e-01 3.11380e+00 7.00405e+00 9.00745e-01 3.15530e+00 7.09456e+00 9.00683e-01 3.19700e+00 7.18508e+00 9.00624e-01 3.23870e+00 7.27559e+00 9.00568e-01 3.28050e+00 7.36612e+00 9.00514e-01 3.32240e+00 7.45664e+00 9.00463e-01 3.36420e+00 7.54718e+00 9.00414e-01 3.40620e+00 7.63772e+00 9.00369e-01 3.44820e+00 7.72827e+00 9.00326e-01 3.49020e+00 7.81884e+00 9.00285e-01 3.53220e+00 7.90941e+00 9.00247e-01 3.57430e+00 7.99999e+00 9.00212e-01 3.61640e+00 8.09058e+00 9.00180e-01 3.65850e+00 8.18118e+00 9.00150e-01 3.70060e+00 8.27179e+00 9.00123e-01 3.74280e+00 8.36241e+00 9.00099e-01 3.78490e+00 8.45305e+00 9.00077e-01 3.82710e+00 8.54369e+00 9.00058e-01 3.86930e+00 8.63434e+00 9.00042e-01 3.91140e+00 8.72500e+00 9.00028e-01 3.95360e+00 8.81567e+00 9.00017e-01 3.99570e+00 8.90635e+00 9.00008e-01 4.03790e+00 8.99704e+00 9.00000e-01 4.08000e+00 9.08772e+00 8.99994e-01 4.12220e+00 9.17841e+00 8.99987e-01 4.16430e+00 0.00000e+00 1.00000e+00 1.00000e+00 9.31807e-02 1.00956e+00 1.00608e+00 1.86823e-01 1.01094e+00 1.00548e+00 2.82097e-01 1.01380e+00 1.00898e+00 3.76017e-01 1.01413e+00 1.01214e+00 4.70516e-01 1.01491e+00 1.01766e+00 5.64444e-01 1.01480e+00 1.02389e+00 6.58617e-01 1.01484e+00 1.03169e+00 7.52535e-01 1.01455e+00 1.04041e+00 8.46563e-01 1.01432e+00 1.05038e+00 9.40465e-01 1.01398e+00 1.06131e+00 1.03441e+00 1.01368e+00 1.07332e+00 1.12828e+00 1.01334e+00 1.08628e+00 1.22215e+00 1.01303e+00 1.10024e+00 1.31597e+00 1.01270e+00 1.11512e+00 1.40976e+00 1.01239e+00 1.13094e+00 1.50349e+00 1.01208e+00 1.14765e+00 1.59719e+00 1.01178e+00 1.16525e+00 1.69082e+00 1.01148e+00 1.18371e+00 1.78440e+00 1.01119e+00 1.20301e+00 1.87791e+00 1.01090e+00 1.22314e+00 1.97136e+00 1.01062e+00 1.24407e+00 2.06473e+00 1.01034e+00 1.26579e+00 2.15803e+00 1.01006e+00 1.28827e+00 2.25125e+00 1.00979e+00 1.31150e+00 2.34439e+00 1.00953e+00 1.33546e+00 2.43745e+00 1.00926e+00 1.36013e+00 2.53043e+00 1.00900e+00 1.38549e+00 2.62332e+00 1.00875e+00 1.41153e+00 2.71612e+00 1.00850e+00 1.43822e+00 2.80884e+00 1.00825e+00 1.46555e+00 2.90148e+00 1.00801e+00 1.49350e+00 2.99402e+00 1.00777e+00 1.52205e+00 3.08648e+00 1.00753e+00 1.55119e+00 3.17885e+00 1.00730e+00 1.58090e+00 3.27114e+00 1.00707e+00 1.61116e+00 3.36334e+00 1.00685e+00 1.64195e+00 3.45545e+00 1.00663e+00 1.67327e+00 3.54749e+00 1.00641e+00 1.70509e+00 3.63944e+00 1.00620e+00 1.73740e+00 3.73131e+00 1.00599e+00 1.77018e+00 3.82310e+00 1.00578e+00 1.80342e+00 3.91482e+00 1.00558e+00 1.83710e+00 4.00646e+00 1.00539e+00 1.87121e+00 4.09803e+00 1.00519e+00 1.90573e+00 4.18952e+00 1.00500e+00 1.94065e+00 4.28095e+00 1.00482e+00 1.97596e+00 4.37232e+00 1.00463e+00 2.01160e+00 4.46361e+00 1.00446e+00 2.04770e+00 4.55485e+00 1.00428e+00 2.08410e+00 4.64603e+00 1.00411e+00 2.12080e+00 4.73715e+00 1.00394e+00 2.15780e+00 4.82822e+00 1.00378e+00 2.19520e+00 4.91923e+00 1.00362e+00 2.23280e+00 5.01020e+00 1.00346e+00 2.27070e+00 5.10112e+00 1.00331e+00 2.30890e+00 5.19200e+00 1.00316e+00 2.34740e+00 5.28284e+00 1.00302e+00 2.38610e+00 5.37363e+00 1.00287e+00 2.42500e+00 5.46440e+00 1.00274e+00 2.46410e+00 5.55512e+00 1.00260e+00 2.50350e+00 5.64582e+00 1.00247e+00 2.54310e+00 5.73649e+00 1.00234e+00 2.58290e+00 5.82714e+00 1.00222e+00 2.62280e+00 5.91776e+00 1.00210e+00 2.66300e+00 6.00836e+00 1.00198e+00 2.70330e+00 6.09894e+00 1.00187e+00 2.74380e+00 6.18950e+00 1.00176e+00 2.78440e+00 6.28005e+00 1.00165e+00 2.82510e+00 6.37059e+00 1.00155e+00 2.86600e+00 6.46111e+00 1.00145e+00 2.90700e+00 6.55163e+00 1.00135e+00 2.94810e+00 6.64214e+00 1.00126e+00 2.98940e+00 6.73265e+00 1.00117e+00 3.03070e+00 6.82315e+00 1.00108e+00 3.07210e+00 6.91365e+00 1.00100e+00 3.11360e+00 7.00416e+00 1.00092e+00 3.15520e+00 7.09466e+00 1.00084e+00 3.19690e+00 7.18517e+00 1.00077e+00 3.23860e+00 7.27568e+00 1.00070e+00 3.28040e+00 7.36619e+00 1.00064e+00 3.32230e+00 7.45671e+00 1.00057e+00 3.36420e+00 7.54724e+00 1.00051e+00 3.40610e+00 7.63778e+00 1.00046e+00 3.44810e+00 7.72833e+00 1.00040e+00 3.49010e+00 7.81888e+00 1.00035e+00 3.53220e+00 7.90945e+00 1.00031e+00 3.57430e+00 8.00002e+00 1.00026e+00 3.61640e+00 8.09061e+00 1.00022e+00 3.65850e+00 8.18121e+00 1.00019e+00 3.70060e+00 8.27181e+00 1.00015e+00 3.74280e+00 8.36243e+00 1.00012e+00 3.78490e+00 8.45306e+00 1.00010e+00 3.82710e+00 8.54370e+00 1.00007e+00 3.86930e+00 8.63435e+00 1.00005e+00 3.91140e+00 8.72501e+00 1.00004e+00 3.95360e+00 8.81568e+00 1.00002e+00 3.99580e+00 8.90635e+00 1.00001e+00 4.03790e+00 8.99704e+00 1.00000e+00 4.08010e+00 9.08772e+00 9.99994e-01 4.12220e+00 9.17841e+00 9.99986e-01 4.16430e+00 </DataArray>
</Points>
<Cells>
<DataArray type="Int32"                                    Name="connectivity"                                                      NumberOfComponents=" 1" format="ascii">
0 1 102 101 1111 1112 1213 1212 1 2 103 102 1112 1113 1214 1213 2 3 104 103 1113 1114 1215 1214 3 4 105 104 1114 1115 1216 1215 4 5 106 105 1115 1116 1217 1216 5 6 107 106 1116 1117 1218 1217 6 7 108 107 1117 1118 1219 1218 7 8 109 108 1118 1119 1220 1219 8 9 110 109 1119 1120 1221 1220 9 10 111 110 1120 1121 1222 1221 10 11 112 111 1121 1122 1223 1222 11 12 113 112 1122 1123 1224 1223 12 13 114 113 1123 1124 1225 1224 13 14 115 114 1124 1125 1226 1225 14 15 116 115 1125 1126 1227 1226 15 16 117 116 1126 1127 1228 1227 16 17 118 117 1127 1128 1229 1228 17 18 119 118 1128 1129 1230 1229 18 19 120 119 1129 1130 1231 1230 19 20 121 120 1130 1131 1232 1231 20 21 122 121 1131 1132 1233 1232 21 22 123 122 1132 1133 1234 1233 22 23 124 123 1133 1134 1235 1234 23 24 125 124 1134 1135 1236 1235 24 25 126 125 1135 1136 1237 1236 25 26 127 126 1136 1137 1238 1237 26 27 128 127 1137 1138 1239 1238 27 28 129 128 1138 1139 1240 1239 28 29 130 129 1139 1140 1241 1240 29 30 131 130 1140 1141 1242 1241 30 31 132 131 1141 1142 1243 1242 31 32 133 132 1142 1143 1244 1243 32 33 134 133 1143 1144 1245 1244 33 34 135 134 1144 1145 1246 1245 34 35 136 135 1145 1146 1247 1246 35 36 137 136 1146 1147 1248 1247 36 37 138 137 1147 1148 1249 1248 37 38 139 138 1148 1149 1250 1249 38 39 140 139 1149 1150 1251 1250 39 40 141 140 1150 1151 1252 1251 40 41 142 141 1151 1152 1253 1252 41 42 143 142 1152 1153 1254 1253 42 43 144 143 1153 1154 1255 1254 43 44 145 144 1154 1155 1256 1255 44 45 146 145 1155 1156 1257 1256 45 46 147 146 1156 1157 1258 1257 46 47 148 147 1157 1158 1259 1258 47 48 149 148 1158 1159 1260 1259 48 49 150 149 1159 1160 1261 1260 49 50 151 150 1160 1161 1262 1261 50 51 152 151 1161 1162 1263 1262 51 52 153 152 1162 1163 1264 1263 52 53 154 153 1163 1164 1265 1264 53 54 155 154 1164 1165 1266 1265 54 55 156 155 1165 1166 1267 1266 55 56 157 156 1166 1167 1268 1267 56 57 158 157 1167 1168 1269 1268 57 58 159 158 1168 1169 1270 1269 58 59 160 159 1169 1170 1271 1270 59 60 161 160 1170 1171 1272 1271 60 61 162 161 1171 1172 1273 1272 61 62 163 162 1172 1173 1274 1273 62 63 164 163 1173 1174 1275 1274 63 64 165 164 1174 1175 1276 1275 64 65 166 165 1175 1176 1277 1276 65 66 167 166 1176 1177 1278 1277 66 67 168 167 1177 1178 1279 1278 67 68 169 168 1178 1179 1280 1279 68 69 170 169 1179 1180 1281 1280 69 70 171 170 1180 1181 1282 1281 70 71 172 171 1181 1182 1283 1282 71 72 173 172 1182 1183 1284 1283 72 73 174 173 1183 1184 1285 1284 73 74 175 174 1184 1185 1286 1285 74 75 176 175 1185 1186 1287 1286 75 76 177 176 1186 1187 1288 1287 76 77 178 177 1187 1188 1289 1288 77 78 179 178 1188 1189 1290 1289 78 79 180 179 1189 1190 1291 1290 79 80 181 180 1190 1191 1292 1291 80 81 182 181 1191 1192 1293 1292 81 82 183 182 1192 1193 1294 1293 82 83 184 183 1193 1194 1295 1294 83 84 185 184 1194 1195 1296 1295 84 85 186 185 1195 1196 1297 1296 85 86 187 186 1196 1197 1298 1297 86 87 188 187 1197 1198 1299 1298 87 88 189 188 1198 1199 1300 1299 88 89 190 189 1199 1200 1301 1300 89 90 191 190 1200 1201 1302 1301 90 91 192 191 1201 1202 1303 1302 91 92 193 192 1202 1203 1304 1303 92 93 194 193 1203 1204 1305 1304 93 94 195 194 1204 1205 1306 1305 94 95 196 195 1205 1206 1307 1306 95 96 197 196 1206 1207 1308 1307 96 97 198 197 1207 1208 1309 1308 97 98 199 198 1208 1209 1310 1309 98 99 200 199 1209 1210 1311 1310 99 100 201 200 1210 1211 1312 1311 101 102 203 202 1212 1213 1314 1313 102 103 204 203 1213 1214 1315 1314 103 104 205 204 1214 1215 1316 1315 104 105 206 205 1215 1216 1317 1316 105 106 207 206 1216 1217 1318 1317 106 107 208 207 1217 1218 1319 1318 107 108 209 208 1218 1219 1320 1319 108 109 210 209 1219 1220 1321 1320 109 110 211 210 1220 1221 1322 1321 110 111 212 211 1221 1222 1323 1322 111 112 213 212 1222 1223 1324 1323 112 113 214 213 1223 1224 1325 1324 113 114 215 214 1224 1225 1326 1325 114 115 216 215 1225 1226 1327 1326 115 116 217 216 1226 1227 1328 1327 116 117 218 217 1227 1228 1329 1328 117 118 219 218 1228 1229 1330 1329 118 119 220 219 1229 1230 1331 1330 119 120 221 220 1230 1231 1332 1331 120 121 222 221 1231 1232 1333 1332 121 122 223 222 1232 1233 1334 1333 122 123 224 223 1233 1234 1335 1334 123 124 225 224 1234 1235 1336 1335 124 125 226 225 1235 1236 1337 1336 125 126 227 226 1236 1237 1338 1337 126 127 228 227 1237 1238 1339 1338 127 128 229 228 1238 1239 1340 1339 128 129 230 229 1239 1240 1341 1340 129 130 231 230 1240 1241 1342 1341 130 131 232 231 1241 1242 1343 1342 131 132 233 232 1242 1243 1344 1343 132 133 234 233 1243 1244 1345 1344 133 134 235 234 1244 1245 1346 1345 134 135 236 235 1245 1246 1347 1346 135 136 237 236 1246 1247 1348 1347 136 137 238 237 1247 1248 1349 1348 137 138 239 238 1248 1249 1350 1349 138 139 240 239 1249 1250 1351 1350 139 140 241 240 1250 1251 1352 1351 140 141 242 241 1251 1252 1353 1352 141 142 243 242 1252 1253 1354 1353 142 143 244 243 1253 1254 1355 1354 143 144 245 244 1254 1255 1356 1355 144 145 246 245 1255 1256 1357 1356 145 146 247 246 1256 1257 1358 1357 146 147 248 247 1257 1258 1359 1358 147 148 249 248 1258 1259 1360 1359 148 149 250 249 1259 1260 1361 1360 149 150 251 250 1260 1261 1362 1361 150 151 252 251 1261 1262 1363 1362 151 152 253 252 1262 1263 1364 1363 152 153 254 253 1263 1264 1365 1364 153 154 255 254 1264 1265 1366 1365 154 155 256 255 1265 1266 1367 1366 155 156 257 256 1266 1267 1368 1367 156 157 258 257 1267 1268 1369 1368 157 158 259 258 1268 1269 1370 1369 158 159 260 259 1269 1270 1371 1370 159 160 261 260 1270 1271 1372 1371 160 161 262 261 1271 1272 1373 1372 161 162 263 262 1272 1273 1374 1373 162 163 264 263 1273 1274 1375 1374 163 164 265 264 1274 1275 1376 1375 164 165 266 265 1275 1276 1377 1376 165 166 267 266 1276 1277 1378 1377 166 167 268 267 1277 1278 1379 1378 167 168 269 268 1278 1279 1380 1379 168 169 270 269 1279 1280 1381 1380 169 170 271 270 1280 1281 1382 1381 170 171 272 271 1281 1282 1383 1382 171 172 273 272 1282 1283 1384 1383 172 173 274 273 1283 1284 1385 1384 173 174 275 274 1284 1285 1386 1385 174 175 276 275 1285 1286 1387 1386 175 176 277 276 1286 1287 1388 1387 176 177 278 277 1287 1288 1389 1388 177 178 279 278 1288 1289 1390 1389 178 179 280 279 1289 1290 1391 1390 179 180 281 280 1290 1291 1392 1391 180 181 282 281 1291 1292 1393 1392 181 182 283 282 1292 1293 1394 1393 182 183 284 283 1293 1294 1395 1394 183 184 285 284 1294 1295 1396 1395 184 185 286 285 1295 1296 1397 1396 185 186 287 286 1296 1297 1398 1397 186 187 288 287 1297 1298 1399 1398 187 188 289 288 1298 1299 1400 1399 188 189 290 289 1299 1300 1401 1400 189 190 291 290 1300 1301 1402 1401 190 191 292 291 1301 1302 1403 1402 191 192 293 292 1302 1303 1404 1403 192 193 294 293 1303 1304 1405 1404 193 194 295 294 1304 1305 1406 1405 194 195 296 295 1305 1306 1407 1406 195 196 297 296 1306 1307 1408 1407 196 197 298 297 1307 1308 1409 1408 197 198 299 298 1308 1309 1410 1409 198 199 300 299 1309 1310 1411 1410 199 200 301 300 1310 1311 1412 1411 200 201 302 301 1311 1312 1413 1412 202 203 304 303 1313 1314 1415 1414 203 204 305 304 1314 1315 1416 1415 204 205 306 305 1315 1316 1417 1416 205 206 307 306 1316 1317 1418 1417 206 207 308 307 1317 1318 1419 1418 207 208 309 308 1318 1319 1420 1419 208 209 310 309 1319 1320 1421 1420 209 210 311 310 1320 1321 1422 1421 210 211 312 311 1321 1322 1423 1422 211 212 313 312 1322 1323 1424 1423 212 213 314 313 1323 1324 1425 1424 213 214 315 314 1324 1325 1426 1425 214 215 316 315 1325 1326 1427 1426 215 216 317 316 1326 1327 1428 1427 216 217 318 317 1327 1328 1429 1428 217 218 319 318 1328 1329 1430 1429 218 219 320 319 1329 1330 1431 1430 219 220 321 320 1330 1331 1432 1431 220 221 322 321 1331 1332 1433 1432 221 222 323 322 1332 1333 1434 1433 222 223 324 323 1333 1334 1435 1434 223 224 325 324 1334 1335 1436 1435 224 225 326 325 1335 1336 1437 1436 225 226 327 326 1336 1337 1438 1437 226 227 328 327 1337 1338 1439 1438 227 228 329 328 1338 1339 1440 1439 228 229 330 329 1339 1340 1441 1440 229 230 331 330 1340 1341 1442 1441 230 231 332 331 1341 1342 1443 1442 231 232 333 332 1342 1343 1444 1443 232 233 334 333 1343 1344 1445 1444 233 234 335 334 1344 1345 1446 1445 234 235 336 335 1345 1346 1447 1446 235 236 337 336 1346 1347 1448 1447 236 237 338 337 1347 1348 1449 1448 237 238 339 338 1348 1349 1450 1449 238 239 340 339 1349 1350 1451 1450 239 240 341 340 1350 1351 1452 1451 240 241 342 341 1351 1352 1453 1452 241 242 343 342 1352 1353 1454 1453 242 243 344 343 1353 1354 1455 1454 243 244 345 344 1354 1355 1456 1455 244 245 346 345 1355 1356 1457 1456 245 246 347 346 1356 1357 1458 1457 246 247 348 347 1357 1358 1459 1458 247 248 349 348 1358 1359 1460 1459 248 249 350 349 1359 1360 1461 1460 249 250 351 350 1360 1361 1462 1461 250 251 352 351 1361 1362 1463 1462 251 252 353 352 1362 1363 1464 1463 252 253 354 353 1363 1364 1465 1464 253 254 355 354 1364 1365 1466 1465 254 255 356 355 1365 1366 1467 1466 255 256 357 356 1366 1367 1468 1467 256 257 358 357 1367 1368 1469 1468 257 258 359 358 1368 1369 1470 1469 258 259 360 359 1369 1370 1471 1470 259 260 361 360 1370 1371 1472 1471 260 261 362 361 1371 1372 1473 1472 261 262 363 362 1372 1373 1474 1473 262 263 364 363 1373 1374 1475 1474 263 264 365 364 1374 1375 1476 1475 264 265 366 365 1375 1376 1477 1476 265 266 367 366 1376 1377 1478 1477 266 267 368 367 1377 1378 1479 1478 267 268 369 368 1378 1379 1480 1479 268 269 370 369 1379 1380 1481 1480 269 270 371 370 1380 1381 1482 1481 270 271 372 371 1381 1382 1483 1482 271 272 373 372 1382 1383 1484 1483 272 273 374 373 1383 1384 1485 1484 273 274 375 374 1384 1385 1486 1485 274 275 376 375 1385 1386 1487 1486 275 276 377 376 1386 1387 1488 1487 276 277 378 377 1387 1388 1489 1488 277 278 379 378 1388 1389 1490 1489 278 279 380 379 1389 1390 1491 1490 279 280 381 380 1390 1391 1492 1491 280 281 382 381 1391 1392 1493 1492 281 282 383 382 1392 1393 1494 1493 282 283 384 383 1393 1394 1495 1494 283 284 385 384 1394 1395 1496 1495 284 285 386 385 1395 1396 1497 1496 285 286 387 386 1396 1397 1498 1497 286 287 388 387 1397 1398 1499 1498 287 288 389 388 1398 1399 1500 1499 288 289 390 389 1399 1400 1501 1500 289 290 391 390 1400 1401 1502 1501 290 291 392 391 1401 1402 1503 1502 291 292 393 392 1402 1403 1504 1503 292 293 394 393 1403 1404 1505 1504 293 294 395 394 1404 1405 1506 1505 294 295 396 395 1405 1406 1507 1506 295 296 397 396 1406 1407 1508 1507 296 297 398 397 1407 1408 1509 1508 297 298 399 398 1408 1409 1510 1509 298 299 400 399 1409 1410 1511 1510 299 300 401 400 1410 1411 1512 1511 300 301 402 401 1411 1412 1513 1512 301 302 403 402 1412 1413 1514 1513 303 304 405 404 1414 1415 1516 1515 304 305 406 405 1415 1416 1517 1516 305 306 407 406 1416 1417 1518 1517 306 307 408 407 1417 1418 1519 1518 307 308 409 408 1418 1419 1520 1519 308 309 410 409 1419 1420 1521 1520 309 310 411 410 1420 1421 1522 1521 310 311 412 411 1421 1422 1523 1522 311 312 413 412 1422 1423 1524 1523 312 313 414 413 1423 1424 1525 1524 313 314 415 414 1424 1425 1526 1525 314 315 416 415 1425 1426 1527 1526 315 316 417 416 1426 1427 1528 1527 316 317 418 417 1427 1428 1529 1528 317 318 419 418 1428 1429 1530 1529 318 319 420 419 1429 1430 1531 1530 319 320 421 420 1430 1431 1532 1531 320 321 422 421 1431 1432 1533 1532 321 322 423 422 1432 1433 1534 1533 322 323 424 423 1433 1434 1535 1534 323 324 425 424 1434 1435 1536 1535 324 325 426 425 1435 1436 1537 1536 325 326 427 426 1436 1437 1538 1537 326 327 428 427 1437 1438 1539 1538 327 328 429 428 1438 1439 1540 1539 328 329 430 429 1439 1440 1541 1540 329 330 431 430 1440 1441 1542 1541 330 331 432 431 1441 1442 1543 1542 331 332 433 432 1442 1443 1544 1543 332 333 434 433 1443 1444 1545 1544 333 334 435 434 1444 1445 1546 1545 334 335 436 435 1445 1446 1547 1546 335 336 437 436 1446 1447 1548 1547 336 337 438 437 1447 1448 1549 1548 337 338 439 438 1448 1449 1550 1549 338 339 440 439 1449 1450 1551 1550 339 340 441 440 1450 1451 1552 1551 340 341 442 441 1451 1452 1553 1552 341 342 443 442 1452 1453 1554 1553 342 343 444 443 1453 1454 1555 1554 343 344 445 444 1454 1455 1556 1555 344 345 446 445 1455 1456 1557 1556 345 346 447 446 1456 1457 1558 1557 346 347 448 447 1457 1458 1559 1558 347 348 449 448 1458 1459 1560 1559 348 349 450 449 1459 1460 1561 1560 349 350 451 450 1460 1461 1562 1561 350 351 452 451 1461 1462 1563 1562 351 352 453 452 1462 1463 1564 1563 352 353 454 453 1463 1464 1565 1564 353 354 455 454 1464 1465 1566 1565 354 355 456 455 1465 1466 1567 1566 355 356 457 456 1466 1467 1568 1567 356 357 458 457 1467 1468 1569 1568 357 358 459 458 1468 1469 1570 1569 358 359 460 459 1469 1470 1571 1570 359 360 461 460 1470 1471 1572 1571 360 361 462 461 1471 1472 1573 1572 361 362 463 462 1472 1473 1574 1573 362 363 464 463 1473 1474 1575 1574 363 364 465 464 1474 1475 1576 1575 364 365 466 465 1475 1476 1577 1576 365 366 467 466 1476 1477 1578 1577 366 367 468 467 1477 1478 1579 1578 367 368 469 468 1478 1479 1580 1579 368 369 470 469 1479 1480 1581 1580 369 370 471 470 1480 1481 1582 1581 370 371 472 471 1481 1482 1583 1582 371 372 473 472 1482 1483 1584 1583 372 373 474 473 1483 1484 1585 1584 373 374 475 474 1484 1485 1586 1585 374 375 476 475 1485 1486 1587 1586 375 376 477 476 1486 1487 1588 1587 376 377 478 477 1487 1488 1589 1588 377 378 479 478 1488 1489 1590 1589 378 379 480 479 1489 1490 1591 1590 379 380 481 480 1490 1491 1592 1591 380 381 482 481 1491 1492 1593 1592 381 382 483 482 1492 1493 1594 1593 382 383 484 483 1493 1494 1595 1594 383 384 485 484 1494 1495 1596 1595 384 385 486 485 1495 1496 1597 1596 385 386 487 486 1496 1497 1598 1597 386 387 488 487 1497 1498 1599 1598 387 388 489 488 1498 1499 1600 1599 388 389 490 489 1499 1500 1601 1600 389 390 491 490 1500 1501 1602 1601 390 391 492 491 1501 1502 1603 1602 391 392 493 492 1502 1503 1604 1603 392 393 494 493 1503 1504 1605 1604 393 394 495 494 1504 1505 1606 1605 394 395 496 495 1505 1506 1607 1606 395 396 497 496 1506 1507 1608 1607 396 397 498 497 1507 1508 1609 1608 397 398 499 498 1508 1509 1610 1609 398 399 500 499 1509 1510 1611 1610 399 400 501 500 1510 1511 1612 1611 400 401 502 501 1511 1512 1613 1612 401 402 503 502 1512 1513 1614 1613 402 403 504 503 1513 1514 1615 1614 404 405 506 505 1515 1516 1617 1616 405 406 507 506 1516 1517 1618 1617 406 407 508 507 1517 1518 1619 1618 407 408 509 508 1518 1519 1620 1619 408 409 510 509 1519 1520 1621 1620 409 410 511 510 1520 1521 1622 1621 410 411 512 511 1521 1522 1623 1622 411 412 513 512 1522 1523 1624 1623 412 413 514 513 1523 1524 1625 1624 413 414 515 514 1524 1525 1626 1625 414 415 516 515 1525 1526 1627 1626 415 416 517 516 1526 1527 1628 1627 416 417 518 517 1527 1528 1629 1628 417 418 519 518 1528 1529 1630 1629 418 419 520 519 1529 1530 1631 1630 419 420 521 520 1530 1531 1632 1631 420 421 522 521 1531 1532 1633 1632 421 422 523 522 1532 1533 1634 1633 422 423 524 523 1533 1534 1635 1634 423 424 525 524 1534 1535 1636 1635 424 425 526 525 1535 1536 1637 1636 425 426 527 526 1536 1537 1638 1637 426 427 528 527 1537 1538 1639 1638 427 428 529 528 1538 1539 1640 1639 428 429 530 529 1539 1540 1641 1640 429 430 531 530 1540 1541 1642 1641 430 431 532 531 1541 1542 1643 1642 431 432 533 532 1542 1543 1644 1643 432 433 534 533 1543 1544 1645 1644 433 434 535 534 1544 1545 1646 1645 434 435 536 535 1545 1546 1647 1646 435 436 537 536 1546 1547 1648 1647 436 437 538 537 1547 1548 1649 1648 437 438 539 538 1548 1549 1650 1649 438 439 540 539 1549 1550 1651 1650 439 440 541 540 1550 1551 1652 1651 440 441 542 541 1551 1552 1653 1652 441 442 543 542 1552 1553 1654 1653 442 443 544 543 1553 1554 1655 1654 443 444 545 544 1554 1555 1656 1655 444 445 546 545 1555 1556 1657 1656 445 446 547 546 1556 1557 1658 1657 446 447 548 547 1557 1558 1659 1658 447 448 549 548 1558 1559 1660 1659 448 449 550 549 1559 1560 1661 1660 449 450 551 550 1560 1561 1662 1661 450 451 552 551 1561 1562 1663 1662 451 452 553 552 1562 1563 1664 1663 452 453 554 553 1563 1564 1665 1664 453 454 555 554 1564 1565 1666 1665 454 455 556 555 1565 1566 1667 1666 455 456 557 556 1566 1567 1668 1667 456 457 558 557 1567 1568 1669 1668 457 458 559 558 1568 1569 1670 1669 458 459 560 559 1569 1570 1671 1670 459 460 561 560 1570 1571 1672 1671 460 461 562 561 1571 1572 1673 1672 461 462 563 562 1572 1573 1674 1673 462 463 564 563 1573 1574 1675 1674 463 464 565 564 1574 1575 1676 1675 464 465 566 565 1575 1576 1677 1676 465 466 567 566 1576 1577 1678 1677 466 467 568 567 1577 1578 1679 1678 467 468 569 568 1578 1579 1680 1679 468 469 570 569 1579 1580 1681 1680 469 470 571 570 1580 1581 1682 1681 470 471 572 571 1581 1582 1683 1682 471 472 573 572 1582 1583 1684 1683 472 473 574 573 1583 1584 1685 1684 473 474 575 574 1584 1585 1686 1685 474 475 576 575 1585 1586 1687 1686 475 476 577 576 1586 1587 1688 1687 476 477 578 577 1587 1588 1689 1688 477 478 579 578 1588 1589 1690 1689 478 479 580 579 1589 1590 1691 1690 479 480 581 580 1590 1591 1692 1691 480 481 582 581 1591 1592 1693 1692 481 482 583 582 1592 1593 1694 1693 482 483 584 583 1593 1594 1695 1694 483 484 585 584 1594 1595 1696 1695 484 485 586 585 1595 1596 1697 1696 485 486 587 586 1596 1597 1698 1697 486 487 588 587 1597 1598 1699 1698 487 488 589 588 1598 1599 1700 1699 488 489 590 589 1599 1600 1701 1700 489 490 591 590 1600 1601 1702 1701 490 491 592 591 1601 1602 1703 1702 491 492 593 592 1602 1603 1704 1703 492 493 594 593 1603 1604 1705 1704 493 494 595 594 1604 1605 1706 1705 494 495 596 595 1605 1606 1707 1706 495 496 597 596 1606 1607 1708 1707 496 497 598 597 1607 1608 1709 1708 497 498 599 598 1608 1609 1710 1709 498 499 600 599 1609 1610 1711 1710 499 500 601 600 1610 1611 1712 1711 500 501 602 601 1611 1612 1713 1712 501 502 603 602 1612 1613 1714 1713 502 503 604 603 1613 1614 1715 1714 503 504 605 604 1614 1615 1716 1715 505 506 607 606 1616 1617 1718 1717 506 507 608 607 1617 1618 1719 1718 507 508 609 608 1618 1619 1720 1719 508 509 610 609 1619 1620 1721 1720 509 510 611 610 1620 1621 1722 1721 510 511 612 611 1621 1622 1723 1722 511 512 613 612 1622 1623 1724 1723 512 513 614 613 1623 1624 1725 1724 513 514 615 614 1624 1625 1726 1725 514 515 616 615 1625 1626 1727 1726 515 516 617 616 1626 1627 1728 1727 516 517 618 617 1627 1628 1729 1728 517 518 619 618 1628 1629 1730 1729 518 519 620 619 1629 1630 1731 1730 519 520 621 620 1630 1631 1732 1731 520 521 622 621 1631 1632 1733 1732 521 522 623 622 1632 1633 1734 1733 522 523 624 623 1633 1634 1735 1734 523 524 625 624 1634 1635 1736 1735 524 525 626 625 1635 1636 1737 1736 525 526 627 626 1636 1637 1738 1737 526 527 628 627 1637 1638 1739 1738 527 528 629 628 1638 1639 1740 1739 528 529 630 629 1639 1640 1741 1740 529 530 631 630 1640 1641 1742 1741 530 531 632 631 1641 1642 1743 1742 531 532 633 632 1642 1643 1744 1743 532 533 634 633 1643 1644 1745 1744 533 534 635 634 1644 1645 1746 1745 534 535 636 635 1645 1646 1747 1746 535 536 637 636 1646 1647 1748 1747 536 537 638 637 1647 1648 1749 1748 537 538 639 638 1648 1649 1750 1749 538 539 640 639 1649 1650 1751 1750 539 540 641 640 1650 1651 1752 1751 540 541 642 641 1651 1652 1753 1752 541 542 643 642 1652 1653 1754 1753 542 543 644 643 1653 1654 1755 1754 543 544 645 644 1654 1655 1756 1755 544 545 646 645 1655 1656 1757 1756 545 546 647 646 1656 1657 1758 1757 546 547 648 647 1657 1658 1759 1758 547 548 649 648 1658 1659 1760 1759 548 549 650 649 1659 1660 1761 1760 549 550 651 650 1660 1661 1762 1761 550 551 652 651 1661 1662 1763 1762 551 552 653 652 1662 1663 1764 1763 552 553 654 653 1663 1664 1765 1764 553 554 655 654 1664 1665 1766 1765 554 555 656 655 1665 1666 1767 1766 555 556 657 656 1666 1667 1768 1767 556 557 658 657 1667 1668 1769 1768 557 558 659 658 1668 1669 1770 1769 558 559 660 659 1669 1670 1771 1770 559 560 661 660 1670 1671 1772 1771 560 561 662 661 1671 1672 1773 1772 561 562 663 662 1672 1673 1774 1773 562 563 664 663 1673 1674 1775 1774 563 564 665 664 1674 1675 1776 1775 564 565 666 665 1675 1676 1777 1776 565 566 667 666 1676 1677 1778 1777 566 567 668 667 1677 1678 1779 1778 567 568 669 668 1678 1679 1780 1779 568 569 670 669 1679 1680 1781 1780 569 570 671 670 1680 1681 1782 1781 570 571 672 671 1681 1682 1783 1782 571 572 673 672 1682 1683 1784 1783 572 573 674 673 1683 1684 1785 1784 573 574 675 674 1684 1685 1786 1785 574 575 676 675 1685 1686 1787 1786 575 576 677 676 1686 1687 1788 1787 576 577 678 677 1687 1688 1789 1788 577 578 679 678 1688 1689 1790 1789 578 579 680 679 1689 1690 1791 1790 579 580 681 680 1690 1691 1792 1791 580 581 682 681 1691 1692 1793 1792 581 582 683 682 1692 1693 1794 1793 582 583 684 683 1693 1694 1795 1794 583 584 685 684 1694 1695 1796 1795 584 585 686 685 1695 1696 1797 1796 585 586 687 686 1696 1697 1798 1797 586 587 688 687 1697 1698 1799 1798 587 588 689 688 1698 1699 1800 1799 588 589 690 689 1699 1700 1801 1800 589 590 691 690 1700 1701 1802 1801 590 591 692 691 1701 1702 1803 1802 591 592 693 692 1702 1703 1804 1803 592 593 694 693 1703 1704 1805 1804 593 594 695 694 1704 1705 1806 1805 594 595 696 695 1705 1706 1807 1806 595 596 697 696 1706 1707 1808 1807 596 597 698 697 1707 1708 1809 1808 597 598 699 698 1708 1709 1810 1809 598 599 700 699 1709 1710 1811 1810 599 600 701 700 1710 1711 1812 1811 600 601 702 701 1711 1712 1813 1812 601 602 703 702 1712 1713 1814 1813 602 603 704 703 1713 1714 1815 1814 603 604 705 704 1714 1715 1816 1815 604 605 706 705 1715 1716 1817 1816 606 607 708 707 1717 1718 1819 1818 607 608 709 708 1718 1719 1820 1819 608 609 710 709 1719 1720 1821 1820 609 610 711 710 1720 1721 1822 1821 610 611 712 711 1721 1722 1823 1822 611 612 713 712 1722 1723 1824 1823 612 613 714 713 1723 1724 1825 1824 613 614 715 714 1724 1725 1826 1825 614 615 716 715 1725 1726 1827 1826 615 616 717 716 1726 1727 1828 1827 616 617 718 717 1727 1728 1829 1828 617 618 719 718 1728 1729 1830 1829 618 619 720 719 1729 1730 1831 1830 619 620 721 720 1730 1731 1832 1831 620 621 722 721 1731 1732 1833 1832 621 622 723 722 1732 1733 1834 1833 622 623 724 723 1733 1734 1835 1834 623 624 725 724 1734 1735 1836 1835 624 625 726 725 1735 1736 1837 1836 625 626 727 726 1736 1737 1838 1837 626 627 728 727 1737 1738 1839 1838 627 628 729 728 1738 1739 1840 1839 628 629 730 729 1739 1740 1841 1840 629 630 731 730 1740 1741 1842 1841 630 631 732 731 1741 1742 1843 1842 631 632 733 732 1742 1743 1844 1843 632 633 734 733 1743 1744 1845 1844 633 634 735 734 1744 1745 1846 1845 634 635 736 735 1745 1746 1847 1846 635 636 737 736 1746 1747 1848 1847 636 637 738 737 1747 1748 1849 1848 637 638 739 738 1748 1749 1850 1849 638 639 740 739 1749 1750 1851 1850 639 640 741 740 1750 1751 1852 1851 640 641 742 741 1751 1752 1853 1852 641 642 743 742 1752 1753 1854 1853 642 643 744 743 1753 1754 1855 1854 643 644 745 744 1754 1755 1856 1855 644 645 746 745 1755 1756 1857 1856 645 646 747 746 1756 1757 1858 1857 646 647 748 747 1757 1758 1859 1858 647 648 749 748 1758 1759 1860 1859 648 649 750 749 1759 1760 1861 1860 649 650 751 750 1760 1761 1862 1861 650 651 752 751 1761 1762 1863 1862 651 652 753 752 1762 1763 1864 1863 652 653 754 753 1763 1764 1865 1864 653 654 755 754 1764 1765 1866 1865 654 655 756 755 1765 1766 1867 1866 655 656 757 756 1766 1767 1868 1867 656 657 758 757 1767 1768 1869 1868 657 658 759 758 1768 1769 1870 1869 658 659 760 759 1769 1770 1871 1870 659 660 761 760 1770 1771 1872 1871 660 661 762 761 1771 1772 1873 1872 661 662 763 762 1772 1773 1874 1873 662 663 764 763 1773 1774 1875 1874 663 664 765 764 1774 1775 1876 1875 664 665 766 765 1775 1776 1877 1876 665 666 767 766 1776 1777 1878 1877 666 667 768 767 1777 1778 1879 1878 667 668 769 768 1778 1779 1880 1879 668 669 770 769 1779 1780 1881 1880 669 670 771 770 1780 1781 1882 1881 670 671 772 771 1781 1782 1883 1882 671 672 773 772 1782 1783 1884 1883 672 673 774 773 1783 1784 1885 1884 673 674 775 774 1784 1785 1886 1885 674 675 776 775 1785 1786 1887 1886 675 676 777 776 1786 1787 1888 1887 676 677 778 777 1787 1788 1889 1888 677 678 779 778 1788 1789 1890 1889 678 679 780 779 1789 1790 1891 1890 679 680 781 780 1790 1791 1892 1891 680 681 782 781 1791 1792 1893 1892 681 682 783 782 1792 1793 1894 1893 682 683 784 783 1793 1794 1895 1894 683 684 785 784 1794 1795 1896 1895 684 685 786 785 1795 1796 1897 1896 685 686 787 786 1796 1797 1898 1897 686 687 788 787 1797 1798 1899 1898 687 688 789 788 1798 1799 1900 1899 688 689 790 789 1799 1800 1901 1900 689 690 791 790 1800 1801 1902 1901 690 691 792 791 1801 1802 1903 1902 691 692 793 792 1802 1803 1904 1903 692 693 794 793 1803 1804 1905 1904 693 694 795 794 1804 1805 1906 1905 694 695 796 795 1805 1806 1907 1906 695 696 797 796 1806 1807 1908 1907 696 697 798 797 1807 1808 1909 1908 697 698 799 798 1808 1809 1910 1909 698 699 800 799 1809 1810 1911 1910 699 700 801 800 1810 1811 1912 1911 700 701 802 801 1811 1812 1913 1912 701 702 803 802 1812 1813 1914 1913 702 703 804 803 1813 1814 1915 1914 703 704 805 804 1814 1815 1916 1915 704 705 806 805 1815 1816 1917 1916 705 706 807 806 1816 1817 1918 1917 707 708 809 808 1818 1819 1920 1919 708 709 810 809 1819 1820 1921 1920 709 710 811 810 1820 1821 1922 1921 710 711 812 811 1821 1822 1923 1922 711 712 813 812 1822 1823 1924 1923 712 713 814 813 1823 1824 1925 1924 713 714 815 814 1824 1825 1926 1925 714 715 816 815 1825 1826 1927 1926 715 716 817 816 1826 1827 1928 1927 716 717 818 817 1827 1828 1929 1928 717 718 819 818 1828 1829 1930 1929 718 719 820 819 1829 1830 1931 1930 719 720 821 820 1830 1831 1932 1931 720 721 822 821 1831 1832 1933 1932 721 722 823 822 1832 1833 1934 1933 722 723 824 823 1833 1834 1935 1934 723 724 825 824 1834 1835 1936 1935 724 725 826 825 1835 1836 1937 1936 725 726 827 826 1836 1837 1938 1937 726 727 828 827 1837 1838 1939 1938 727 728 829 828 1838 1839 1940 1939 728 729 830 829 1839 1840 1941 1940 729 730 831 830 1840 1841 1942 1941 730 731 832 831 1841 1842 1943 1942 731 732 833 832 1842 1843 1944 1943 732 733 834 833 1843 1844 1945 1944 733 734 835 834 1844 1845 1946 1945 734 735 836 835 1845 1846 1947 1946 735 736 837 836 1846 1847 1948 1947 736 737 838 837 1847 1848 1949 1948 737 738 839 838 1848 1849 1950 1949 738 739 840 839 1849 1850 1951 1950 739 740 841 840 1850 1851 1952 1951 740 741 842 841 1851 1852 1953 1952 741 742 843 842 1852 1853 1954 1953 742 743 844 843 1853 1854 1955 1954 743 744 845 844 1854 1855 1956 1955 744 745 846 845 1855 1856 1957 1956 745 746 847 846 1856 1857 1958 1957 746 747 848 847 1857 1858 1959 1958 747 748 849 848 1858 1859 1960 1959 748 749 850 849 1859 1860 1961 1960 749 750 851 850 1860 1861 1962 1961 750 751 852 851 1861 1862 1963 1962 751 752 853 852 1862 1863 1964 1963 752 753 854 853 1863 1864 1965 1964 753 754 855 854 1864 1865 1966 1965 754 755 856 855 1865 1866 1967 1966 755 756 857 856 1866 1867 1968 1967 756 757 858 857 1867 1868 1969 1968 757 758 859 858 1868 1869 1970 1969 758 759 860 859 1869 1870 1971 1970 759 760 861 860 1870 1871 1972 1971 760 761 862 861 1871 1872 1973 1972 761 762 863 862 1872 1873 1974 1973 762 763 864 863 1873 1874 1975 1974 763 764 865 864 1874 1875 1976 1975 764 765 866 865 1875 1876 1977 1976 765 766 867 866 1876 1877 1978 1977 766 767 868 867 1877 1878 1979 1978 767 768 869 868 1878 1879 1980 1979 768 769 870 869 1879 1880 1981 1980 769 770 871 870 1880 1881 1982 1981 770 771 872 871 1881 1882 1983 1982 771 772 873 872 1882 1883 1984 1983 772 773 874 873 1883 1884 1985 1984 773 774 875 874 1884 1885 1986 1985 774 775 876 875 1885 1886 1987 1986 775 776 877 876 1886 1887 1988 1987 776 777 878 877 1887 1888 1989 1988 777 778 879 878 1888 1889 1990 1989 778 779 880 879 1889 1890 1991 1990 779 780 881 880 1890 1891 1992 1991 780 781 882 881 1891 1892 1993 1992 781 782 883 882 1892 1893 1994 1993 782 783 884 883 1893 1894 1995 1994 783 784 885 884 1894 1895 1996 1995 784 785 886 885 1895 1896 1997 1996 785 786 887 886 1896 1897 1998 1997 786 787 888 887 1897 1898 1999 1998 787 788 889 888 1898 1899 2000 1999 788 789 890 889 1899 1900 2001 2000 789 790 891 890 1900 1901 2002 2001 790 791 892 891 1901 1902 2003 2002 791 792 893 892 1902 1903 2004 2003 792 793 894 893 1903 1904 2005 2004 793 794 895 894 1904 1905 2006 2005 794 795 896 895 1905 1906 2007 2006 795 796 897 896 1906 1907 2008 2007 796 797 898 897 1907 1908 2009 2008 797 798 899 898 1908 1909 2010 2009 798 799 900 899 1909 1910 2011 2010 799 800 901 900 1910 1911 2012 2011 800 801 902 901 1911 1912 2013 2012 801 802 903 902 1912 1913 2014 2013 802 803 904 903 1913 1914 2015 2014 803 804 905 904 1914 1915 2016 2015 804 805 906 905 1915 1916 2017 2016 805 806 907 906 1916 1917 2018 2017 806 807 908 907 1917 1918 2019 2018 808 809 910 909 1919 1920 2021 2020 809 810 911 910 1920 1921 2022 2021 810 811 912 911 1921 1922 2023 2022 811 812 913 912 1922 1923 2024 2023 812 813 914 913 1923 1924 2025 2024 813 814 915 914 1924 1925 2026 2025 814 815 916 915 1925 1926 2027 2026 815 816 917 916 1926 1927 2028 2027 816 817 918 917 1927 1928 2029 2028 817 818 919 918 1928 1929 2030 2029 818 819 920 919 1929 1930 2031 2030 819 820 921 920 1930 1931 2032 2031 820 821 922 921 1931 1932 2033 2032 821 822 923 922 1932 1933 2034 2033 822 823 924 923 1933 1934 2035 2034 823 824 925 924 1934 1935 2036 2035 824 825 926 925 1935 1936 2037 2036 825 826 927 926 1936 1937 2038 2037 826 827 928 927 1937 1938 2039 2038 827 828 929 928 1938 1939 2040 2039 828 829 930 929 1939 1940 2041 2040 829 830 931 930 1940 1941 2042 2041 830 831 932 931 1941 1942 2043 2042 831 832 933 932 1942 1943 2044 2043 832 833 934 933 1943 1944 2045 2044 833 834 935 934 1944 1945 2046 2045 834 835 936 935 1945 1946 2047 2046 835 836 937 936 1946 1947 2048 2047 836 837 938 937 1947 1948 2049 2048 837 838 939 938 1948 1949 2050 2049 838 839 940 939 1949 1950 2051 2050 839 840 941 940 1950 1951 2052 2051 840 841 942 941 1951 1952 2053 2052 841 842 943 942 1952 1953 2054 2053 842 843 944 943 1953 1954 2055 2054 843 844 945 944 1954 1955 2056 2055 844 845 946 945 1955 1956 2057 2056 845 846 947 946 1956 1957 2058 2057 846 847 948 947 1957 1958 2059 2058 847 848 949 948 1958 1959 2060 2059 848 849 950 949 1959 1960 2061 2060 849 850 951 950 1960 1961 2062 2061 850 851 952 951 1961 1962 2063 2062 851 852 953 952 1962 1963 2064 2063 852 853 954 953 1963 1964 2065 2064 853 854 955 954 1964 1965 2066 2065 854 855 956 955 1965 1966 2067 2066 855 856 957 956 1966 1967 2068 2067 856 857 958 957 1967 1968 2069 2068 857 858 959 958 1968 1969 2070 2069 858 859 960 959 1969 1970 2071 2070 859 860 961 960 1970 1971 2072 2071 860 861 962 961 1971 1972 2073 2072 861 862 963 962 1972 1973 2074 2073 862 863 964 963 1973 1974 2075 2074 863 864 965 964 1974 1975 2076 2075 864 865 966 965 1975 1976 2077 2076 865 866 967 966 1976 1977 2078 2077 866 867 968 967 1977 1978 2079 2078 867 868 969 968 1978 1979 2080 2079 868 869 970 969 1979 1980 2081 2080 869 870 971 970 1980 1981 2082 2081 870 871 972 971 1981 1982 2083 2082 871 872 973 972 1982 1983 2084 2083 872 873 974 973 1983 1984 2085 2084 873 874 975 974 1984 1985 2086 2085 874 875 976 975 1985 1986 2087 2086 875 876 977 976 1986 1987 2088 2087 876 877 978 977 1987 1988 2089 2088 877 878 979 978 1988 1989 2090 2089 878 879 980 979 1989 1990 2091 2090 879 880 981 980 1990 1991 2092 2091 880 881 982 981 1991 1992 2093 2092 881 882 983 982 1992 1993 2094 2093 882 883 984 983 1993 1994 2095 2094 883 884 985 984 1994 1995 2096 2095 884 885 986 985 1995 1996 2097 2096 885 886 987 986 1996 1997 2098 2097 886 887 988 987 1997 1998 2099 2098 887 888 989 988 1998 1999 2100 2099 888 889 990 989 1999 2000 2101 2100 889 890 991 990 2000 2001 2102 2101 890 891 992 991 2001 2002 2103 2102 891 892 993 992 2002 2003 2104 2103 892 893 994 993 2003 2004 2105 2104 893 894 995 994 2004 2005 2106 2105 894 895 996 995 2005 2006 2107 2106 895 896 997 996 2006 2007 2108 2107 896 897 998 997 2007 2008 2109 2108 897 898 999 998 2008 2009 2110 2109 898 899 1000 999 2009 2010 2111 2110 899 900 1001 1000 2010 2011 2112 2111 900 901 1002 1001 2011 2012 2113 2112 901 902 1003 1002 2012 2013 2114 2113 902 903 1004 1003 2013 2014 2115 2114 903 904 1005 1004 2014 2015 2116 2115 904 905 1006 1005 2015 2016 2117 2116 905 906 1007 1006 2016 2017 2118 2117 906 907 1008 1007 2017 2018 2119 2118 907 908 1009 1008 2018 2019 2120 2119 909 910 1011 1010 2020 2021 2122 2121 910 911 1012 1011 2021 2022 2123 2122 911 912 1013 1012 2022 2023 2124 2123 912 913 1014 1013 2023 2024 2125 2124 913 914 1015 1014 2024 2025 2126 2125 914 915 1016 1015 2025 2026 2127 2126 915 916 1017 1016 2026 2027 2128 2127 916 917 1018 1017 2027 2028 2129 2128 917 918 1019 1018 2028 2029 2130 2129 918 919 1020 1019 2029 2030 2131 2130 919 920 1021 1020 2030 2031 2132 2131 920 921 1022 1021 2031 2032 2133 2132 921 922 1023 1022 2032 2033 2134 2133 922 923 1024 1023 2033 2034 2135 2134 923 924 1025 1024 2034 2035 2136 2135 924 925 1026 1025 2035 2036 2137 2136 925 926 1027 1026 2036 2037 2138 2137 926 927 1028 1027 2037 2038 2139 2138 927 928 1029 1028 2038 2039 2140 2139 928 929 1030 1029 2039 2040 2141 2140 929 930 1031 1030 2040 2041 2142 2141 930 931 1032 1031 2041 2042 2143 2142 931 932 1033 1032 2042 2043 2144 2143 932 933 1034 1033 2043 2044 2145 2144 933 934 1035 1034 2044 2045 2146 2145 934 935 1036 1035 2045 2046 2147 2146 935 936 1037 1036 2046 2047 2148 2147 936 937 1038 1037 2047 2048 2149 2148 937 938 1039 1038 2048 2049 2150 2149 938 939 1040 1039 2049 2050 2151 2150 939 940 1041 1040 2050 2051 2152 2151 940 941 1042 1041 2051 2052 2153 2152 941 942 1043 1042 2052 2053 2154 2153 942 943 1044 1043 2053 2054 2155 2154 943 944 1045 1044 2054 2055 2156 2155 944 945 1046 1045 2055 2056 2157 2156 945 946 1047 1046 2056 2057 2158 2157 946 947 1048 1047 2057 2058 2159 2158 947 948 1049 1048 2058 2059 2160 2159 948 949 1050 1049 2059 2060 2161 2160 949 950 1051 1050 2060 2061 2162 2161 950 951 1052 1051 2061 2062 2163 2162 951 952 1053 1052 2062 2063 2164 2163 952 953 1054 1053 2063 2064 2165 2164 953 954 1055 1054 2064 2065 2166 2165 954 955 1056 1055 2065 2066 2167 2166 955 956 1057 1056 2066 2067 2168 2167 956 957 1058 1057 2067 2068 2169 2168 957 958 1059 1058 2068 2069 2170 2169 958 959 1060 1059 2069 2070 2171 2170 959 960 1061 1060 2070 2071 2172 2171 960 961 1062 1061 2071 2072 2173 2172 961 962 1063 1062 2072 2073 2174 2173 962 963 1064 1063 2073 2074 2175 2174 963 964 1065 1064 2074 2075 2176 2175 964 965 1066 1065 2075 2076 2177 2176 965 966 1067 1066 2076 2077 2178 2177 966 967 1068 1067 2077 2078 2179 2178 967 968 1069 1068 2078 2079 2180 2179 968 969 1070 1069 2079 2080 2181 2180 969 970 1071 1070 2080 2081 2182 2181 970 971 1072 1071 2081 2082 2183 2182 971 972 1073 1072 2082 2083 2184 2183 972 973 1074 1073 2083 2084 2185 2184 973 974 1075 1074 2084 2085 2186 2185 974 975 1076 1075 2085 2086 2187 2186 975 976 1077 1076 2086 2087 2188 2187 976 977 1078 1077 2087 2088 2189 2188 977 978 1079 1078 2088 2089 2190 2189 978 979 1080 1079 2089 2090 2191 2190 979 980 1081 1080 2090 2091 2192 2191 980 981 1082 1081 2091 2092 2193 2192 981 982 1083 1082 2092 2093 2194 2193 982 983 1084 1083 2093 2094 2195 2194 983 984 1085 1084 2094 2095 2196 2195 984 985 1086 1085 2095 2096 2197 2196 985 986 1087 1086 2096 2097 2198 2197 986 987 1088 1087 2097 2098 2199 2198 987 988 1089 1088 2098 2099 2200 2199 988 989 1090 1089 2099 2100 2201 2200 989 990 1091 1090 2100 2101 2202 2201 990 991 1092 1091 2101 2102 2203 2202 991 992 1093 1092 2102 2103 2204 2203 992 993 1094 1093 2103 2104 2205 2204 993 994 1095 1094 2104 2105 2206 2205 994 995 1096 1095 2105 2106 2207 2206 995 996 1097 1096 2106 2107 2208 2207 996 997 1098 1097 2107 2108 2209 2208 997 998 1099 1098 2108 2109 2210 2209 998 999 1100 1099 2109 2110 2211 2210 999 1000 1101 1100 2110 2111 2212 2211 1000 1001 1102 1101 2111 2112 2213 2212 1001 1002 1103 1102 2112 2113 2214 2213 1002 1003 1104 1103 2113 2114 2215 2214 1003 1004 1105 1104 2114 2115 2216 2215 1004 1005 1106 1105 2115 2116 2217 2216 1005 1006 1107 1106 2116 2117 2218 2217 1006 1007 1108 1107 2117 2118 2219 2218 1007 1008 1109 1108 2118 2119 2220 2219 1008 1009 1110 1109 2119 2120 2221 2220 1111 1112 1213 1212 2222 2223 2324 2323 1112 1113 1214 1213 2223 2224 2325 2324 1113 1114 1215 1214 2224 2225 2326 2325 1114 1115 1216 1215 2225 2226 2327 2326 1115 1116 1217 1216 2226 2227 2328 2327 1116 1117 1218 1217 2227 2228 2329 2328 1117 1118 1219 1218 2228 2229 2330 2329 1118 1119 1220 1219 2229 2230 2331 2330 1119 1120 1221 1220 2230 2231 2332 2331 1120 1121 1222 1221 2231 2232 2333 2332 1121 1122 1223 1222 2232 2233 2334 2333 1122 1123 1224 1223 2233 2234 2335 2334 1123 1124 1225 1224 2234 2235 2336 2335 1124 1125 1226 1225 2235 2236 2337 2336 1125 1126 1227 1226 2236 2237 2338 2337 1126 1127 1228 1227 2237 2238 2339 2338 1127 1128 1229 1228 2238 2239 2340 2339 1128 1129 1230 1229 2239 2240 2341 2340 1129 1130 1231 1230 2240 2241 2342 2341 1130 1131 1232 1231 2241 2242 2343 2342 1131 1132 1233 1232 2242 2243 2344 2343 1132 1133 1234 1233 2243 2244 2345 2344 1133 1134 1235 1234 2244 2245 2346 2345 1134 1135 1236 1235 2245 2246 2347 2346 1135 1136 1237 1236 2246 2247 2348 2347 1136 1137 1238 1237 2247 2248 2349 2348 1137 1138 1239 1238 2248 2249 2350 2349 1138 1139 1240 1239 2249 2250 2351 2350 1139 1140 1241 1240 2250 2251 2352 2351 1140 1141 1242 1241 2251 2252 2353 2352 1141 1142 1243 1242 2252 2253 2354 2353 1142 1143 1244 1243 2253 2254 2355 2354 1143 1144 1245 1244 2254 2255 2356 2355 1144 1145 1246 1245 2255 2256 2357 2356 1145 1146 1247 1246 2256 2257 2358 2357 1146 1147 1248 1247 2257 2258 2359 2358 1147 1148 1249 1248 2258 2259 2360 2359 1148 1149 1250 1249 2259 2260 2361 2360 1149 1150 1251 1250 2260 2261 2362 2361 1150 1151 1252 1251 2261 2262 2363 2362 1151 1152 1253 1252 2262 2263 2364 2363 1152 1153 1254 1253 2263 2264 2365 2364 1153 1154 1255 1254 2264 2265 2366 2365 1154 1155 1256 1255 2265 2266 2367 2366 1155 1156 1257 1256 2266 2267 2368 2367 1156 1157 1258 1257 2267 2268 2369 2368 1157 1158 1259 1258 2268 2269 2370 2369 1158 1159 1260 1259 2269 2270 2371 2370 1159 1160 1261 1260 2270 2271 2372 2371 1160 1161 1262 1261 2271 2272 2373 2372 1161 1162 1263 1262 2272 2273 2374 2373 1162 1163 1264 1263 2273 2274 2375 2374 1163 1164 1265 1264 2274 2275 2376 2375 1164 1165 1266 1265 2275 2276 2377 2376 1165 1166 1267 1266 2276 2277 2378 2377 1166 1167 1268 1267 2277 2278 2379 2378 1167 1168 1269 1268 2278 2279 2380 2379 1168 1169 1270 1269 2279 2280 2381 2380 1169 1170 1271 1270 2280 2281 2382 2381 1170 1171 1272 1271 2281 2282 2383 2382 1171 1172 1273 1272 2282 2283 2384 2383 1172 1173 1274 1273 2283 2284 2385 2384 1173 1174 1275 1274 2284 2285 2386 2385 1174 1175 1276 1275 2285 2286 2387 2386 1175 1176 1277 1276 2286 2287 2388 2387 1176 1177 1278 1277 2287 2288 2389 2388 1177 1178 1279 1278 2288 2289 2390 2389 1178 1179 1280 1279 2289 2290 2391 2390 1179 1180 1281 1280 2290 2291 2392 2391 1180 1181 1282 1281 2291 2292 2393 2392 1181 1182 1283 1282 2292 2293 2394 2393 1182 1183 1284 1283 2293 2294 2395 2394 1183 1184 1285 1284 2294 2295 2396 2395 1184 1185 1286 1285 2295 2296 2397 2396 1185 1186 1287 1286 2296 2297 2398 2397 1186 1187 1288 1287 2297 2298 2399 2398 1187 1188 1289 1288 2298 2299 2400 2399 1188 1189 1290 1289 2299 2300 2401 2400 1189 1190 1291 1290 2300 2301 2402 2401 1190 1191 1292 1291 2301 2302 2403 2402 1191 1192 1293 1292 2302 2303 2404 2403 1192 1193 1294 1293 2303 2304 2405 2404 1193 1194 1295 1294 2304 2305 2406 2405 1194 1195 1296 1295 2305 2306 2407 2406 1195 1196 1297 1296 2306 2307 2408 2407 1196 1197 1298 1297 2307 2308 2409 2408 1197 1198 1299 1298 2308 2309 2410 2409 1198 1199 1300 1299 2309 2310 2411 2410 1199 1200 1301 1300 2310 2311 2412 2411 1200 1201 1302 1301 2311 2312 2413 2412 1201 1202 1303 1302 2312 2313 2414 2413 1202 1203 1304 1303 2313 2314 2415 2414 1203 1204 1305 1304 2314 2315 2416 2415 1204 1205 1306 1305 2315 2316 2417 2416 1205 1206 1307 1306 2316 2317 2418 2417 1206 1207 1308 1307 2317 2318 2419 2418 1207 1208 1309 1308 2318 2319 2420 2419 1208 1209 1310 1309 2319 2320 2421 2420 1209 1210 1311 1310 2320 2321 2422 2421 1210 1211 1312 1311 2321 2322 2423 2422 1212 1213 1314 1313 2323 2324 2425 2424 1213 1214 1315 1314 2324 2325 2426 2425 1214 1215 1316 1315 2325 2326 2427 2426 1215 1216 1317 1316 2326 2327 2428 2427 1216 1217 1318 1317 2327 2328 2429 2428 1217 1218 1319 1318 2328 2329 2430 2429 1218 1219 1320 1319 2329 2330 2431 2430 1219 1220 1321 1320 2330 2331 2432 2431 1220 1221 1322 1321 2331 2332 2433 2432 1221 1222 1323 1322 2332 2333 2434 2433 1222 1223 1324 1323 2333 2334 2435 2434 1223 1224 1325 1324 2334 2335 2436 2435 1224 1225 1326 1325 2335 2336 2437 2436 1225 1226 1327 1326 2336 2337 2438 2437 1226 1227 1328 1327 2337 2338 2439 2438 1227 1228 1329 1328 2338 2339 2440 2439 1228 1229 1330 1329 2339 2340 2441 2440 1229 1230 1331 1330 2340 2341 2442 2441 1230 1231 1332 1331 2341 2342 2443 2442 1231 1232 1333 1332 2342 2343 2444 2443 1232 1233 1334 1333 2343 2344 2445 2444 1233 1234 1335 1334 2344 2345 2446 2445 1234 1235 1336 1335 2345 2346 2447 2446 1235 1236 1337 1336 2346 2347 2448 2447 1236 1237 1338 1337 2347 2348 2449 2448 1237 1238 1339 1338 2348 2349 2450 2449 1238 1239 1340 1339 2349 2350 2451 2450 1239 1240 1341 1340 2350 2351 2452 2451 1240 1241 1342 1341 2351 2352 2453 2452 1241 1242 1343 1342 2352 2353 2454 2453 1242 1243 1344 1343 2353 2354 2455 2454 1243 1244 1345 1344 2354 2355 2456 2455 1244 1245 1346 1345 2355 2356 2457 2456 1245 1246 1347 1346 2356 2357 2458 2457 1246 1247 1348 1347 2357 2358 2459 2458 1247 1248 1349 1348 2358 2359 2460 2459 1248 1249 1350 1349 2359 2360 2461 2460 1249 1250 1351 1350 2360 2361 2462 2461 1250 1251 1352 1351 2361 2362 2463 2462 1251 1252 1353 1352 2362 2363 2464 2463 1252 1253 1354 1353 2363 2364 2465 2464 1253 1254 1355 1354 2364 2365 2466 2465 1254 1255 1356 1355 2365 2366 2467 2466 1255 1256 1357 1356 2366 2367 2468 2467 1256 1257 1358 1357 2367 2368 2469 2468 1257 1258 1359 1358 2368 2369 2470 2469 1258 1259 1360 1359 2369 2370 2471 2470 1259 1260 1361 1360 2370 2371 2472 2471 1260 1261 1362 1361 2371 2372 2473 2472 1261 1262 1363 1362 2372 2373 2474 2473 1262 1263 1364 1363 2373 2374 2475 2474 1263 1264 1365 1364 2374 2375 2476 2475 1264 1265 1366 1365 2375 2376 2477 2476 1265 1266 1367 1366 2376 2377 2478 2477 1266 1267 1368 1367 2377 2378 2479 2478 1267 1268 1369 1368 2378 2379 2480 2479 1268 1269 1370 1369 2379 2380 2481 2480 1269 1270 1371 1370 2380 2381 2482 2481 1270 1271 1372 1371 2381 2382 2483 2482 1271 1272 1373 1372 2382 2383 2484 2483 1272 1273 1374 1373 2383 2384 2485 2484 1273 1274 1375 1374 2384 2385 2486 2485 1274 1275 1376 1375 2385 2386 2487 2486 1275 1276 1377 1376 2386 2387 2488 2487 1276 1277 1378 1377 2387 2388 2489 2488 1277 1278 1379 1378 2388 2389 2490 2489 1278 1279 1380 1379 2389 2390 2491 2490 1279 1280 1381 1380 2390 2391 2492 2491 1280 1281 1382 1381 2391 2392 2493 2492 1281 1282 1383 1382 2392 2393 2494 2493 1282 1283 1384 1383 2393 2394 2495 2494 1283 1284 1385 1384 2394 2395 2496 2495 1284 1285 1386 1385 2395 2396 2497 2496 1285 1286 1387 1386 2396 2397 2498 2497 1286 1287 1388 1387 2397 2398 2499 2498 1287 1288 1389 1388 2398 2399 2500 2499 1288 1289 1390 1389 2399 2400 2501 2500 1289 1290 1391 1390 2400 2401 2502 2501 1290 1291 1392 1391 2401 2402 2503 2502 1291 1292 1393 1392 2402 2403 2504 2503 1292 1293 1394 1393 2403 2404 2505 2504 1293 1294 1395 1394 2404 2405 2506 2505 1294 1295 1396 1395 2405 2406 2507 2506 1295 1296 1397 1396 2406 2407 2508 2507 1296 1297 1398 1397 2407 2408 2509 2508 1297 1298 1399 1398 2408 2409 2510 2509 1298 1299 1400 1399 2409 2410 2511 2510 1299 1300 1401 1400 2410 2411 2512 2511 1300 1301 1402 1401 2411 2412 2513 2512 1301 1302 1403 1402 2412 2413 2514 2513 1302 1303 1404 1403 2413 2414 2515 2514 1303 1304 1405 1404 2414 2415 2516 2515 1304 1305 1406 1405 2415 2416 2517 2516 1305 1306 1407 1406 2416 2417 2518 2517 1306 1307 1408 1407 2417 2418 2519 2518 1307 1308 1409 1408 2418 2419 2520 2519 1308 1309 1410 1409 2419 2420 2521 2520 1309 1310 1411 1410 2420 2421 2522 2521 1310 1311 1412 1411 2421 2422 2523 2522 1311 1312 1413 1412 2422 2423 2524 2523 1313 1314 1415 1414 2424 2425 2526 2525 1314 1315 1416 1415 2425 2426 2527 2526 1315 1316 1417 1416 2426 2427 2528 2527 1316 1317 1418 1417 2427 2428 2529 2528 1317 1318 1419 1418 2428 2429 2530 2529 1318 1319 1420 1419 2429 2430 2531 2530 1319 1320 1421 1420 2430 2431 2532 2531 1320 1321 1422 1421 2431 2432 2533 2532 1321 1322 1423 1422 2432 2433 2534 2533 1322 1323 1424 1423 2433 2434 2535 2534 1323 1324 1425 1424 2434 2435 2536 2535 1324 1325 1426 1425 2435 2436 2537 2536 1325 1326 1427 1426 2436 2437 2538 2537 1326 1327 1428 1427 2437 2438 2539 2538 1327 1328 1429 1428 2438 2439 2540 2539 1328 1329 1430 1429 2439 2440 2541 2540 1329 1330 1431 1430 2440 2441 2542 2541 1330 1331 1432 1431 2441 2442 2543 2542 1331 1332 1433 1432 2442 2443 2544 2543 1332 1333 1434 1433 2443 2444 2545 2544 1333 1334 1435 1434 2444 2445 2546 2545 1334 1335 1436 1435 2445 2446 2547 2546 1335 1336 1437 1436 2446 2447 2548 2547 1336 1337 1438 1437 2447 2448 2549 2548 1337 1338 1439 1438 2448 2449 2550 2549 1338 1339 1440 1439 2449 2450 2551 2550 1339 1340 1441 1440 2450 2451 2552 2551 1340 1341 1442 1441 2451 2452 2553 2552 1341 1342 1443 1442 2452 2453 2554 2553 1342 1343 1444 1443 2453 2454 2555 2554 1343 1344 1445 1444 2454 2455 2556 2555 1344 1345 1446 1445 2455 2456 2557 2556 1345 1346 1447 1446 2456 2457 2558 2557 1346 1347 1448 1447 2457 2458 2559 2558 1347 1348 1449 1448 2458 2459 2560 2559 1348 1349 1450 1449 2459 2460 2561 2560 1349 1350 1451 1450 2460 2461 2562 2561 1350 1351 1452 1451 2461 2462 2563 2562 1351 1352 1453 1452 2462 2463 2564 2563 1352 1353 1454 1453 2463 2464 2565 2564 1353 1354 1455 1454 2464 2465 2566 2565 1354 1355 1456 1455 2465 2466 2567 2566 1355 1356 1457 1456 2466 2467 2568 2567 1356 1357 1458 1457 2467 2468 2569 2568 1357 1358 1459 1458 2468 2469 2570 2569 1358 1359 1460 1459 2469 2470 2571 2570 1359 1360 1461 1460 2470 2471 2572 2571 1360 1361 1462 1461 2471 2472 2573 2572 1361 1362 1463 1462 2472 2473 2574 2573 1362 1363 1464 1463 2473 2474 2575 2574 1363 1364 1465 1464 2474 2475 2576 2575 1364 1365 1466 1465 2475 2476 2577 2576 1365 1366 1467 1466 2476 2477 2578 2577 1366 1367 1468 1467 2477 2478 2579 2578 1367 1368 1469 1468 2478 2479 2580 2579 1368 1369 1470 1469 2479 2480 2581 2580 1369 1370 1471 1470 2480 2481 2582 2581 1370 1371 1472 1471 2481 2482 2583 2582 1371 1372 1473 1472 2482 2483 2584 2583 1372 1373 1474 1473 2483 2484 2585 2584 1373 1374 1475 1474 2484 2485 2586 2585 1374 1375 1476 1475 2485 2486 2587 2586 1375 1376 1477 1476 2486 2487 2588 2587 1376 1377 1478 1477 2487 2488 2589 2588 1377 1378 1479 1478 2488 2489 2590 2589 1378 1379 1480 1479 2489 2490 2591 2590 1379 1380 1481 1480 2490 2491 2592 2591 1380 1381 1482 1481 2491 2492 2593 2592 1381 1382 1483 1482 2492 2493 2594 2593 1382 1383 1484 1483 2493 2494 2595 2594 1383 1384 1485 1484 2494 2495 2596 2595 1384 1385 1486 1485 2495 2496 2597 2596 1385 1386 1487 1486 2496 2497 2598 2597 1386 1387 1488 1487 2497 2498 2599 2598 1387 1388 1489 1488 2498 2499 2600 2599 1388 1389 1490 1489 2499 2500 2601 2600 1389 1390 1491 1490 2500 2501 2602 2601 1390 1391 1492 1491 2501 2502 2603 2602 1391 1392 1493 1492 2502 2503 2604 2603 1392 1393 1494 1493 2503 2504 2605 2604 1393 1394 1495 1494 2504 2505 2606 2605 1394 1395 1496 1495 2505 2506 2607 2606 1395 1396 1497 1496 2506 2507 2608 2607 1396 1397 1498 1497 2507 2508 2609 2608 1397 1398 1499 1498 2508 2509 2610 2609 1398 1399 1500 1499 2509 2510 2611 2610 1399 1400 1501 1500 2510 2511 2612 2611 1400 1401 1502 1501 2511 2512 2613 2612 1401 1402 1503 1502 2512 2513 2614 2613 1402 1403 1504 1503 2513 2514 2615 2614 1403 1404 1505 1504 2514 2515 2616 2615 1404 1405 1506 1505 2515 2516 2617 2616 1405 1406 1507 1506 2516 2517 2618 2617 1406 1407 1508 1507 2517 2518 2619 2618 1407 1408 1509 1508 2518 2519 2620 2619 1408 1409 1510 1509 2519 2520 2621 2620 1409 1410 1511 1510 2520 2521 2622 2621 1410 1411 1512 1511 2521 2522 2623 2622 1411 1412 1513 1512 2522 2523 2624 2623 1412 1413 1514 1513 2523 2524 2625 2624 1414 1415 1516 1515 2525 2526 2627 2626 1415 1416 1517 1516 2526 2527 2628 2627 1416 1417 1518 1517 2527 2528 2629 2628 1417 1418 1519 1518 2528 2529 2630 2629 1418 1419 1520 1519 2529 2530 2631 2630 1419 1420 1521 1520 2530 2531 2632 2631 1420 1421 1522 1521 2531 2532 2633 2632 1421 1422 1523 1522 2532 2533 2634 2633 1422 1423 1524 1523 2533 2534 2635 2634 1423 1424 1525 1524 2534 2535 2636 2635 1424 1425 1526 1525 2535 2536 2637 2636 1425 1426 1527 1526 2536 2537 2638 2637 1426 1427 1528 1527 2537 2538 2639 2638 1427 1428 1529 1528 2538 2539 2640 2639 1428 1429 1530 1529 2539 2540 2641 2640 1429 1430 1531 1530 2540 2541 2642 2641 1430 1431 1532 1531 2541 2542 2643 2642 1431 1432 1533 1532 2542 2543 2644 2643 1432 1433 1534 1533 2543 2544 2645 2644 1433 1434 1535 1534 2544 2545 2646 2645 1434 1435 1536 1535 2545 2546 2647 2646 1435 1436 1537 1536 2546 2547 2648 2647 1436 1437 1538 1537 2547 2548 2649 2648 1437 1438 1539 1538 2548 2549 2650 2649 1438 1439 1540 1539 2549 2550 2651 2650 1439 1440 1541 1540 2550 2551 2652 2651 1440 1441 1542 1541 2551 2552 2653 2652 1441 1442 1543 1542 2552 2553 2654 2653 1442 1443 1544 1543 2553 2554 2655 2654 1443 1444 1545 1544 2554 2555 2656 2655 1444 1445 1546 1545 2555 2556 2657 2656 1445 1446 1547 1546 2556 2557 2658 2657 1446 1447 1548 1547 2557 2558 2659 2658 1447 1448 1549 1548 2558 2559 2660 2659 1448 1449 1550 1549 2559 2560 2661 2660 1449 1450 1551 1550 2560 2561 2662 2661 1450 1451 1552 1551 2561 2562 2663 2662 1451 1452 1553 1552 2562 2563 2664 2663 1452 1453 1554 1553 2563 2564 2665 2664 1453 1454 1555 1554 2564 2565 2666 2665 1454 1455 1556 1555 2565 2566 2667 2666 1455 1456 1557 1556 2566 2567 2668 2667 1456 1457 1558 1557 2567 2568 2669 2668 1457 1458 1559 1558 2568 2569 2670 2669 1458 1459 1560 1559 2569 2570 2671 2670 1459 1460 1561 1560 2570 2571 2672 2671 1460 1461 1562 1561 2571 2572 2673 2672 1461 1462 1563 1562 2572 2573 2674 2673 1462 1463 1564 1563 2573 2574 2675 2674 1463 1464 1565 1564 2574 2575 2676 2675 1464 1465 1566 1565 2575 2576 2677 2676 1465 1466 1567 1566 2576 2577 2678 2677 1466 1467 1568 1567 2577 2578 2679 2678 1467 1468 1569 1568 2578 2579 2680 2679 1468 1469 1570 1569 2579 2580 2681 2680 1469 1470 1571 1570 2580 2581 2682 2681 1470 1471 1572 1571 2581 2582 2683 2682 1471 1472 1573 1572 2582 2583 2684 2683 1472 1473 1574 1573 2583 2584 2685 2684 1473 1474 1575 1574 2584 2585 2686 2685 1474 1475 1576 1575 2585 2586 2687 2686 1475 1476 1577 1576 2586 2587 2688 2687 1476 1477 1578 1577 2587 2588 2689 2688 1477 1478 1579 1578 2588 2589 2690 2689 1478 1479 1580 1579 2589 2590 2691 2690 1479 1480 1581 1580 2590 2591 2692 2691 1480 1481 1582 1581 2591 2592 2693 2692 1481 1482 1583 1582 2592 2593 2694 2693 1482 1483 1584 1583 2593 2594 2695 2694 1483 1484 1585 1584 2594 2595 2696 2695 1484 1485 1586 1585 2595 2596 2697 2696 1485 1486 1587 1586 2596 2597 2698 2697 1486 1487 1588 1587 2597 2598 2699 2698 1487 1488 1589 1588 2598 2599 2700 2699 1488 1489 1590 1589 2599 2600 2701 2700 1489 1490 1591 1590 2600 2601 2702 2701 1490 1491 1592 1591 2601 2602 2703 2702 1491 1492 1593 1592 2602 2603 2704 2703 1492 1493 1594 1593 2603 2604 2705 2704 1493 1494 1595 1594 2604 2605 2706 2705 1494 1495 1596 1595 2605 2606 2707 2706 1495 1496 1597 1596 2606 2607 2708 2707 1496 1497 1598 1597 2607 2608 2709 2708 1497 1498 1599 1598 2608 2609 2710 2709 1498 1499 1600 1599 2609 2610 2711 2710 1499 1500 1601 1600 2610 2611 2712 2711 1500 1501 1602 1601 2611 2612 2713 2712 1501 1502 1603 1602 2612 2613 2714 2713 1502 1503 1604 1603 2613 2614 2715 2714 1503 1504 1605 1604 2614 2615 2716 2715 1504 1505 1606 1605 2615 2616 2717 2716 1505 1506 1607 1606 2616 2617 2718 2717 1506 1507 1608 1607 2617 2618 2719 2718 1507 1508 1609 1608 2618 2619 2720 2719 1508 1509 1610 1609 2619 2620 2721 2720 1509 1510 1611 1610 2620 2621 2722 2721 1510 1511 1612 1611 2621 2622 2723 2722 1511 1512 1613 1612 2622 2623 2724 2723 1512 1513 1614 1613 2623 2624 2725 2724 1513 1514 1615 1614 2624 2625 2726 2725 1515 1516 1617 1616 2626 2627 2728 2727 1516 1517 1618 1617 2627 2628 2729 2728 1517 1518 1619 1618 2628 2629 2730 2729 1518 1519 1620 1619 2629 2630 2731 2730 1519 1520 1621 1620 2630 2631 2732 2731 1520 1521 1622 1621 2631 2632 2733 2732 1521 1522 1623 1622 2632 2633 2734 2733 1522 1523 1624 1623 2633 2634 2735 2734 1523 1524 1625 1624 2634 2635 2736 2735 1524 1525 1626 1625 2635 2636 2737 2736 1525 1526 1627 1626 2636 2637 2738 2737 1526 1527 1628 1627 2637 2638 2739 2738 1527 1528 1629 1628 2638 2639 2740 2739 1528 1529 1630 1629 2639 2640 2741 2740 1529 1530 1631 1630 2640 2641 2742 2741 1530 1531 1632 1631 2641 2642 2743 2742 1531 1532 1633 1632 2642 2643 2744 2743 1532 1533 1634 1633 2643 2644 2745 2744 1533 1534 1635 1634 2644 2645 2746 2745 1534 1535 1636 1635 2645 2646 2747 2746 1535 1536 1637 1636 2646 2647 2748 2747 1536 1537 1638 1637 2647 2648 2749 2748 1537 1538 1639 1638 2648 2649 2750 2749 1538 1539 1640 1639 2649 2650 2751 2750 1539 1540 1641 1640 2650 2651 2752 2751 1540 1541 1642 1641 2651 2652 2753 2752 1541 1542 1643 1642 2652 2653 2754 2753 1542 1543 1644 1643 2653 2654 2755 2754 1543 1544 1645 1644 2654 2655 2756 2755 1544 1545 1646 1645 2655 2656 2757 2756 1545 1546 1647 1646 2656 2657 2758 2757 1546 1547 1648 1647 2657 2658 2759 2758 1547 1548 1649 1648 2658 2659 2760 2759 1548 1549 1650 1649 2659 2660 2761 2760 1549 1550 1651 1650 2660 2661 2762 2761 1550 1551 1652 1651 2661 2662 2763 2762 1551 1552 1653 1652 2662 2663 2764 2763 1552 1553 1654 1653 2663 2664 2765 2764 1553 1554 1655 1654 2664 2665 2766 2765 1554 1555 1656 1655 2665 2666 2767 2766 1555 1556 1657 1656 2666 2667 2768 2767 1556 1557 1658 1657 2667 2668 2769 2768 1557 1558 1659 1658 2668 2669 2770 2769 1558 1559 1660 1659 2669 2670 2771 2770 1559 1560 1661 1660 2670 2671 2772 2771 1560 1561 1662 1661 2671 2672 2773 2772 1561 1562 1663 1662 2672 2673 2774 2773 1562 1563 1664 1663 2673 2674 2775 2774 1563 1564 1665 1664 2674 2675 2776 2775 1564 1565 1666 1665 2675 2676 2777 2776 1565 1566 1667 1666 2676 2677 2778 2777 1566 1567 1668 1667 2677 2678 2779 2778 1567 1568 1669 1668 2678 2679 2780 2779 1568 1569 1670 1669 2679 2680 2781 2780 1569 1570 1671 1670 2680 2681 2782 2781 1570 1571 1672 1671 2681 2682 2783 2782 1571 1572 1673 1672 2682 2683 2784 2783 1572 1573 1674 1673 2683 2684 2785 2784 1573 1574 1675 1674 2684 2685 2786 2785 1574 1575 1676 1675 2685 2686 2787 2786 1575 1576 1677 1676 2686 2687 2788 2787 1576 1577 1678 1677 2687 2688 2789 2788 1577 1578 1679 1678 2688 2689 2790 2789 1578 1579 1680 1679 2689 2690 2791 2790 1579 1580 1681 1680 2690 2691 2792 2791 1580 1581 1682 1681 2691 2692 2793 2792 1581 1582 1683 1682 2692 2693 2794 2793 1582 1583 1684 1683 2693 2694 2795 2794 1583 1584 1685 1684 2694 2695 2796 2795 1584 1585 1686 1685 2695 2696 2797 2796 1585 1586 1687 1686 2696 2697 2798 2797 1586 1587 1688 1687 2697 2698 2799 2798 1587 1588 1689 1688 2698 2699 2800 2799 1588 1589 1690 1689 2699 2700 2801 2800 1589 1590 1691 1690 2700 2701 2802 2801 1590 1591 1692 1691 2701 2702 2803 2802 1591 1592 1693 1692 2702 2703 2804 2803 1592 1593 1694 1693 2703 2704 2805 2804 1593 1594 1695 1694 2704 2705 2806 2805 1594 1595 1696 1695 2705 2706 2807 2806 1595 1596 1697 1696 2706 2707 2808 2807 1596 1597 1698 1697 2707 2708 2809 2808 1597 1598 1699 1698 2708 2709 2810 2809 1598 1599 1700 1699 2709 2710 2811 2810 1599 1600 1701 1700 2710 2711 2812 2811 1600 1601 1702 1701 2711 2712 2813 2812 1601 1602 1703 1702 2712 2713 2814 2813 1602 1603 1704 1703 2713 2714 2815 2814 1603 1604 1705 1704 2714 2715 2816 2815 1604 1605 1706 1705 2715 2716 2817 2816 1605 1606 1707 1706 2716 2717 2818 2817 1606 1607 1708 1707 2717 2718 2819 2818 1607 1608 1709 1708 2718 2719 2820 2819 1608 1609 1710 1709 2719 2720 2821 2820 1609 1610 1711 1710 2720 2721 2822 2821 1610 1611 1712 1711 2721 2722 2823 2822 1611 1612 1713 1712 2722 2723 2824 2823 1612 1613 1714 1713 2723 2724 2825 2824 1613 1614 1715 1714 2724 2725 2826 2825 1614 1615 1716 1715 2725 2726 2827 2826 1616 1617 1718 1717 2727 2728 2829 2828 1617 1618 1719 1718 2728 2729 2830 2829 1618 1619 1720 1719 2729 2730 2831 2830 1619 1620 1721 1720 2730 2731 2832 2831 1620 1621 1722 1721 2731 2732 2833 2832 1621 1622 1723 1722 2732 2733 2834 2833 1622 1623 1724 1723 2733 2734 2835 2834 1623 1624 1725 1724 2734 2735 2836 2835 1624 1625 1726 1725 2735 2736 2837 2836 1625 1626 1727 1726 2736 2737 2838 2837 1626 1627 1728 1727 2737 2738 2839 2838 1627 1628 1729 1728 2738 2739 2840 2839 1628 1629 1730 1729 2739 2740 2841 2840 1629 1630 1731 1730 2740 2741 2842 2841 1630 1631 1732 1731 2741 2742 2843 2842 1631 1632 1733 1732 2742 2743 2844 2843 1632 1633 1734 1733 2743 2744 2845 2844 1633 1634 1735 1734 2744 2745 2846 2845 1634 1635 1736 1735 2745 2746 2847 2846 1635 1636 1737 1736 2746 2747 2848 2847 1636 1637 1738 1737 2747 2748 2849 2848 1637 1638 1739 1738 2748 2749 2850 2849 1638 1639 1740 1739 2749 2750 2851 2850 1639 1640 1741 1740 2750 2751 2852 2851 1640 1641 1742 1741 2751 2752 2853 2852 1641 1642 1743 1742 2752 2753 2854 2853 1642 1643 1744 1743 2753 2754 2855 2854 1643 1644 1745 1744 2754 2755 2856 2855 1644 1645 1746 1745 2755 2756 2857 2856 1645 1646 1747 1746 2756 2757 2858 2857 1646 1647 1748 1747 2757 2758 2859 2858 1647 1648 1749 1748 2758 2759 2860 2859 1648 1649 1750 1749 2759 2760 2861 2860 1649 1650 1751 1750 2760 2761 2862 2861 1650 1651 1752 1751 2761 2762 2863 2862 1651 1652 1753 1752 2762 2763 2864 2863 1652 1653 1754 1753 2763 2764 2865 2864 1653 1654 1755 1754 2764 2765 2866 2865 1654 1655 1756 1755 2765 2766 2867 2866 1655 1656 1757 1756 2766 2767 2868 2867 1656 1657 1758 1757 2767 2768 2869 2868 1657 1658 1759 1758 2768 2769 2870 2869 1658 1659 1760 1759 2769 2770 2871 2870 1659 1660 1761 1760 2770 2771 2872 2871 1660 1661 1762 1761 2771 2772 2873 2872 1661 1662 1763 1762 2772 2773 2874 2873 1662 1663 1764 1763 2773 2774 2875 2874 1663 1664 1765 1764 2774 2775 2876 2875 1664 1665 1766 1765 2775 2776 2877 2876 1665 1666 1767 1766 2776 2777 2878 2877 1666 1667 1768 1767 2777 2778 2879 2878 1667 1668 1769 1768 2778 2779 2880 2879 1668 1669 1770 1769 2779 2780 2881 2880 1669 1670 1771 1770 2780 2781 2882 2881 1670 1671 1772 1771 2781 2782 2883 2882 1671 1672 1773 1772 2782 2783 2884 2883 1672 1673 1774 1773 2783 2784 2885 2884 1673 1674 1775 1774 2784 2785 2886 2885 1674 1675 1776 1775 2785 2786 2887 2886 1675 1676 1777 1776 2786 2787 2888 2887 1676 1677 1778 1777 2787 2788 2889 2888 1677 1678 1779 1778 2788 2789 2890 2889 1678 1679 1780 1779 2789 2790 2891 2890 1679 1680 1781 1780 2790 2791 2892 2891 1680 1681 1782 1781 2791 2792 2893 2892 1681 1682 1783 1782 2792 2793 2894 2893 1682 1683 1784 1783 2793 2794 2895 2894 1683 1684 1785 1784 2794 2795 2896 2895 1684 1685 1786 1785 2795 2796 2897 2896 1685 1686 1787 1786 2796 2797 2898 2897 1686 1687 1788 1787 2797 2798 2899 2898 1687 1688 1789 1788 2798 2799 2900 2899 1688 1689 1790 1789 2799 2800 2901 2900 1689 1690 1791 1790 2800 2801 2902 2901 1690 1691 1792 1791 2801 2802 2903 2902 1691 1692 1793 1792 2802 2803 2904 2903 1692 1693 1794 1793 2803 2804 2905 2904 1693 1694 1795 1794 2804 2805 2906 2905 1694 1695 1796 1795 2805 2806 2907 2906 1695 1696 1797 1796 2806 2807 2908 2907 1696 1697 1798 1797 2807 2808 2909 2908 1697 1698 1799 1798 2808 2809 2910 2909 1698 1699 1800 1799 2809 2810 2911 2910 1699 1700 1801 1800 2810 2811 2912 2911 1700 1701 1802 1801 2811 2812 2913 2912 1701 1702 1803 1802 2812 2813 2914 2913 1702 1703 1804 1803 2813 2814 2915 2914 1703 1704 1805 1804 2814 2815 2916 2915 1704 1705 1806 1805 2815 2816 2917 2916 1705 1706 1807 1806 2816 2817 2918 2917 1706 1707 1808 1807 2817 2818 2919 2918 1707 1708 1809 1808 2818 2819 2920 2919 1708 1709 1810 1809 2819 2820 2921 2920 1709 1710 1811 1810 2820 2821 2922 2921 1710 1711 1812 1811 2821 2822 2923 2922 1711 1712 1813 1812 2822 2823 2924 2923 1712 1713 1814 1813 2823 2824 2925 2924 1713 1714 1815 1814 2824 2825 2926 2925 1714 1715 1816 1815 2825 2826 2927 2926 1715 1716 1817 1816 2826 2827 2928 2927 1717 1718 1819 1818 2828 2829 2930 2929 1718 1719 1820 1819 2829 2830 2931 2930 1719 1720 1821 1820 2830 2831 2932 2931 1720 1721 1822 1821 2831 2832 2933 2932 1721 1722 1823 1822 2832 2833 2934 2933 1722 1723 1824 1823 2833 2834 2935 2934 1723 1724 1825 1824 2834 2835 2936 2935 1724 1725 1826 1825 2835 2836 2937 2936 1725 1726 1827 1826 2836 2837 2938 2937 1726 1727 1828 1827 2837 2838 2939 2938 1727 1728 1829 1828 2838 2839 2940 2939 1728 1729 1830 1829 2839 2840 2941 2940 1729 1730 1831 1830 2840 2841 2942 2941 1730 1731 1832 1831 2841 2842 2943 2942 1731 1732 1833 1832 2842 2843 2944 2943 1732 1733 1834 1833 2843 2844 2945 2944 1733 1734 1835 1834 2844 2845 2946 2945 1734 1735 1836 1835 2845 2846 2947 2946 1735 1736 1837 1836 2846 2847 2948 2947 1736 1737 1838 1837 2847 2848 2949 2948 1737 1738 1839 1838 2848 2849 2950 2949 1738 1739 1840 1839 2849 2850 2951 2950 1739 1740 1841 1840 2850 2851 2952 2951 1740 1741 1842 1841 2851 2852 2953 2952 1741 1742 1843 1842 2852 2853 2954 2953 1742 1743 1844 1843 2853 2854 2955 2954 1743 1744 1845 1844 2854 2855 2956 2955 1744 1745 1846 1845 2855 2856 2957 2956 1745 1746 1847 1846 2856 2857 2958 2957 1746 1747 1848 1847 2857 2858 2959 2958 1747 1748 1849 1848 2858 2859 2960 2959 1748 1749 1850 1849 2859 2860 2961 2960 1749 1750 1851 1850 2860 2861 2962 2961 1750 1751 1852 1851 2861 2862 2963 2962 1751 1752 1853 1852 2862 2863 2964 2963 1752 1753 1854 1853 2863 2864 2965 2964 1753 1754 1855 1854 2864 2865 2966 2965 1754 1755 1856 1855 2865 2866 2967 2966 1755 1756 1857 1856 2866 2867 2968 2967 1756 1757 1858 1857 2867 2868 2969 2968 1757 1758 1859 1858 2868 2869 2970 2969 1758 1759 1860 1859 2869 2870 2971 2970 1759 1760 1861 1860 2870 2871 2972 2971 1760 1761 1862 1861 2871 2872 2973 2972 1761 1762 1863 1862 2872 2873 2974 2973 1762 1763 1864 1863 2873 2874 2975 2974 1763 1764 1865 1864 2874 2875 2976 2975 1764 1765 1866 1865 2875 2876 2977 2976 1765 1766 1867 1866 2876 2877 2978 2977 1766 1767 1868 1867 2877 2878 2979 2978 1767 1768 1869 1868 2878 2879 2980 2979 1768 1769 1870 1869 2879 2880 2981 2980 1769 1770 1871 1870 2880 2881 2982 2981 1770 1771 1872 1871 2881 2882 2983 2982 1771 1772 1873 1872 2882 2883 2984 2983 1772 1773 1874 1873 2883 2884 2985 2984 1773 1774 1875 1874 2884 2885 2986 2985 1774 1775 1876 1875 2885 2886 2987 2986 1775 1776 1877 1876 2886 2887 2988 2987 1776 1777 1878 1877 2887 2888 2989 2988 1777 1778 1879 1878 2888 2889 2990 2989 1778 1779 1880 1879 2889 2890 2991 2990 1779 1780 1881 1880 2890 2891 2992 2991 1780 1781 1882 1881 2891 2892 2993 2992 1781 1782 1883 1882 2892 2893 2994 2993 1782 1783 1884 1883 2893 2894 2995 2994 1783 1784 1885 1884 2894 2895 2996 2995 1784 1785 1886 1885 2895 2896 2997 2996 1785 1786 1887 1886 2896 2897 2998 2997 1786 1787 1888 1887 2897 2898 2999 2998 1787 1788 1889 1888 2898 2899 3000 2999 1788 1789 1890 1889 2899 2900 3001 3000 1789 1790 1891 1890 2900 2901 3002 3001 1790 1791 1892 1891 2901 2902 3003 3002 1791 1792 1893 1892 2902 2903 3004 3003 1792 1793 1894 1893 2903 2904 3005 3004 1793 1794 1895 1894 2904 2905 3006 3005 1794 1795 1896 1895 2905 2906 3007 3006 1795 1796 1897 1896 2906 2907 3008 3007 1796 1797 1898 1897 2907 2908 3009 3008 1797 1798 1899 1898 2908 2909 3010 3009 1798 1799 1900 1899 2909 2910 3011 3010 1799 1800 1901 1900 2910 2911 3012 3011 1800 1801 1902 1901 2911 2912 3013 3012 1801 1802 1903 1902 2912 2913 3014 3013 1802 1803 1904 1903 2913 2914 3015 3014 1803 1804 1905 1904 2914 2915 3016 3015 1804 1805 1906 1905 2915 2916 3017 3016 1805 1806 1907 1906 2916 2917 3018 3017 1806 1807 1908 1907 2917 2918 3019 3018 1807 1808 1909 1908 2918 2919 3020 3019 1808 1809 1910 1909 2919 2920 3021 3020 1809 1810 1911 1910 2920 2921 3022 3021 1810 1811 1912 1911 2921 2922 3023 3022 1811 1812 1913 1912 2922 2923 3024 3023 1812 1813 1914 1913 2923 2924 3025 3024 1813 1814 1915 1914 2924 2925 3026 3025 1814 1815 1916 1915 2925 2926 3027 3026 1815 1816 1917 1916 2926 2927 3028 3027 1816 1817 1918 1917 2927 2928 3029 3028 1818 1819 1920 1919 2929 2930 3031 3030 1819 1820 1921 1920 2930 2931 3032 3031 1820 1821 1922 1921 2931 2932 3033 3032 1821 1822 1923 1922 2932 2933 3034 3033 1822 1823 1924 1923 2933 2934 3035 3034 1823 1824 1925 1924 2934 2935 3036 3035 1824 1825 1926 1925 2935 2936 3037 3036 1825 1826 1927 1926 2936 2937 3038 3037 1826 1827 1928 1927 2937 2938 3039 3038 1827 1828 1929 1928 2938 2939 3040 3039 1828 1829 1930 1929 2939 2940 3041 3040 1829 1830 1931 1930 2940 2941 3042 3041 1830 1831 1932 1931 2941 2942 3043 3042 1831 1832 1933 1932 2942 2943 3044 3043 1832 1833 1934 1933 2943 2944 3045 3044 1833 1834 1935 1934 2944 2945 3046 3045 1834 1835 1936 1935 2945 2946 3047 3046 1835 1836 1937 1936 2946 2947 3048 3047 1836 1837 1938 1937 2947 2948 3049 3048 1837 1838 1939 1938 2948 2949 3050 3049 1838 1839 1940 1939 2949 2950 3051 3050 1839 1840 1941 1940 2950 2951 3052 3051 1840 1841 1942 1941 2951 2952 3053 3052 1841 1842 1943 1942 2952 2953 3054 3053 1842 1843 1944 1943 2953 2954 3055 3054 1843 1844 1945 1944 2954 2955 3056 3055 1844 1845 1946 1945 2955 2956 3057 3056 1845 1846 1947 1946 2956 2957 3058 3057 1846 1847 1948 1947 2957 2958 3059 3058 1847 1848 1949 1948 2958 2959 3060 3059 1848 1849 1950 1949 2959 2960 3061 3060 1849 1850 1951 1950 2960 2961 3062 3061 1850 1851 1952 1951 2961 2962 3063 3062 1851 1852 1953 1952 2962 2963 3064 3063 1852 1853 1954 1953 2963 2964 3065 3064 1853 1854 1955 1954 2964 2965 3066 3065 1854 1855 1956 1955 2965 2966 3067 3066 1855 1856 1957 1956 2966 2967 3068 3067 1856 1857 1958 1957 2967 2968 3069 3068 1857 1858 1959 1958 2968 2969 3070 3069 1858 1859 1960 1959 2969 2970 3071 3070 1859 1860 1961 1960 2970 2971 3072 3071 1860 1861 1962 1961 2971 2972 3073 3072 1861 1862 1963 1962 2972 2973 3074 3073 1862 1863 1964 1963 2973 2974 3075 3074 1863 1864 1965 1964 2974 2975 3076 3075 1864 1865 1966 1965 2975 2976 3077 3076 1865 1866 1967 1966 2976 2977 3078 3077 1866 1867 1968 1967 2977 2978 3079 3078 1867 1868 1969 1968 2978 2979 3080 3079 1868 1869 1970 1969 2979 2980 3081 3080 1869 1870 1971 1970 2980 2981 3082 3081 1870 1871 1972 1971 2981 2982 3083 3082 1871 1872 1973 1972 2982 2983 3084 3083 1872 1873 1974 1973 2983 2984 3085 3084 1873 1874 1975 1974 2984 2985 3086 3085 1874 1875 1976 1975 2985 2986 3087 3086 1875 1876 1977 1976 2986 2987 3088 3087 1876 1877 1978 1977 2987 2988 3089 3088 1877 1878 1979 1978 2988 2989 3090 3089 1878 1879 1980 1979 2989 2990 3091 3090 1879 1880 1981 1980 2990 2991 3092 3091 1880 1881 1982 1981 2991 2992 3093 3092 1881 1882 1983 1982 2992 2993 3094 3093 1882 1883 1984 1983 2993 2994 3095 3094 1883 1884 1985 1984 2994 2995 3096 3095 1884 1885 1986 1985 2995 2996 3097 3096 1885 1886 1987 1986 2996 2997 3098 3097 1886 1887 1988 1987 2997 2998 3099 3098 1887 1888 1989 1988 2998 2999 3100 3099 1888 1889 1990 1989 2999 3000 3101 3100 1889 1890 1991 1990 3000 3001 3102 3101 1890 1891 1992 1991 3001 3002 3103 3102 1891 1892 1993 1992 3002 3003 3104 3103 1892 1893 1994 1993 3003 3004 3105 3104 1893 1894 1995 1994 3004 3005 3106 3105 1894 1895 1996 1995 3005 3006 3107 3106 1895 1896 1997 1996 3006 3007 3108 3107 1896 1897 1998 1997 3007 3008 3109 3108 1897 1898 1999 1998 3008 3009 3110 3109 1898 1899 2000 1999 3009 3010 3111 3110 1899 1900 2001 2000 3010 3011 3112 3111 1900 1901 2002 2001 3011 3012 3113 3112 1901 1902 2003 2002 3012 3013 3114 3113 1902 1903 2004 2003 3013 3014 3115 3114 1903 1904 2005 2004 3014 3015 3116 3115 1904 1905 2006 2005 3015 3016 3117 3116 1905 1906 2007 2006 3016 3017 3118 3117 1906 1907 2008 2007 3017 3018 3119 3118 1907 1908 2009 2008 3018 3019 3120 3119 1908 1909 2010 2009 3019 3020 3121 3120 1909 1910 2011 2010 3020 3021 3122 3121 1910 1911 2012 2011 3021 3022 3123 3122 1911 1912 2013 2012 3022 3023 3124 3123 1912 1913 2014 2013 3023 3024 3125 3124 1913 1914 2015 2014 3024 3025 3126 3125 1914 1915 2016 2015 3025 3026 3127 3126 1915 1916 2017 2016 3026 3027 3128 3127 1916 1917 2018 2017 3027 3028 3129 3128 1917 1918 2019 2018 3028 3029 3130 3129 1919 1920 2021 2020 3030 3031 3132 3131 1920 1921 2022 2021 3031 3032 3133 3132 1921 1922 2023 2022 3032 3033 3134 3133 1922 1923 2024 2023 3033 3034 3135 3134 1923 1924 2025 2024 3034 3035 3136 3135 1924 1925 2026 2025 3035 3036 3137 3136 1925 1926 2027 2026 3036 3037 3138 3137 1926 1927 2028 2027 3037 3038 3139 3138 1927 1928 2029 2028 3038 3039 3140 3139 1928 1929 2030 2029 3039 3040 3141 3140 1929 1930 2031 2030 3040 3041 3142 3141 1930 1931 2032 2031 3041 3042 3143 3142 1931 1932 2033 2032 3042 3043 3144 3143 1932 1933 2034 2033 3043 3044 3145 3144 1933 1934 2035 2034 3044 3045 3146 3145 1934 1935 2036 2035 3045 3046 3147 3146 1935 1936 2037 2036 3046 3047 3148 3147 1936 1937 2038 2037 3047 3048 3149 3148 1937 1938 2039 2038 3048 3049 3150 3149 1938 1939 2040 2039 3049 3050 3151 3150 1939 1940 2041 2040 3050 3051 3152 3151 1940 1941 2042 2041 3051 3052 3153 3152 1941 1942 2043 2042 3052 3053 3154 3153 1942 1943 2044 2043 3053 3054 3155 3154 1943 1944 2045 2044 3054 3055 3156 3155 1944 1945 2046 2045 3055 3056 3157 3156 1945 1946 2047 2046 3056 3057 3158 3157 1946 1947 2048 2047 3057 3058 3159 3158 1947 1948 2049 2048 3058 3059 3160 3159 1948 1949 2050 2049 3059 3060 3161 3160 1949 1950 2051 2050 3060 3061 3162 3161 1950 1951 2052 2051 3061 3062 3163 3162 1951 1952 2053 2052 3062 3063 3164 3163 1952 1953 2054 2053 3063 3064 3165 3164 1953 1954 2055 2054 3064 3065 3166 3165 1954 1955 2056 2055 3065 3066 3167 3166 1955 1956 2057 2056 3066 3067 3168 3167 1956 1957 2058 2057 3067 3068 3169 3168 1957 1958 2059 2058 3068 3069 3170 3169 1958 1959 2060 2059 3069 3070 3171 3170 1959 1960 2061 2060 3070 3071 3172 3171 1960 1961 2062 2061 3071 3072 3173 3172 1961 1962 2063 2062 3072 3073 3174 3173 1962 1963 2064 2063 3073 3074 3175 3174 1963 1964 2065 2064 3074 3075 3176 3175 1964 1965 2066 2065 3075 3076 3177 3176 1965 1966 2067 2066 3076 3077 3178 3177 1966 1967 2068 2067 3077 3078 3179 3178 1967 1968 2069 2068 3078 3079 3180 3179 1968 1969 2070 2069 3079 3080 3181 3180 1969 1970 2071 2070 3080 3081 3182 3181 1970 1971 2072 2071 3081 3082 3183 3182 1971 1972 2073 2072 3082 3083 3184 3183 1972 1973 2074 2073 3083 3084 3185 3184 1973 1974 2075 2074 3084 3085 3186 3185 1974 1975 2076 2075 3085 3086 3187 3186 1975 1976 2077 2076 3086 3087 3188 3187 1976 1977 2078 2077 3087 3088 3189 3188 1977 1978 2079 2078 3088 3089 3190 3189 1978 1979 2080 2079 3089 3090 3191 3190 1979 1980 2081 2080 3090 3091 3192 3191 1980 1981 2082 2081 3091 3092 3193 3192 1981 1982 2083 2082 3092 3093 3194 3193 1982 1983 2084 2083 3093 3094 3195 3194 1983 1984 2085 2084 3094 3095 3196 3195 1984 1985 2086 2085 3095 3096 3197 3196 1985 1986 2087 2086 3096 3097 3198 3197 1986 1987 2088 2087 3097 3098 3199 3198 1987 1988 2089 2088 3098 3099 3200 3199 1988 1989 2090 2089 3099 3100 3201 3200 1989 1990 2091 2090 3100 3101 3202 3201 1990 1991 2092 2091 3101 3102 3203 3202 1991 1992 2093 2092 3102 3103 3204 3203 1992 1993 2094 2093 3103 3104 3205 3204 1993 1994 2095 2094 3104 3105 3206 3205 1994 1995 2096 2095 3105 3106 3207 3206 1995 1996 2097 2096 3106 3107 3208 3207 1996 1997 2098 2097 3107 3108 3209 3208 1997 1998 2099 2098 3108 3109 3210 3209 1998 1999 2100 2099 3109 3110 3211 3210 1999 2000 2101 2100 3110 3111 3212 3211 2000 2001 2102 2101 3111 3112 3213 3212 2001 2002 2103 2102 3112 3113 3214 3213 2002 2003 2104 2103 3113 3114 3215 3214 2003 2004 2105 2104 3114 3115 3216 3215 2004 2005 2106 2105 3115 3116 3217 3216 2005 2006 2107 2106 3116 3117 3218 3217 2006 2007 2108 2107 3117 3118 3219 3218 2007 2008 2109 2108 3118 3119 3220 3219 2008 2009 2110 2109 3119 3120 3221 3220 2009 2010 2111 2110 3120 3121 3222 3221 2010 2011 2112 2111 3121 3122 3223 3222 2011 2012 2113 2112 3122 3123 3224 3223 2012 2013 2114 2113 3123 3124 3225 3224 2013 2014 2115 2114 3124 3125 3226 3225 2014 2015 2116 2115 3125 3126 3227 3226 2015 2016 2117 2116 3126 3127 3228 3227 2016 2017 2118 2117 3127 3128 3229 3228 2017 2018 2119 2118 3128 3129 3230 3229 2018 2019 2120 2119 3129 3130 3231 3230 2020 2021 2122 2121 3131 3132 3233 3232 2021 2022 2123 2122 3132 3133 3234 3233 2022 2023 2124 2123 3133 3134 3235 3234 2023 2024 2125 2124 3134 3135 3236 3235 2024 2025 2126 2125 3135 3136 3237 3236 2025 2026 2127 2126 3136 3137 3238 3237 2026 2027 2128 2127 3137 3138 3239 3238 2027 2028 2129 2128 3138 3139 3240 3239 2028 2029 2130 2129 3139 3140 3241 3240 2029 2030 2131 2130 3140 3141 3242 3241 2030 2031 2132 2131 3141 3142 3243 3242 2031 2032 2133 2132 3142 3143 3244 3243 2032 2033 2134 2133 3143 3144 3245 3244 2033 2034 2135 2134 3144 3145 3246 3245 2034 2035 2136 2135 3145 3146 3247 3246 2035 2036 2137 2136 3146 3147 3248 3247 2036 2037 2138 2137 3147 3148 3249 3248 2037 2038 2139 2138 3148 3149 3250 3249 2038 2039 2140 2139 3149 3150 3251 3250 2039 2040 2141 2140 3150 3151 3252 3251 2040 2041 2142 2141 3151 3152 3253 3252 2041 2042 2143 2142 3152 3153 3254 3253 2042 2043 2144 2143 3153 3154 3255 3254 2043 2044 2145 2144 3154 3155 3256 3255 2044 2045 2146 2145 3155 3156 3257 3256 2045 2046 2147 2146 3156 3157 3258 3257 2046 2047 2148 2147 3157 3158 3259 3258 2047 2048 2149 2148 3158 3159 3260 3259 2048 2049 2150 2149 3159 3160 3261 3260 2049 2050 2151 2150 3160 3161 3262 3261 2050 2051 2152 2151 3161 3162 3263 3262 2051 2052 2153 2152 3162 3163 3264 3263 2052 2053 2154 2153 3163 3164 3265 3264 2053 2054 2155 2154 3164 3165 3266 3265 2054 2055 2156 2155 3165 3166 3267 3266 2055 2056 2157 2156 3166 3167 3268 3267 2056 2057 2158 2157 3167 3168 3269 3268 2057 2058 2159 2158 3168 3169 3270 3269 2058 2059 2160 2159 3169 3170 3271 3270 2059 2060 2161 2160 3170 3171 3272 3271 2060 2061 2162 2161 3171 3172 3273 3272 2061 2062 2163 2162 3172 3173 3274 3273 2062 2063 2164 2163 3173 3174 3275 3274 2063 2064 2165 2164 3174 3175 3276 3275 2064 2065 2166 2165 3175 3176 3277 3276 2065 2066 2167 2166 3176 3177 3278 3277 2066 2067 2168 2167 3177 3178 3279 3278 2067 2068 2169 2168 3178 3179 3280 3279 2068 2069 2170 2169 3179 3180 3281 3280 2069 2070 2171 2170 3180 3181 3282 3281 2070 2071 2172 2171 3181 3182 3283 3282 2071 2072 2173 2172 3182 3183 3284 3283 2072 2073 2174 2173 3183 3184 3285 3284 2073 2074 2175 2174 3184 3185 3286 3285 2074 2075 2176 2175 3185 3186 3287 3286 2075 2076 2177 2176 3186 3187 3288 3287 2076 2077 2178 2177 3187 3188 3289 3288 2077 2078 2179 2178 3188 3189 3290 3289 2078 2079 2180 2179 3189 3190 3291 3290 2079 2080 2181 2180 3190 3191 3292 3291 2080 2081 2182 2181 3191 3192 3293 3292 2081 2082 2183 2182 3192 3193 3294 3293 2082 2083 2184 2183 3193 3194 3295 3294 2083 2084 2185 2184 3194 3195 3296 3295 2084 2085 2186 2185 3195 3196 3297 3296 2085 2086 2187 2186 3196 3197 3298 3297 2086 2087 2188 2187 3197 3198 3299 3298 2087 2088 2189 2188 3198 3199 3300 3299 2088 2089 2190 2189 3199 3200 3301 3300 2089 2090 2191 2190 3200 3201 3302 3301 2090 2091 2192 2191 3201 3202 3303 3302 2091 2092 2193 2192 3202 3203 3304 3303 2092 2093 2194 2193 3203 3204 3305 3304 2093 2094 2195 2194 3204 3205 3306 3305 2094 2095 2196 2195 3205 3206 3307 3306 2095 2096 2197 2196 3206 3207 3308 3307 2096 2097 2198 2197 3207 3208 3309 3308 2097 2098 2199 2198 3208 3209 3310 3309 2098 2099 2200 2199 3209 3210 3311 3310 2099 2100 2201 2200 3210 3211 3312 3311 2100 2101 2202 2201 3211 3212 3313 3312 2101 2102 2203 2202 3212 3213 3314 3313 2102 2103 2204 2203 3213 3214 3315 3314 2103 2104 2205 2204 3214 3215 3316 3315 2104 2105 2206 2205 3215 3216 3317 3316 2105 2106 2207 2206 3216 3217 3318 3317 2106 2107 2208 2207 3217 3218 3319 3318 2107 2108 2209 2208 3218 3219 3320 3319 2108 2109 2210 2209 3219 3220 3321 3320 2109 2110 2211 2210 3220 3221 3322 3321 2110 2111 2212 2211 3221 3222 3323 3322 2111 2112 2213 2212 3222 3223 3324 3323 2112 2113 2214 2213 3223 3224 3325 3324 2113 2114 2215 2214 3224 3225 3326 3325 2114 2115 2216 2215 3225 3226 3327 3326 2115 2116 2217 2216 3226 3227 3328 3327 2116 2117 2218 2217 3227 3228 3329 3328 2117 2118 2219 2218 3228 3229 3330 3329 2118 2119 2220 2219 3229 3230 3331 3330 2119 2120 2221 2220 3230 3231 3332 3331 2222 2223 2324 2323 3333 3334 3435 3434 2223 2224 2325 2324 3334 3335 3436 3435 2224 2225 2326 2325 3335 3336 3437 3436 2225 2226 2327 2326 3336 3337 3438 3437 2226 2227 2328 2327 3337 3338 3439 3438 2227 2228 2329 2328 3338 3339 3440 3439 2228 2229 2330 2329 3339 3340 3441 3440 2229 2230 2331 2330 3340 3341 3442 3441 2230 2231 2332 2331 3341 3342 3443 3442 2231 2232 2333 2332 3342 3343 3444 3443 2232 2233 2334 2333 3343 3344 3445 3444 2233 2234 2335 2334 3344 3345 3446 3445 2234 2235 2336 2335 3345 3346 3447 3446 2235 2236 2337 2336 3346 3347 3448 3447 2236 2237 2338 2337 3347 3348 3449 3448 2237 2238 2339 2338 3348 3349 3450 3449 2238 2239 2340 2339 3349 3350 3451 3450 2239 2240 2341 2340 3350 3351 3452 3451 2240 2241 2342 2341 3351 3352 3453 3452 2241 2242 2343 2342 3352 3353 3454 3453 2242 2243 2344 2343 3353 3354 3455 3454 2243 2244 2345 2344 3354 3355 3456 3455 2244 2245 2346 2345 3355 3356 3457 3456 2245 2246 2347 2346 3356 3357 3458 3457 2246 2247 2348 2347 3357 3358 3459 3458 2247 2248 2349 2348 3358 3359 3460 3459 2248 2249 2350 2349 3359 3360 3461 3460 2249 2250 2351 2350 3360 3361 3462 3461 2250 2251 2352 2351 3361 3362 3463 3462 2251 2252 2353 2352 3362 3363 3464 3463 2252 2253 2354 2353 3363 3364 3465 3464 2253 2254 2355 2354 3364 3365 3466 3465 2254 2255 2356 2355 3365 3366 3467 3466 2255 2256 2357 2356 3366 3367 3468 3467 2256 2257 2358 2357 3367 3368 3469 3468 2257 2258 2359 2358 3368 3369 3470 3469 2258 2259 2360 2359 3369 3370 3471 3470 2259 2260 2361 2360 3370 3371 3472 3471 2260 2261 2362 2361 3371 3372 3473 3472 2261 2262 2363 2362 3372 3373 3474 3473 2262 2263 2364 2363 3373 3374 3475 3474 2263 2264 2365 2364 3374 3375 3476 3475 2264 2265 2366 2365 3375 3376 3477 3476 2265 2266 2367 2366 3376 3377 3478 3477 2266 2267 2368 2367 3377 3378 3479 3478 2267 2268 2369 2368 3378 3379 3480 3479 2268 2269 2370 2369 3379 3380 3481 3480 2269 2270 2371 2370 3380 3381 3482 3481 2270 2271 2372 2371 3381 3382 3483 3482 2271 2272 2373 2372 3382 3383 3484 3483 2272 2273 2374 2373 3383 3384 3485 3484 2273 2274 2375 2374 3384 3385 3486 3485 2274 2275 2376 2375 3385 3386 3487 3486 2275 2276 2377 2376 3386 3387 3488 3487 2276 2277 2378 2377 3387 3388 3489 3488 2277 2278 2379 2378 3388 3389 3490 3489 2278 2279 2380 2379 3389 3390 3491 3490 2279 2280 2381 2380 3390 3391 3492 3491 2280 2281 2382 2381 3391 3392 3493 3492 2281 2282 2383 2382 3392 3393 3494 3493 2282 2283 2384 2383 3393 3394 3495 3494 2283 2284 2385 2384 3394 3395 3496 3495 2284 2285 2386 2385 3395 3396 3497 3496 2285 2286 2387 2386 3396 3397 3498 3497 2286 2287 2388 2387 3397 3398 3499 3498 2287 2288 2389 2388 3398 3399 3500 3499 2288 2289 2390 2389 3399 3400 3501 3500 2289 2290 2391 2390 3400 3401 3502 3501 2290 2291 2392 2391 3401 3402 3503 3502 2291 2292 2393 2392 3402 3403 3504 3503 2292 2293 2394 2393 3403 3404 3505 3504 2293 2294 2395 2394 3404 3405 3506 3505 2294 2295 2396 2395 3405 3406 3507 3506 2295 2296 2397 2396 3406 3407 3508 3507 2296 2297 2398 2397 3407 3408 3509 3508 2297 2298 2399 2398 3408 3409 3510 3509 2298 2299 2400 2399 3409 3410 3511 3510 2299 2300 2401 2400 3410 3411 3512 3511 2300 2301 2402 2401 3411 3412 3513 3512 2301 2302 2403 2402 3412 3413 3514 3513 2302 2303 2404 2403 3413 3414 3515 3514 2303 2304 2405 2404 3414 3415 3516 3515 2304 2305 2406 2405 3415 3416 3517 3516 2305 2306 2407 2406 3416 3417 3518 3517 2306 2307 2408 2407 3417 3418 3519 3518 2307 2308 2409 2408 3418 3419 3520 3519 2308 2309 2410 2409 3419 3420 3521 3520 2309 2310 2411 2410 3420 3421 3522 3521 2310 2311 2412 2411 3421 3422 3523 3522 2311 2312 2413 2412 3422 3423 3524 3523 2312 2313 2414 2413 3423 3424 3525 3524 2313 2314 2415 2414 3424 3425 3526 3525 2314 2315 2416 2415 3425 3426 3527 3526 2315 2316 2417 2416 3426 3427 3528 3527 2316 2317 2418 2417 3427 3428 3529 3528 2317 2318 2419 2418 3428 3429 3530 3529 2318 2319 2420 2419 3429 3430 3531 3530 2319 2320 2421 2420 3430 3431 3532 3531 2320 2321 2422 2421 3431 3432 3533 3532 2321 2322 2423 2422 3432 3433 3534 3533 2323 2324 2425 2424 3434 3435 3536 3535 2324 2325 2426 2425 3435 3436 3537 3536 2325 2326 2427 2426 3436 3437 3538 3537 2326 2327 2428 2427 3437 3438 3539 3538 2327 2328 2429 2428 3438 3439 3540 3539 2328 2329 2430 2429 3439 3440 3541 3540 2329 2330 2431 2430 3440 3441 3542 3541 2330 2331 2432 2431 3441 3442 3543 3542 2331 2332 2433 2432 3442 3443 3544 3543 2332 2333 2434 2433 3443 3444 3545 3544 2333 2334 2435 2434 3444 3445 3546 3545 2334 2335 2436 2435 3445 3446 3547 3546 2335 2336 2437 2436 3446 3447 3548 3547 2336 2337 2438 2437 3447 3448 3549 3548 2337 2338 2439 2438 3448 3449 3550 3549 2338 2339 2440 2439 3449 3450 3551 3550 2339 2340 2441 2440 3450 3451 3552 3551 2340 2341 2442 2441 3451 3452 3553 3552 2341 2342 2443 2442 3452 3453 3554 3553 2342 2343 2444 2443 3453 3454 3555 3554 2343 2344 2445 2444 3454 3455 3556 3555 2344 2345 2446 2445 3455 3456 3557 3556 2345 2346 2447 2446 3456 3457 3558 3557 2346 2347 2448 2447 3457 3458 3559 3558 2347 2348 2449 2448 3458 3459 3560 3559 2348 2349 2450 2449 3459 3460 3561 3560 2349 2350 2451 2450 3460 3461 3562 3561 2350 2351 2452 2451 3461 3462 3563 3562 2351 2352 2453 2452 3462 3463 3564 3563 2352 2353 2454 2453 3463 3464 3565 3564 2353 2354 2455 2454 3464 3465 3566 3565 2354 2355 2456 2455 3465 3466 3567 3566 2355 2356 2457 2456 3466 3467 3568 3567 2356 2357 2458 2457 3467 3468 3569 3568 2357 2358 2459 2458 3468 3469 3570 3569 2358 2359 2460 2459 3469 3470 3571 3570 2359 2360 2461 2460 3470 3471 3572 3571 2360 2361 2462 2461 3471 3472 3573 3572 2361 2362 2463 2462 3472 3473 3574 3573 2362 2363 2464 2463 3473 3474 3575 3574 2363 2364 2465 2464 3474 3475 3576 3575 2364 2365 2466 2465 3475 3476 3577 3576 2365 2366 2467 2466 3476 3477 3578 3577 2366 2367 2468 2467 3477 3478 3579 3578 2367 2368 2469 2468 3478 3479 3580 3579 2368 2369 2470 2469 3479 3480 3581 3580 2369 2370 2471 2470 3480 3481 3582 3581 2370 2371 2472 2471 3481 3482 3583 3582 2371 2372 2473 2472 3482 3483 3584 3583 2372 2373 2474 2473 3483 3484 3585 3584 2373 2374 2475 2474 3484 3485 3586 3585 2374 2375 2476 2475 3485 3486 3587 3586 2375 2376 2477 2476 3486 3487 3588 3587 2376 2377 2478 2477 3487 3488 3589 3588 2377 2378 2479 2478 3488 3489 3590 3589 2378 2379 2480 2479 3489 3490 3591 3590 2379 2380 2481 2480 3490 3491 3592 3591 2380 2381 2482 2481 3491 3492 3593 3592 2381 2382 2483 2482 3492 3493 3594 3593 2382 2383 2484 2483 3493 3494 3595 3594 2383 2384 2485 2484 3494 3495 3596 3595 2384 2385 2486 2485 3495 3496 3597 3596 2385 2386 2487 2486 3496 3497 3598 3597 2386 2387 2488 2487 3497 3498 3599 3598 2387 2388 2489 2488 3498 3499 3600 3599 2388 2389 2490 2489 3499 3500 3601 3600 2389 2390 2491 2490 3500 3501 3602 3601 2390 2391 2492 2491 3501 3502 3603 3602 2391 2392 2493 2492 3502 3503 3604 3603 2392 2393 2494 2493 3503 3504 3605 3604 2393 2394 2495 2494 3504 3505 3606 3605 2394 2395 2496 2495 3505 3506 3607 3606 2395 2396 2497 2496 3506 3507 3608 3607 2396 2397 2498 2497 3507 3508 3609 3608 2397 2398 2499 2498 3508 3509 3610 3609 2398 2399 2500 2499 3509 3510 3611 3610 2399 2400 2501 2500 3510 3511 3612 3611 2400 2401 2502 2501 3511 3512 3613 3612 2401 2402 2503 2502 3512 3513 3614 3613 2402 2403 2504 2503 3513 3514 3615 3614 2403 2404 2505 2504 3514 3515 3616 3615 2404 2405 2506 2505 3515 3516 3617 3616 2405 2406 2507 2506 3516 3517 3618 3617 2406 2407 2508 2507 3517 3518 3619 3618 2407 2408 2509 2508 3518 3519 3620 3619 2408 2409 2510 2509 3519 3520 3621 3620 2409 2410 2511 2510 3520 3521 3622 3621 2410 2411 2512 2511 3521 3522 3623 3622 2411 2412 2513 2512 3522 3523 3624 3623 2412 2413 2514 2513 3523 3524 3625 3624 2413 2414 2515 2514 3524 3525 3626 3625 2414 2415 2516 2515 3525 3526 3627 3626 2415 2416 2517 2516 3526 3527 3628 3627 2416 2417 2518 2517 3527 3528 3629 3628 2417 2418 2519 2518 3528 3529 3630 3629 2418 2419 2520 2519 3529 3530 3631 3630 2419 2420 2521 2520 3530 3531 3632 3631 2420 2421 2522 2521 3531 3532 3633 3632 2421 2422 2523 2522 3532 3533 3634 3633 2422 2423 2524 2523 3533 3534 3635 3634 2424 2425 2526 2525 3535 3536 3637 3636 2425 2426 2527 2526 3536 3537 3638 3637 2426 2427 2528 2527 3537 3538 3639 3638 2427 2428 2529 2528 3538 3539 3640 3639 2428 2429 2530 2529 3539 3540 3641 3640 2429 2430 2531 2530 3540 3541 3642 3641 2430 2431 2532 2531 3541 3542 3643 3642 2431 2432 2533 2532 3542 3543 3644 3643 2432 2433 2534 2533 3543 3544 3645 3644 2433 2434 2535 2534 3544 3545 3646 3645 2434 2435 2536 2535 3545 3546 3647 3646 2435 2436 2537 2536 3546 3547 3648 3647 2436 2437 2538 2537 3547 3548 3649 3648 2437 2438 2539 2538 3548 3549 3650 3649 2438 2439 2540 2539 3549 3550 3651 3650 2439 2440 2541 2540 3550 3551 3652 3651 2440 2441 2542 2541 3551 3552 3653 3652 2441 2442 2543 2542 3552 3553 3654 3653 2442 2443 2544 2543 3553 3554 3655 3654 2443 2444 2545 2544 3554 3555 3656 3655 2444 2445 2546 2545 3555 3556 3657 3656 2445 2446 2547 2546 3556 3557 3658 3657 2446 2447 2548 2547 3557 3558 3659 3658 2447 2448 2549 2548 3558 3559 3660 3659 2448 2449 2550 2549 3559 3560 3661 3660 2449 2450 2551 2550 3560 3561 3662 3661 2450 2451 2552 2551 3561 3562 3663 3662 2451 2452 2553 2552 3562 3563 3664 3663 2452 2453 2554 2553 3563 3564 3665 3664 2453 2454 2555 2554 3564 3565 3666 3665 2454 2455 2556 2555 3565 3566 3667 3666 2455 2456 2557 2556 3566 3567 3668 3667 2456 2457 2558 2557 3567 3568 3669 3668 2457 2458 2559 2558 3568 3569 3670 3669 2458 2459 2560 2559 3569 3570 3671 3670 2459 2460 2561 2560 3570 3571 3672 3671 2460 2461 2562 2561 3571 3572 3673 3672 2461 2462 2563 2562 3572 3573 3674 3673 2462 2463 2564 2563 3573 3574 3675 3674 2463 2464 2565 2564 3574 3575 3676 3675 2464 2465 2566 2565 3575 3576 3677 3676 2465 2466 2567 2566 3576 3577 3678 3677 2466 2467 2568 2567 3577 3578 3679 3678 2467 2468 2569 2568 3578 3579 3680 3679 2468 2469 2570 2569 3579 3580 3681 3680 2469 2470 2571 2570 3580 3581 3682 3681 2470 2471 2572 2571 3581 3582 3683 3682 2471 2472 2573 2572 3582 3583 3684 3683 2472 2473 2574 2573 3583 3584 3685 3684 2473 2474 2575 2574 3584 3585 3686 3685 2474 2475 2576 2575 3585 3586 3687 3686 2475 2476 2577 2576 3586 3587 3688 3687 2476 2477 2578 2577 3587 3588 3689 3688 2477 2478 2579 2578 3588 3589 3690 3689 2478 2479 2580 2579 3589 3590 3691 3690 2479 2480 2581 2580 3590 3591 3692 3691 2480 2481 2582 2581 3591 3592 3693 3692 2481 2482 2583 2582 3592 3593 3694 3693 2482 2483 2584 2583 3593 3594 3695 3694 2483 2484 2585 2584 3594 3595 3696 3695 2484 2485 2586 2585 3595 3596 3697 3696 2485 2486 2587 2586 3596 3597 3698 3697 2486 2487 2588 2587 3597 3598 3699 3698 2487 2488 2589 2588 3598 3599 3700 3699 2488 2489 2590 2589 3599 3600 3701 3700 2489 2490 2591 2590 3600 3601 3702 3701 2490 2491 2592 2591 3601 3602 3703 3702 2491 2492 2593 2592 3602 3603 3704 3703 2492 2493 2594 2593 3603 3604 3705 3704 2493 2494 2595 2594 3604 3605 3706 3705 2494 2495 2596 2595 3605 3606 3707 3706 2495 2496 2597 2596 3606 3607 3708 3707 2496 2497 2598 2597 3607 3608 3709 3708 2497 2498 2599 2598 3608 3609 3710 3709 2498 2499 2600 2599 3609 3610 3711 3710 2499 2500 2601 2600 3610 3611 3712 3711 2500 2501 2602 2601 3611 3612 3713 3712 2501 2502 2603 2602 3612 3613 3714 3713 2502 2503 2604 2603 3613 3614 3715 3714 2503 2504 2605 2604 3614 3615 3716 3715 2504 2505 2606 2605 3615 3616 3717 3716 2505 2506 2607 2606 3616 3617 3718 3717 2506 2507 2608 2607 3617 3618 3719 3718 2507 2508 2609 2608 3618 3619 3720 3719 2508 2509 2610 2609 3619 3620 3721 3720 2509 2510 2611 2610 3620 3621 3722 3721 2510 2511 2612 2611 3621 3622 3723 3722 2511 2512 2613 2612 3622 3623 3724 3723 2512 2513 2614 2613 3623 3624 3725 3724 2513 2514 2615 2614 3624 3625 3726 3725 2514 2515 2616 2615 3625 3626 3727 3726 2515 2516 2617 2616 3626 3627 3728 3727 2516 2517 2618 2617 3627 3628 3729 3728 2517 2518 2619 2618 3628 3629 3730 3729 2518 2519 2620 2619 3629 3630 3731 3730 2519 2520 2621 2620 3630 3631 3732 3731 2520 2521 2622 2621 3631 3632 3733 3732 2521 2522 2623 2622 3632 3633 3734 3733 2522 2523 2624 2623 3633 3634 3735 3734 2523 2524 2625 2624 3634 3635 3736 3735 2525 2526 2627 2626 3636 3637 3738 3737 2526 2527 2628 2627 3637 3638 3739 3738 2527 2528 2629 2628 3638 3639 3740 3739 2528 2529 2630 2629 3639 3640 3741 3740 2529 2530 2631 2630 3640 3641 3742 3741 2530 2531 2632 2631 3641 3642 3743 3742 2531 2532 2633 2632 3642 3643 3744 3743 2532 2533 2634 2633 3643 3644 3745 3744 2533 2534 2635 2634 3644 3645 3746 3745 2534 2535 2636 2635 3645 3646 3747 3746 2535 2536 2637 2636 3646 3647 3748 3747 2536 2537 2638 2637 3647 3648 3749 3748 2537 2538 2639 2638 3648 3649 3750 3749 2538 2539 2640 2639 3649 3650 3751 3750 2539 2540 2641 2640 3650 3651 3752 3751 2540 2541 2642 2641 3651 3652 3753 3752 2541 2542 2643 2642 3652 3653 3754 3753 2542 2543 2644 2643 3653 3654 3755 3754 2543 2544 2645 2644 3654 3655 3756 3755 2544 2545 2646 2645 3655 3656 3757 3756 2545 2546 2647 2646 3656 3657 3758 3757 2546 2547 2648 2647 3657 3658 3759 3758 2547 2548 2649 2648 3658 3659 3760 3759 2548 2549 2650 2649 3659 3660 3761 3760 2549 2550 2651 2650 3660 3661 3762 3761 2550 2551 2652 2651 3661 3662 3763 3762 2551 2552 2653 2652 3662 3663 3764 3763 2552 2553 2654 2653 3663 3664 3765 3764 2553 2554 2655 2654 3664 3665 3766 3765 2554 2555 2656 2655 3665 3666 3767 3766 2555 2556 2657 2656 3666 3667 3768 3767 2556 2557 2658 2657 3667 3668 3769 3768 2557 2558 2659 2658 3668 3669 3770 3769 2558 2559 2660 2659 3669 3670 3771 3770 2559 2560 2661 2660 3670 3671 3772 3771 2560 2561 2662 2661 3671 3672 3773 3772 2561 2562 2663 2662 3672 3673 3774 3773 2562 2563 2664 2663 3673 3674 3775 3774 2563 2564 2665 2664 3674 3675 3776 3775 2564 2565 2666 2665 3675 3676 3777 3776 2565 2566 2667 2666 3676 3677 3778 3777 2566 2567 2668 2667 3677 3678 3779 3778 2567 2568 2669 2668 3678 3679 3780 3779 2568 2569 2670 2669 3679 3680 3781 3780 2569 2570 2671 2670 3680 3681 3782 3781 2570 2571 2672 2671 3681 3682 3783 3782 2571 2572 2673 2672 3682 3683 3784 3783 2572 2573 2674 2673 3683 3684 3785 3784 2573 2574 2675 2674 3684 3685 3786 3785 2574 2575 2676 2675 3685 3686 3787 3786 2575 2576 2677 2676 3686 3687 3788 3787 2576 2577 2678 2677 3687 3688 3789 3788 2577 2578 2679 2678 3688 3689 3790 3789 2578 2579 2680 2679 3689 3690 3791 3790 2579 2580 2681 2680 3690 3691 3792 3791 2580 2581 2682 2681 3691 3692 3793 3792 2581 2582 2683 2682 3692 3693 3794 3793 2582 2583 2684 2683 3693 3694 3795 3794 2583 2584 2685 2684 3694 3695 3796 3795 2584 2585 2686 2685 3695 3696 3797 3796 2585 2586 2687 2686 3696 3697 3798 3797 2586 2587 2688 2687 3697 3698 3799 3798 2587 2588 2689 2688 3698 3699 3800 3799 2588 2589 2690 2689 3699 3700 3801 3800 2589 2590 2691 2690 3700 3701 3802 3801 2590 2591 2692 2691 3701 3702 3803 3802 2591 2592 2693 2692 3702 3703 3804 3803 2592 2593 2694 2693 3703 3704 3805 3804 2593 2594 2695 2694 3704 3705 3806 3805 2594 2595 2696 2695 3705 3706 3807 3806 2595 2596 2697 2696 3706 3707 3808 3807 2596 2597 2698 2697 3707 3708 3809 3808 2597 2598 2699 2698 3708 3709 3810 3809 2598 2599 2700 2699 3709 3710 3811 3810 2599 2600 2701 2700 3710 3711 3812 3811 2600 2601 2702 2701 3711 3712 3813 3812 2601 2602 2703 2702 3712 3713 3814 3813 2602 2603 2704 2703 3713 3714 3815 3814 2603 2604 2705 2704 3714 3715 3816 3815 2604 2605 2706 2705 3715 3716 3817 3816 2605 2606 2707 2706 3716 3717 3818 3817 2606 2607 2708 2707 3717 3718 3819 3818 2607 2608 2709 2708 3718 3719 3820 3819 2608 2609 2710 2709 3719 3720 3821 3820 2609 2610 2711 2710 3720 3721 3822 3821 2610 2611 2712 2711 3721 3722 3823 3822 2611 2612 2713 2712 3722 3723 3824 3823 2612 2613 2714 2713 3723 3724 3825 3824 2613 2614 2715 2714 3724 3725 3826 3825 2614 2615 2716 2715 3725 3726 3827 3826 2615 2616 2717 2716 3726 3727 3828 3827 2616 2617 2718 2717 3727 3728 3829 3828 2617 2618 2719 2718 3728 3729 3830 3829 2618 2619 2720 2719 3729 3730 3831 3830 2619 2620 2721 2720 3730 3731 3832 3831 2620 2621 2722 2721 3731 3732 3833 3832 2621 2622 2723 2722 3732 3733 3834 3833 2622 2623 2724 2723 3733 3734 3835 3834 2623 2624 2725 2724 3734 3735 3836 3835 2624 2625 2726 2725 3735 3736 3837 3836 2626 2627 2728 2727 3737 3738 3839 3838 2627 2628 2729 2728 3738 3739 3840 3839 2628 2629 2730 2729 3739 3740 3841 3840 2629 2630 2731 2730 3740 3741 3842 3841 2630 2631 2732 2731 3741 3742 3843 3842 2631 2632 2733 2732 3742 3743 3844 3843 2632 2633 2734 2733 3743 3744 3845 3844 2633 2634 2735 2734 3744 3745 3846 3845 2634 2635 2736 2735 3745 3746 3847 3846 2635 2636 2737 2736 3746 3747 3848 3847 2636 2637 2738 2737 3747 3748 3849 3848 2637 2638 2739 2738 3748 3749 3850 3849 2638 2639 2740 2739 3749 3750 3851 3850 2639 2640 2741 2740 3750 3751 3852 3851 2640 2641 2742 2741 3751 3752 3853 3852 2641 2642 2743 2742 3752 3753 3854 3853 2642 2643 2744 2743 3753 3754 3855 3854 2643 2644 2745 2744 3754 3755 3856 3855 2644 2645 2746 2745 3755 3756 3857 3856 2645 2646 2747 2746 3756 3757 3858 3857 2646 2647 2748 2747 3757 3758 3859 3858 2647 2648 2749 2748 3758 3759 3860 3859 2648 2649 2750 2749 3759 3760 3861 3860 2649 2650 2751 2750 3760 3761 3862 3861 2650 2651 2752 2751 3761 3762 3863 3862 2651 2652 2753 2752 3762 3763 3864 3863 2652 2653 2754 2753 3763 3764 3865 3864 2653 2654 2755 2754 3764 3765 3866 3865 2654 2655 2756 2755 3765 3766 3867 3866 2655 2656 2757 2756 3766 3767 3868 3867 2656 2657 2758 2757 3767 3768 3869 3868 2657 2658 2759 2758 3768 3769 3870 3869 2658 2659 2760 2759 3769 3770 3871 3870 2659 2660 2761 2760 3770 3771 3872 3871 2660 2661 2762 2761 3771 3772 3873 3872 2661 2662 2763 2762 3772 3773 3874 3873 2662 2663 2764 2763 3773 3774 3875 3874 2663 2664 2765 2764 3774 3775 3876 3875 2664 2665 2766 2765 3775 3776 3877 3876 2665 2666 2767 2766 3776 3777 3878 3877 2666 2667 2768 2767 3777 3778 3879 3878 2667 2668 2769 2768 3778 3779 3880 3879 2668 2669 2770 2769 3779 3780 3881 3880 2669 2670 2771 2770 3780 3781 3882 3881 2670 2671 2772 2771 3781 3782 3883 3882 2671 2672 2773 2772 3782 3783 3884 3883 2672 2673 2774 2773 3783 3784 3885 3884 2673 2674 2775 2774 3784 3785 3886 3885 2674 2675 2776 2775 3785 3786 3887 3886 2675 2676 2777 2776 3786 3787 3888 3887 2676 2677 2778 2777 3787 3788 3889 3888 2677 2678 2779 2778 3788 3789 3890 3889 2678 2679 2780 2779 3789 3790 3891 3890 2679 2680 2781 2780 3790 3791 3892 3891 2680 2681 2782 2781 3791 3792 3893 3892 2681 2682 2783 2782 3792 3793 3894 3893 2682 2683 2784 2783 3793 3794 3895 3894 2683 2684 2785 2784 3794 3795 3896 3895 2684 2685 2786 2785 3795 3796 3897 3896 2685 2686 2787 2786 3796 3797 3898 3897 2686 2687 2788 2787 3797 3798 3899 3898 2687 2688 2789 2788 3798 3799 3900 3899 2688 2689 2790 2789 3799 3800 3901 3900 2689 2690 2791 2790 3800 3801 3902 3901 2690 2691 2792 2791 3801 3802 3903 3902 2691 2692 2793 2792 3802 3803 3904 3903 2692 2693 2794 2793 3803 3804 3905 3904 2693 2694 2795 2794 3804 3805 3906 3905 2694 2695 2796 2795 3805 3806 3907 3906 2695 2696 2797 2796 3806 3807 3908 3907 2696 2697 2798 2797 3807 3808 3909 3908 2697 2698 2799 2798 3808 3809 3910 3909 2698 2699 2800 2799 3809 3810 3911 3910 2699 2700 2801 2800 3810 3811 3912 3911 2700 2701 2802 2801 3811 3812 3913 3912 2701 2702 2803 2802 3812 3813 3914 3913 2702 2703 2804 2803 3813 3814 3915 3914 2703 2704 2805 2804 3814 3815 3916 3915 2704 2705 2806 2805 3815 3816 3917 3916 2705 2706 2807 2806 3816 3817 3918 3917 2706 2707 2808 2807 3817 3818 3919 3918 2707 2708 2809 2808 3818 3819 3920 3919 2708 2709 2810 2809 3819 3820 3921 3920 2709 2710 2811 2810 3820 3821 3922 3921 2710 2711 2812 2811 3821 3822 3923 3922 2711 2712 2813 2812 3822 3823 3924 3923 2712 2713 2814 2813 3823 3824 3925 3924 2713 2714 2815 2814 3824 3825 3926 3925 2714 2715 2816 2815 3825 3826 3927 3926 2715 2716 2817 2816 3826 3827 3928 3927 2716 2717 2818 2817 3827 3828 3929 3928 2717 2718 2819 2818 3828 3829 3930 3929 2718 2719 2820 2819 3829 3830 3931 3930 2719 2720 2821 2820 3830 3831 3932 3931 2720 2721 2822 2821 3831 3832 3933 3932 2721 2722 2823 2822 3832 3833 3934 3933 2722 2723 2824 2823 3833 3834 3935 3934 2723 2724 2825 2824 3834 3835 3936 3935 2724 2725 2826 2825 3835 3836 3937 3936 2725 2726 2827 2826 3836 3837 3938 3937 2727 2728 2829 2828 3838 3839 3940 3939 2728 2729 2830 2829 3839 3840 3941 3940 2729 2730 2831 2830 3840 3841 3942 3941 2730 2731 2832 2831 3841 3842 3943 3942 2731 2732 2833 2832 3842 3843 3944 3943 2732 2733 2834 2833 3843 3844 3945 3944 2733 2734 2835 2834 3844 3845 3946 3945 2734 2735 2836 2835 3845 3846 3947 3946 2735 2736 2837 2836 3846 3847 3948 3947 2736 2737 2838 2837 3847 3848 3949 3948 2737 2738 2839 2838 3848 3849 3950 3949 2738 2739 2840 2839 3849 3850 3951 3950 2739 2740 2841 2840 3850 3851 3952 3951 2740 2741 2842 2841 3851 3852 3953 3952 2741 2742 2843 2842 3852 3853 3954 3953 2742 2743 2844 2843 3853 3854 3955 3954 2743 2744 2845 2844 3854 3855 3956 3955 2744 2745 2846 2845 3855 3856 3957 3956 2745 2746 2847 2846 3856 3857 3958 3957 2746 2747 2848 2847 3857 3858 3959 3958 2747 2748 2849 2848 3858 3859 3960 3959 2748 2749 2850 2849 3859 3860 3961 3960 2749 2750 2851 2850 3860 3861 3962 3961 2750 2751 2852 2851 3861 3862 3963 3962 2751 2752 2853 2852 3862 3863 3964 3963 2752 2753 2854 2853 3863 3864 3965 3964 2753 2754 2855 2854 3864 3865 3966 3965 2754 2755 2856 2855 3865 3866 3967 3966 2755 2756 2857 2856 3866 3867 3968 3967 2756 2757 2858 2857 3867 3868 3969 3968 2757 2758 2859 2858 3868 3869 3970 3969 2758 2759 2860 2859 3869 3870 3971 3970 2759 2760 2861 2860 3870 3871 3972 3971 2760 2761 2862 2861 3871 3872 3973 3972 2761 2762 2863 2862 3872 3873 3974 3973 2762 2763 2864 2863 3873 3874 3975 3974 2763 2764 2865 2864 3874 3875 3976 3975 2764 2765 2866 2865 3875 3876 3977 3976 2765 2766 2867 2866 3876 3877 3978 3977 2766 2767 2868 2867 3877 3878 3979 3978 2767 2768 2869 2868 3878 3879 3980 3979 2768 2769 2870 2869 3879 3880 3981 3980 2769 2770 2871 2870 3880 3881 3982 3981 2770 2771 2872 2871 3881 3882 3983 3982 2771 2772 2873 2872 3882 3883 3984 3983 2772 2773 2874 2873 3883 3884 3985 3984 2773 2774 2875 2874 3884 3885 3986 3985 2774 2775 2876 2875 3885 3886 3987 3986 2775 2776 2877 2876 3886 3887 3988 3987 2776 2777 2878 2877 3887 3888 3989 3988 2777 2778 2879 2878 3888 3889 3990 3989 2778 2779 2880 2879 3889 3890 3991 3990 2779 2780 2881 2880 3890 3891 3992 3991 2780 2781 2882 2881 3891 3892 3993 3992 2781 2782 2883 2882 3892 3893 3994 3993 2782 2783 2884 2883 3893 3894 3995 3994 2783 2784 2885 2884 3894 3895 3996 3995 2784 2785 2886 2885 3895 3896 3997 3996 2785 2786 2887 2886 3896 3897 3998 3997 2786 2787 2888 2887 3897 3898 3999 3998 2787 2788 2889 2888 3898 3899 4000 3999 2788 2789 2890 2889 3899 3900 4001 4000 2789 2790 2891 2890 3900 3901 4002 4001 2790 2791 2892 2891 3901 3902 4003 4002 2791 2792 2893 2892 3902 3903 4004 4003 2792 2793 2894 2893 3903 3904 4005 4004 2793 2794 2895 2894 3904 3905 4006 4005 2794 2795 2896 2895 3905 3906 4007 4006 2795 2796 2897 2896 3906 3907 4008 4007 2796 2797 2898 2897 3907 3908 4009 4008 2797 2798 2899 2898 3908 3909 4010 4009 2798 2799 2900 2899 3909 3910 4011 4010 2799 2800 2901 2900 3910 3911 4012 4011 2800 2801 2902 2901 3911 3912 4013 4012 2801 2802 2903 2902 3912 3913 4014 4013 2802 2803 2904 2903 3913 3914 4015 4014 2803 2804 2905 2904 3914 3915 4016 4015 2804 2805 2906 2905 3915 3916 4017 4016 2805 2806 2907 2906 3916 3917 4018 4017 2806 2807 2908 2907 3917 3918 4019 4018 2807 2808 2909 2908 3918 3919 4020 4019 2808 2809 2910 2909 3919 3920 4021 4020 2809 2810 2911 2910 3920 3921 4022 4021 2810 2811 2912 2911 3921 3922 4023 4022 2811 2812 2913 2912 3922 3923 4024 4023 2812 2813 2914 2913 3923 3924 4025 4024 2813 2814 2915 2914 3924 3925 4026 4025 2814 2815 2916 2915 3925 3926 4027 4026 2815 2816 2917 2916 3926 3927 4028 4027 2816 2817 2918 2917 3927 3928 4029 4028 2817 2818 2919 2918 3928 3929 4030 4029 2818 2819 2920 2919 3929 3930 4031 4030 2819 2820 2921 2920 3930 3931 4032 4031 2820 2821 2922 2921 3931 3932 4033 4032 2821 2822 2923 2922 3932 3933 4034 4033 2822 2823 2924 2923 3933 3934 4035 4034 2823 2824 2925 2924 3934 3935 4036 4035 2824 2825 2926 2925 3935 3936 4037 4036 2825 2826 2927 2926 3936 3937 4038 4037 2826 2827 2928 2927 3937 3938 4039 4038 2828 2829 2930 2929 3939 3940 4041 4040 2829 2830 2931 2930 3940 3941 4042 4041 2830 2831 2932 2931 3941 3942 4043 4042 2831 2832 2933 2932 3942 3943 4044 4043 2832 2833 2934 2933 3943 3944 4045 4044 2833 2834 2935 2934 3944 3945 4046 4045 2834 2835 2936 2935 3945 3946 4047 4046 2835 2836 2937 2936 3946 3947 4048 4047 2836 2837 2938 2937 3947 3948 4049 4048 2837 2838 2939 2938 3948 3949 4050 4049 2838 2839 2940 2939 3949 3950 4051 4050 2839 2840 2941 2940 3950 3951 4052 4051 2840 2841 2942 2941 3951 3952 4053 4052 2841 2842 2943 2942 3952 3953 4054 4053 2842 2843 2944 2943 3953 3954 4055 4054 2843 2844 2945 2944 3954 3955 4056 4055 2844 2845 2946 2945 3955 3956 4057 4056 2845 2846 2947 2946 3956 3957 4058 4057 2846 2847 2948 2947 3957 3958 4059 4058 2847 2848 2949 2948 3958 3959 4060 4059 2848 2849 2950 2949 3959 3960 4061 4060 2849 2850 2951 2950 3960 3961 4062 4061 2850 2851 2952 2951 3961 3962 4063 4062 2851 2852 2953 2952 3962 3963 4064 4063 2852 2853 2954 2953 3963 3964 4065 4064 2853 2854 2955 2954 3964 3965 4066 4065 2854 2855 2956 2955 3965 3966 4067 4066 2855 2856 2957 2956 3966 3967 4068 4067 2856 2857 2958 2957 3967 3968 4069 4068 2857 2858 2959 2958 3968 3969 4070 4069 2858 2859 2960 2959 3969 3970 4071 4070 2859 2860 2961 2960 3970 3971 4072 4071 2860 2861 2962 2961 3971 3972 4073 4072 2861 2862 2963 2962 3972 3973 4074 4073 2862 2863 2964 2963 3973 3974 4075 4074 2863 2864 2965 2964 3974 3975 4076 4075 2864 2865 2966 2965 3975 3976 4077 4076 2865 2866 2967 2966 3976 3977 4078 4077 2866 2867 2968 2967 3977 3978 4079 4078 2867 2868 2969 2968 3978 3979 4080 4079 2868 2869 2970 2969 3979 3980 4081 4080 2869 2870 2971 2970 3980 3981 4082 4081 2870 2871 2972 2971 3981 3982 4083 4082 2871 2872 2973 2972 3982 3983 4084 4083 2872 2873 2974 2973 3983 3984 4085 4084 2873 2874 2975 2974 3984 3985 4086 4085 2874 2875 2976 2975 3985 3986 4087 4086 2875 2876 2977 2976 3986 3987 4088 4087 2876 2877 2978 2977 3987 3988 4089 4088 2877 2878 2979 2978 3988 3989 4090 4089 2878 2879 2980 2979 3989 3990 4091 4090 2879 2880 2981 2980 3990 3991 4092 4091 2880 2881 2982 2981 3991 3992 4093 4092 2881 2882 2983 2982 3992 3993 4094 4093 2882 2883 2984 2983 3993 3994 4095 4094 2883 2884 2985 2984 3994 3995 4096 4095 2884 2885 2986 2985 3995 3996 4097 4096 2885 2886 2987 2986 3996 3997 4098 4097 2886 2887 2988 2987 3997 3998 4099 4098 2887 2888 2989 2988 3998 3999 4100 4099 2888 2889 2990 2989 3999 4000 4101 4100 2889 2890 2991 2990 4000 4001 4102 4101 2890 2891 2992 2991 4001 4002 4103 4102 2891 2892 2993 2992 4002 4003 4104 4103 2892 2893 2994 2993 4003 4004 4105 4104 2893 2894 2995 2994 4004 4005 4106 4105 2894 2895 2996 2995 4005 4006 4107 4106 2895 2896 2997 2996 4006 4007 4108 4107 2896 2897 2998 2997 4007 4008 4109 4108 2897 2898 2999 2998 4008 4009 4110 4109 2898 2899 3000 2999 4009 4010 4111 4110 2899 2900 3001 3000 4010 4011 4112 4111 2900 2901 3002 3001 4011 4012 4113 4112 2901 2902 3003 3002 4012 4013 4114 4113 2902 2903 3004 3003 4013 4014 4115 4114 2903 2904 3005 3004 4014 4015 4116 4115 2904 2905 3006 3005 4015 4016 4117 4116 2905 2906 3007 3006 4016 4017 4118 4117 2906 2907 3008 3007 4017 4018 4119 4118 2907 2908 3009 3008 4018 4019 4120 4119 2908 2909 3010 3009 4019 4020 4121 4120 2909 2910 3011 3010 4020 4021 4122 4121 2910 2911 3012 3011 4021 4022 4123 4122 2911 2912 3013 3012 4022 4023 4124 4123 2912 2913 3014 3013 4023 4024 4125 4124 2913 2914 3015 3014 4024 4025 4126 4125 2914 2915 3016 3015 4025 4026 4127 4126 2915 2916 3017 3016 4026 4027 4128 4127 2916 2917 3018 3017 4027 4028 4129 4128 2917 2918 3019 3018 4028 4029 4130 4129 2918 2919 3020 3019 4029 4030 4131 4130 2919 2920 3021 3020 4030 4031 4132 4131 2920 2921 3022 3021 4031 4032 4133 4132 2921 2922 3023 3022 4032 4033 4134 4133 2922 2923 3024 3023 4033 4034 4135 4134 2923 2924 3025 3024 4034 4035 4136 4135 2924 2925 3026 3025 4035 4036 4137 4136 2925 2926 3027 3026 4036 4037 4138 4137 2926 2927 3028 3027 4037 4038 4139 4138 2927 2928 3029 3028 4038 4039 4140 4139 2929 2930 3031 3030 4040 4041 4142 4141 2930 2931 3032 3031 4041 4042 4143 4142 2931 2932 3033 3032 4042 4043 4144 4143 2932 2933 3034 3033 4043 4044 4145 4144 2933 2934 3035 3034 4044 4045 4146 4145 2934 2935 3036 3035 4045 4046 4147 4146 2935 2936 3037 3036 4046 4047 4148 4147 2936 2937 3038 3037 4047 4048 4149 4148 2937 2938 3039 3038 4048 4049 4150 4149 2938 2939 3040 3039 4049 4050 4151 4150 2939 2940 3041 3040 4050 4051 4152 4151 2940 2941 3042 3041 4051 4052 4153 4152 2941 2942 3043 3042 4052 4053 4154 4153 2942 2943 3044 3043 4053 4054 4155 4154 2943 2944 3045 3044 4054 4055 4156 4155 2944 2945 3046 3045 4055 4056 4157 4156 2945 2946 3047 3046 4056 4057 4158 4157 2946 2947 3048 3047 4057 4058 4159 4158 2947 2948 3049 3048 4058 4059 4160 4159 2948 2949 3050 3049 4059 4060 4161 4160 2949 2950 3051 3050 4060 4061 4162 4161 2950 2951 3052 3051 4061 4062 4163 4162 2951 2952 3053 3052 4062 4063 4164 4163 2952 2953 3054 3053 4063 4064 4165 4164 2953 2954 3055 3054 4064 4065 4166 4165 2954 2955 3056 3055 4065 4066 4167 4166 2955 2956 3057 3056 4066 4067 4168 4167 2956 2957 3058 3057 4067 4068 4169 4168 2957 2958 3059 3058 4068 4069 4170 4169 2958 2959 3060 3059 4069 4070 4171 4170 2959 2960 3061 3060 4070 4071 4172 4171 2960 2961 3062 3061 4071 4072 4173 4172 2961 2962 3063 3062 4072 4073 4174 4173 2962 2963 3064 3063 4073 4074 4175 4174 2963 2964 3065 3064 4074 4075 4176 4175 2964 2965 3066 3065 4075 4076 4177 4176 2965 2966 3067 3066 4076 4077 4178 4177 2966 2967 3068 3067 4077 4078 4179 4178 2967 2968 3069 3068 4078 4079 4180 4179 2968 2969 3070 3069 4079 4080 4181 4180 2969 2970 3071 3070 4080 4081 4182 4181 2970 2971 3072 3071 4081 4082 4183 4182 2971 2972 3073 3072 4082 4083 4184 4183 2972 2973 3074 3073 4083 4084 4185 4184 2973 2974 3075 3074 4084 4085 4186 4185 2974 2975 3076 3075 4085 4086 4187 4186 2975 2976 3077 3076 4086 4087 4188 4187 2976 2977 3078 3077 4087 4088 4189 4188 2977 2978 3079 3078 4088 4089 4190 4189 2978 2979 3080 3079 4089 4090 4191 4190 2979 2980 3081 3080 4090 4091 4192 4191 2980 2981 3082 3081 4091 4092 4193 4192 2981 2982 3083 3082 4092 4093 4194 4193 2982 2983 3084 3083 4093 4094 4195 4194 2983 2984 3085 3084 4094 4095 4196 4195 2984 2985 3086 3085 4095 4096 4197 4196 2985 2986 3087 3086 4096 4097 4198 4197 2986 2987 3088 3087 4097 4098 4199 4198 2987 2988 3089 3088 4098 4099 4200 4199 2988 2989 3090 3089 4099 4100 4201 4200 2989 2990 3091 3090 4100 4101 4202 4201 2990 2991 3092 3091 4101 4102 4203 4202 2991 2992 3093 3092 4102 4103 4204 4203 2992 2993 3094 3093 4103 4104 4205 4204 2993 2994 3095 3094 4104 4105 4206 4205 2994 2995 3096 3095 4105 4106 4207 4206 2995 2996 3097 3096 4106 4107 4208 4207 2996 2997 3098 3097 4107 4108 4209 4208 2997 2998 3099 3098 4108 4109 4210 4209 2998 2999 3100 3099 4109 4110 4211 4210 2999 3000 3101 3100 4110 4111 4212 4211 3000 3001 3102 3101 4111 4112 4213 4212 3001 3002 3103 3102 4112 4113 4214 4213 3002 3003 3104 3103 4113 4114 4215 4214 3003 3004 3105 3104 4114 4115 4216 4215 3004 3005 3106 3105 4115 4116 4217 4216 3005 3006 3107 3106 4116 4117 4218 4217 3006 3007 3108 3107 4117 4118 4219 4218 3007 3008 3109 3108 4118 4119 4220 4219 3008 3009 3110 3109 4119 4120 4221 4220 3009 3010 3111 3110 4120 4121 4222 4221 3010 3011 3112 3111 4121 4122 4223 4222 3011 3012 3113 3112 4122 4123 4224 4223 3012 3013 3114 3113 4123 4124 4225 4224 3013 3014 3115 3114 4124 4125 4226 4225 3014 3015 3116 3115 4125 4126 4227 4226 3015 3016 3117 3116 4126 4127 4228 4227 3016 3017 3118 3117 4127 4128 4229 4228 3017 3018 3119 3118 4128 4129 4230 4229 3018 3019 3120 3119 4129 4130 4231 4230 3019 3020 3121 3120 4130 4131 4232 4231 3020 3021 3122 3121 4131 4132 4233 4232 3021 3022 3123 3122 4132 4133 4234 4233 3022 3023 3124 3123 4133 4134 4235 4234 3023 3024 3125 3124 4134 4135 4236 4235 3024 3025 3126 3125 4135 4136 4237 4236 3025 3026 3127 3126 4136 4137 4238 4237 3026 3027 3128 3127 4137 4138 4239 4238 3027 3028 3129 3128 4138 4139 4240 4239 3028 3029 3130 3129 4139 4140 4241 4240 3030 3031 3132 3131 4141 4142 4243 4242 3031 3032 3133 3132 4142 4143 4244 4243 3032 3033 3134 3133 4143 4144 4245 4244 3033 3034 3135 3134 4144 4145 4246 4245 3034 3035 3136 3135 4145 4146 4247 4246 3035 3036 3137 3136 4146 4147 4248 4247 3036 3037 3138 3137 4147 4148 4249 4248 3037 3038 3139 3138 4148 4149 4250 4249 3038 3039 3140 3139 4149 4150 4251 4250 3039 3040 3141 3140 4150 4151 4252 4251 3040 3041 3142 3141 4151 4152 4253 4252 3041 3042 3143 3142 4152 4153 4254 4253 3042 3043 3144 3143 4153 4154 4255 4254 3043 3044 3145 3144 4154 4155 4256 4255 3044 3045 3146 3145 4155 4156 4257 4256 3045 3046 3147 3146 4156 4157 4258 4257 3046 3047 3148 3147 4157 4158 4259 4258 3047 3048 3149 3148 4158 4159 4260 4259 3048 3049 3150 3149 4159 4160 4261 4260 3049 3050 3151 3150 4160 4161 4262 4261 3050 3051 3152 3151 4161 4162 4263 4262 3051 3052 3153 3152 4162 4163 4264 4263 3052 3053 3154 3153 4163 4164 4265 4264 3053 3054 3155 3154 4164 4165 4266 4265 3054 3055 3156 3155 4165 4166 4267 4266 3055 3056 3157 3156 4166 4167 4268 4267 3056 3057 3158 3157 4167 4168 4269 4268 3057 3058 3159 3158 4168 4169 4270 4269 3058 3059 3160 3159 4169 4170 4271 4270 3059 3060 3161 3160 4170 4171 4272 4271 3060 3061 3162 3161 4171 4172 4273 4272 3061 3062 3163 3162 4172 4173 4274 4273 3062 3063 3164 3163 4173 4174 4275 4274 3063 3064 3165 3164 4174 4175 4276 4275 3064 3065 3166 3165 4175 4176 4277 4276 3065 3066 3167 3166 4176 4177 4278 4277 3066 3067 3168 3167 4177 4178 4279 4278 3067 3068 3169 3168 4178 4179 4280 4279 3068 3069 3170 3169 4179 4180 4281 4280 3069 3070 3171 3170 4180 4181 4282 4281 3070 3071 3172 3171 4181 4182 4283 4282 3071 3072 3173 3172 4182 4183 4284 4283 3072 3073 3174 3173 4183 4184 4285 4284 3073 3074 3175 3174 4184 4185 4286 4285 3074 3075 3176 3175 4185 4186 4287 4286 3075 3076 3177 3176 4186 4187 4288 4287 3076 3077 3178 3177 4187 4188 4289 4288 3077 3078 3179 3178 4188 4189 4290 4289 3078 3079 3180 3179 4189 4190 4291 4290 3079 3080 3181 3180 4190 4191 4292 4291 3080 3081 3182 3181 4191 4192 4293 4292 3081 3082 3183 3182 4192 4193 4294 4293 3082 3083 3184 3183 4193 4194 4295 4294 3083 3084 3185 3184 4194 4195 4296 4295 3084 3085 3186 3185 4195 4196 4297 4296 3085 3086 3187 3186 4196 4197 4298 4297 3086 3087 3188 3187 4197 4198 4299 4298 3087 3088 3189 3188 4198 4199 4300 4299 3088 3089 3190 3189 4199 4200 4301 4300 3089 3090 3191 3190 4200 4201 4302 4301 3090 3091 3192 3191 4201 4202 4303 4302 3091 3092 3193 3192 4202 4203 4304 4303 3092 3093 3194 3193 4203 4204 4305 4304 3093 3094 3195 3194 4204 4205 4306 4305 3094 3095 3196 3195 4205 4206 4307 4306 3095 3096 3197 3196 4206 4207 4308 4307 3096 3097 3198 3197 4207 4208 4309 4308 3097 3098 3199 3198 4208 4209 4310 4309 3098 3099 3200 3199 4209 4210 4311 4310 3099 3100 3201 3200 4210 4211 4312 4311 3100 3101 3202 3201 4211 4212 4313 4312 3101 3102 3203 3202 4212 4213 4314 4313 3102 3103 3204 3203 4213 4214 4315 4314 3103 3104 3205 3204 4214 4215 4316 4315 3104 3105 3206 3205 4215 4216 4317 4316 3105 3106 3207 3206 4216 4217 4318 4317 3106 3107 3208 3207 4217 4218 4319 4318 3107 3108 3209 3208 4218 4219 4320 4319 3108 3109 3210 3209 4219 4220 4321 4320 3109 3110 3211 3210 4220 4221 4322 4321 3110 3111 3212 3211 4221 4222 4323 4322 3111 3112 3213 3212 4222 4223 4324 4323 3112 3113 3214 3213 4223 4224 4325 4324 3113 3114 3215 3214 4224 4225 4326 4325 3114 3115 3216 3215 4225 4226 4327 4326 3115 3116 3217 3216 4226 4227 4328 4327 3116 3117 3218 3217 4227 4228 4329 4328 3117 3118 3219 3218 4228 4229 4330 4329 3118 3119 3220 3219 4229 4230 4331 4330 3119 3120 3221 3220 4230 4231 4332 4331 3120 3121 3222 3221 4231 4232 4333 4332 3121 3122 3223 3222 4232 4233 4334 4333 3122 3123 3224 3223 4233 4234 4335 4334 3123 3124 3225 3224 4234 4235 4336 4335 3124 3125 3226 3225 4235 4236 4337 4336 3125 3126 3227 3226 4236 4237 4338 4337 3126 3127 3228 3227 4237 4238 4339 4338 3127 3128 3229 3228 4238 4239 4340 4339 3128 3129 3230 3229 4239 4240 4341 4340 3129 3130 3231 3230 4240 4241 4342 4341 3131 3132 3233 3232 4242 4243 4344 4343 3132 3133 3234 3233 4243 4244 4345 4344 3133 3134 3235 3234 4244 4245 4346 4345 3134 3135 3236 3235 4245 4246 4347 4346 3135 3136 3237 3236 4246 4247 4348 4347 3136 3137 3238 3237 4247 4248 4349 4348 3137 3138 3239 3238 4248 4249 4350 4349 3138 3139 3240 3239 4249 4250 4351 4350 3139 3140 3241 3240 4250 4251 4352 4351 3140 3141 3242 3241 4251 4252 4353 4352 3141 3142 3243 3242 4252 4253 4354 4353 3142 3143 3244 3243 4253 4254 4355 4354 3143 3144 3245 3244 4254 4255 4356 4355 3144 3145 3246 3245 4255 4256 4357 4356 3145 3146 3247 3246 4256 4257 4358 4357 3146 3147 3248 3247 4257 4258 4359 4358 3147 3148 3249 3248 4258 4259 4360 4359 3148 3149 3250 3249 4259 4260 4361 4360 3149 3150 3251 3250 4260 4261 4362 4361 3150 3151 3252 3251 4261 4262 4363 4362 3151 3152 3253 3252 4262 4263 4364 4363 3152 3153 3254 3253 4263 4264 4365 4364 3153 3154 3255 3254 4264 4265 4366 4365 3154 3155 3256 3255 4265 4266 4367 4366 3155 3156 3257 3256 4266 4267 4368 4367 3156 3157 3258 3257 4267 4268 4369 4368 3157 3158 3259 3258 4268 4269 4370 4369 3158 3159 3260 3259 4269 4270 4371 4370 3159 3160 3261 3260 4270 4271 4372 4371 3160 3161 3262 3261 4271 4272 4373 4372 3161 3162 3263 3262 4272 4273 4374 4373 3162 3163 3264 3263 4273 4274 4375 4374 3163 3164 3265 3264 4274 4275 4376 4375 3164 3165 3266 3265 4275 4276 4377 4376 3165 3166 3267 3266 4276 4277 4378 4377 3166 3167 3268 3267 4277 4278 4379 4378 3167 3168 3269 3268 4278 4279 4380 4379 3168 3169 3270 3269 4279 4280 4381 4380 3169 3170 3271 3270 4280 4281 4382 4381 3170 3171 3272 3271 4281 4282 4383 4382 3171 3172 3273 3272 4282 4283 4384 4383 3172 3173 3274 3273 4283 4284 4385 4384 3173 3174 3275 3274 4284 4285 4386 4385 3174 3175 3276 3275 4285 4286 4387 4386 3175 3176 3277 3276 4286 4287 4388 4387 3176 3177 3278 3277 4287 4288 4389 4388 3177 3178 3279 3278 4288 4289 4390 4389 3178 3179 3280 3279 4289 4290 4391 4390 3179 3180 3281 3280 4290 4291 4392 4391 3180 3181 3282 3281 4291 4292 4393 4392 3181 3182 3283 3282 4292 4293 4394 4393 3182 3183 3284 3283 4293 4294 4395 4394 3183 3184 3285 3284 4294 4295 4396 4395 3184 3185 3286 3285 4295 4296 4397 4396 3185 3186 3287 3286 4296 4297 4398 4397 3186 3187 3288 3287 4297 4298 4399 4398 3187 3188 3289 3288 4298 4299 4400 4399 3188 3189 3290 3289 4299 4300 4401 4400 3189 3190 3291 3290 4300 4301 4402 4401 3190 3191 3292 3291 4301 4302 4403 4402 3191 3192 3293 3292 4302 4303 4404 4403 3192 3193 3294 3293 4303 4304 4405 4404 3193 3194 3295 3294 4304 4305 4406 4405 3194 3195 3296 3295 4305 4306 4407 4406 3195 3196 3297 3296 4306 4307 4408 4407 3196 3197 3298 3297 4307 4308 4409 4408 3197 3198 3299 3298 4308 4309 4410 4409 3198 3199 3300 3299 4309 4310 4411 4410 3199 3200 3301 3300 4310 4311 4412 4411 3200 3201 3302 3301 4311 4312 4413 4412 3201 3202 3303 3302 4312 4313 4414 4413 3202 3203 3304 3303 4313 4314 4415 4414 3203 3204 3305 3304 4314 4315 4416 4415 3204 3205 3306 3305 4315 4316 4417 4416 3205 3206 3307 3306 4316 4317 4418 4417 3206 3207 3308 3307 4317 4318 4419 4418 3207 3208 3309 3308 4318 4319 4420 4419 3208 3209 3310 3309 4319 4320 4421 4420 3209 3210 3311 3310 4320 4321 4422 4421 3210 3211 3312 3311 4321 4322 4423 4422 3211 3212 3313 3312 4322 4323 4424 4423 3212 3213 3314 3313 4323 4324 4425 4424 3213 3214 3315 3314 4324 4325 4426 4425 3214 3215 3316 3315 4325 4326 4427 4426 3215 3216 3317 3316 4326 4327 4428 4427 3216 3217 3318 3317 4327 4328 4429 4428 3217 3218 3319 3318 4328 4329 4430 4429 3218 3219 3320 3319 4329 4330 4431 4430 3219 3220 3321 3320 4330 4331 4432 4431 3220 3221 3322 3321 4331 4332 4433 4432 3221 3222 3323 3322 4332 4333 4434 4433 3222 3223 3324 3323 4333 4334 4435 4434 3223 3224 3325 3324 4334 4335 4436 4435 3224 3225 3326 3325 4335 4336 4437 4436 3225 3226 3327 3326 4336 4337 4438 4437 3226 3227 3328 3327 4337 4338 4439 4438 3227 3228 3329 3328 4338 4339 4440 4439 3228 3229 3330 3329 4339 4340 4441 4440 3229 3230 3331 3330 4340 4341 4442 4441 3230 3231 3332 3331 4341 4342 4443 4442 3333 3334 3435 3434 4444 4445 4546 4545 3334 3335 3436 3435 4445 4446 4547 4546 3335 3336 3437 3436 4446 4447 4548 4547 3336 3337 3438 3437 4447 4448 4549 4548 3337 3338 3439 3438 4448 4449 4550 4549 3338 3339 3440 3439 4449 4450 4551 4550 3339 3340 3441 3440 4450 4451 4552 4551 3340 3341 3442 3441 4451 4452 4553 4552 3341 3342 3443 3442 4452 4453 4554 4553 3342 3343 3444 3443 4453 4454 4555 4554 3343 3344 3445 3444 4454 4455 4556 4555 3344 3345 3446 3445 4455 4456 4557 4556 3345 3346 3447 3446 4456 4457 4558 4557 3346 3347 3448 3447 4457 4458 4559 4558 3347 3348 3449 3448 4458 4459 4560 4559 3348 3349 3450 3449 4459 4460 4561 4560 3349 3350 3451 3450 4460 4461 4562 4561 3350 3351 3452 3451 4461 4462 4563 4562 3351 3352 3453 3452 4462 4463 4564 4563 3352 3353 3454 3453 4463 4464 4565 4564 3353 3354 3455 3454 4464 4465 4566 4565 3354 3355 3456 3455 4465 4466 4567 4566 3355 3356 3457 3456 4466 4467 4568 4567 3356 3357 3458 3457 4467 4468 4569 4568 3357 3358 3459 3458 4468 4469 4570 4569 3358 3359 3460 3459 4469 4470 4571 4570 3359 3360 3461 3460 4470 4471 4572 4571 3360 3361 3462 3461 4471 4472 4573 4572 3361 3362 3463 3462 4472 4473 4574 4573 3362 3363 3464 3463 4473 4474 4575 4574 3363 3364 3465 3464 4474 4475 4576 4575 3364 3365 3466 3465 4475 4476 4577 4576 3365 3366 3467 3466 4476 4477 4578 4577 3366 3367 3468 3467 4477 4478 4579 4578 3367 3368 3469 3468 4478 4479 4580 4579 3368 3369 3470 3469 4479 4480 4581 4580 3369 3370 3471 3470 4480 4481 4582 4581 3370 3371 3472 3471 4481 4482 4583 4582 3371 3372 3473 3472 4482 4483 4584 4583 3372 3373 3474 3473 4483 4484 4585 4584 3373 3374 3475 3474 4484 4485 4586 4585 3374 3375 3476 3475 4485 4486 4587 4586 3375 3376 3477 3476 4486 4487 4588 4587 3376 3377 3478 3477 4487 4488 4589 4588 3377 3378 3479 3478 4488 4489 4590 4589 3378 3379 3480 3479 4489 4490 4591 4590 3379 3380 3481 3480 4490 4491 4592 4591 3380 3381 3482 3481 4491 4492 4593 4592 3381 3382 3483 3482 4492 4493 4594 4593 3382 3383 3484 3483 4493 4494 4595 4594 3383 3384 3485 3484 4494 4495 4596 4595 3384 3385 3486 3485 4495 4496 4597 4596 3385 3386 3487 3486 4496 4497 4598 4597 3386 3387 3488 3487 4497 4498 4599 4598 3387 3388 3489 3488 4498 4499 4600 4599 3388 3389 3490 3489 4499 4500 4601 4600 3389 3390 3491 3490 4500 4501 4602 4601 3390 3391 3492 3491 4501 4502 4603 4602 3391 3392 3493 3492 4502 4503 4604 4603 3392 3393 3494 3493 4503 4504 4605 4604 3393 3394 3495 3494 4504 4505 4606 4605 3394 3395 3496 3495 4505 4506 4607 4606 3395 3396 3497 3496 4506 4507 4608 4607 3396 3397 3498 3497 4507 4508 4609 4608 3397 3398 3499 3498 4508 4509 4610 4609 3398 3399 3500 3499 4509 4510 4611 4610 3399 3400 3501 3500 4510 4511 4612 4611 3400 3401 3502 3501 4511 4512 4613 4612 3401 3402 3503 3502 4512 4513 4614 4613 3402 3403 3504 3503 4513 4514 4615 4614 3403 3404 3505 3504 4514 4515 4616 4615 3404 3405 3506 3505 4515 4516 4617 4616 3405 3406 3507 3506 4516 4517 4618 4617 3406 3407 3508 3507 4517 4518 4619 4618 3407 3408 3509 3508 4518 4519 4620 4619 3408 3409 3510 3509 4519 4520 4621 4620 3409 3410 3511 3510 4520 4521 4622 4621 3410 3411 3512 3511 4521 4522 4623 4622 3411 3412 3513 3512 4522 4523 4624 4623 3412 3413 3514 3513 4523 4524 4625 4624 3413 3414 3515 3514 4524 4525 4626 4625 3414 3415 3516 3515 4525 4526 4627 4626 3415 3416 3517 3516 4526 4527 4628 4627 3416 3417 3518 3517 4527 4528 4629 4628 3417 3418 3519 3518 4528 4529 4630 4629 3418 3419 3520 3519 4529 4530 4631 4630 3419 3420 3521 3520 4530 4531 4632 4631 3420 3421 3522 3521 4531 4532 4633 4632 3421 3422 3523 3522 4532 4533 4634 4633 3422 3423 3524 3523 4533 4534 4635 4634 3423 3424 3525 3524 4534 4535 4636 4635 3424 3425 3526 3525 4535 4536 4637 4636 3425 3426 3527 3526 4536 4537 4638 4637 3426 3427 3528 3527 4537 4538 4639 4638 3427 3428 3529 3528 4538 4539 4640 4639 3428 3429 3530 3529 4539 4540 4641 4640 3429 3430 3531 3530 4540 4541 4642 4641 3430 3431 3532 3531 4541 4542 4643 4642 3431 3432 3533 3532 4542 4543 4644 4643 3432 3433 3534 3533 4543 4544 4645 4644 3434 3435 3536 3535 4545 4546 4647 4646 3435 3436 3537 3536 4546 4547 4648 4647 3436 3437 3538 3537 4547 4548 4649 4648 3437 3438 3539 3538 4548 4549 4650 4649 3438 3439 3540 3539 4549 4550 4651 4650 3439 3440 3541 3540 4550 4551 4652 4651 3440 3441 3542 3541 4551 4552 4653 4652 3441 3442 3543 3542 4552 4553 4654 4653 3442 3443 3544 3543 4553 4554 4655 4654 3443 3444 3545 3544 4554 4555 4656 4655 3444 3445 3546 3545 4555 4556 4657 4656 3445 3446 3547 3546 4556 4557 4658 4657 3446 3447 3548 3547 4557 4558 4659 4658 3447 3448 3549 3548 4558 4559 4660 4659 3448 3449 3550 3549 4559 4560 4661 4660 3449 3450 3551 3550 4560 4561 4662 4661 3450 3451 3552 3551 4561 4562 4663 4662 3451 3452 3553 3552 4562 4563 4664 4663 3452 3453 3554 3553 4563 4564 4665 4664 3453 3454 3555 3554 4564 4565 4666 4665 3454 3455 3556 3555 4565 4566 4667 4666 3455 3456 3557 3556 4566 4567 4668 4667 3456 3457 3558 3557 4567 4568 4669 4668 3457 3458 3559 3558 4568 4569 4670 4669 3458 3459 3560 3559 4569 4570 4671 4670 3459 3460 3561 3560 4570 4571 4672 4671 3460 3461 3562 3561 4571 4572 4673 4672 3461 3462 3563 3562 4572 4573 4674 4673 3462 3463 3564 3563 4573 4574 4675 4674 3463 3464 3565 3564 4574 4575 4676 4675 3464 3465 3566 3565 4575 4576 4677 4676 3465 3466 3567 3566 4576 4577 4678 4677 3466 3467 3568 3567 4577 4578 4679 4678 3467 3468 3569 3568 4578 4579 4680 4679 3468 3469 3570 3569 4579 4580 4681 4680 3469 3470 3571 3570 4580 4581 4682 4681 3470 3471 3572 3571 4581 4582 4683 4682 3471 3472 3573 3572 4582 4583 4684 4683 3472 3473 3574 3573 4583 4584 4685 4684 3473 3474 3575 3574 4584 4585 4686 4685 3474 3475 3576 3575 4585 4586 4687 4686 3475 3476 3577 3576 4586 4587 4688 4687 3476 3477 3578 3577 4587 4588 4689 4688 3477 3478 3579 3578 4588 4589 4690 4689 3478 3479 3580 3579 4589 4590 4691 4690 3479 3480 3581 3580 4590 4591 4692 4691 3480 3481 3582 3581 4591 4592 4693 4692 3481 3482 3583 3582 4592 4593 4694 4693 3482 3483 3584 3583 4593 4594 4695 4694 3483 3484 3585 3584 4594 4595 4696 4695 3484 3485 3586 3585 4595 4596 4697 4696 3485 3486 3587 3586 4596 4597 4698 4697 3486 3487 3588 3587 4597 4598 4699 4698 3487 3488 3589 3588 4598 4599 4700 4699 3488 3489 3590 3589 4599 4600 4701 4700 3489 3490 3591 3590 4600 4601 4702 4701 3490 3491 3592 3591 4601 4602 4703 4702 3491 3492 3593 3592 4602 4603 4704 4703 3492 3493 3594 3593 4603 4604 4705 4704 3493 3494 3595 3594 4604 4605 4706 4705 3494 3495 3596 3595 4605 4606 4707 4706 3495 3496 3597 3596 4606 4607 4708 4707 3496 3497 3598 3597 4607 4608 4709 4708 3497 3498 3599 3598 4608 4609 4710 4709 3498 3499 3600 3599 4609 4610 4711 4710 3499 3500 3601 3600 4610 4611 4712 4711 3500 3501 3602 3601 4611 4612 4713 4712 3501 3502 3603 3602 4612 4613 4714 4713 3502 3503 3604 3603 4613 4614 4715 4714 3503 3504 3605 3604 4614 4615 4716 4715 3504 3505 3606 3605 4615 4616 4717 4716 3505 3506 3607 3606 4616 4617 4718 4717 3506 3507 3608 3607 4617 4618 4719 4718 3507 3508 3609 3608 4618 4619 4720 4719 3508 3509 3610 3609 4619 4620 4721 4720 3509 3510 3611 3610 4620 4621 4722 4721 3510 3511 3612 3611 4621 4622 4723 4722 3511 3512 3613 3612 4622 4623 4724 4723 3512 3513 3614 3613 4623 4624 4725 4724 3513 3514 3615 3614 4624 4625 4726 4725 3514 3515 3616 3615 4625 4626 4727 4726 3515 3516 3617 3616 4626 4627 4728 4727 3516 3517 3618 3617 4627 4628 4729 4728 3517 3518 3619 3618 4628 4629 4730 4729 3518 3519 3620 3619 4629 4630 4731 4730 3519 3520 3621 3620 4630 4631 4732 4731 3520 3521 3622 3621 4631 4632 4733 4732 3521 3522 3623 3622 4632 4633 4734 4733 3522 3523 3624 3623 4633 4634 4735 4734 3523 3524 3625 3624 4634 4635 4736 4735 3524 3525 3626 3625 4635 4636 4737 4736 3525 3526 3627 3626 4636 4637 4738 4737 3526 3527 3628 3627 4637 4638 4739 4738 3527 3528 3629 3628 4638 4639 4740 4739 3528 3529 3630 3629 4639 4640 4741 4740 3529 3530 3631 3630 4640 4641 4742 4741 3530 3531 3632 3631 4641 4642 4743 4742 3531 3532 3633 3632 4642 4643 4744 4743 3532 3533 3634 3633 4643 4644 4745 4744 3533 3534 3635 3634 4644 4645 4746 4745 3535 3536 3637 3636 4646 4647 4748 4747 3536 3537 3638 3637 4647 4648 4749 4748 3537 3538 3639 3638 4648 4649 4750 4749 3538 3539 3640 3639 4649 4650 4751 4750 3539 3540 3641 3640 4650 4651 4752 4751 3540 3541 3642 3641 4651 4652 4753 4752 3541 3542 3643 3642 4652 4653 4754 4753 3542 3543 3644 3643 4653 4654 4755 4754 3543 3544 3645 3644 4654 4655 4756 4755 3544 3545 3646 3645 4655 4656 4757 4756 3545 3546 3647 3646 4656 4657 4758 4757 3546 3547 3648 3647 4657 4658 4759 4758 3547 3548 3649 3648 4658 4659 4760 4759 3548 3549 3650 3649 4659 4660 4761 4760 3549 3550 3651 3650 4660 4661 4762 4761 3550 3551 3652 3651 4661 4662 4763 4762 3551 3552 3653 3652 4662 4663 4764 4763 3552 3553 3654 3653 4663 4664 4765 4764 3553 3554 3655 3654 4664 4665 4766 4765 3554 3555 3656 3655 4665 4666 4767 4766 3555 3556 3657 3656 4666 4667 4768 4767 3556 3557 3658 3657 4667 4668 4769 4768 3557 3558 3659 3658 4668 4669 4770 4769 3558 3559 3660 3659 4669 4670 4771 4770 3559 3560 3661 3660 4670 4671 4772 4771 3560 3561 3662 3661 4671 4672 4773 4772 3561 3562 3663 3662 4672 4673 4774 4773 3562 3563 3664 3663 4673 4674 4775 4774 3563 3564 3665 3664 4674 4675 4776 4775 3564 3565 3666 3665 4675 4676 4777 4776 3565 3566 3667 3666 4676 4677 4778 4777 3566 3567 3668 3667 4677 4678 4779 4778 3567 3568 3669 3668 4678 4679 4780 4779 3568 3569 3670 3669 4679 4680 4781 4780 3569 3570 3671 3670 4680 4681 4782 4781 3570 3571 3672 3671 4681 4682 4783 4782 3571 3572 3673 3672 4682 4683 4784 4783 3572 3573 3674 3673 4683 4684 4785 4784 3573 3574 3675 3674 4684 4685 4786 4785 3574 3575 3676 3675 4685 4686 4787 4786 3575 3576 3677 3676 4686 4687 4788 4787 3576 3577 3678 3677 4687 4688 4789 4788 3577 3578 3679 3678 4688 4689 4790 4789 3578 3579 3680 3679 4689 4690 4791 4790 3579 3580 3681 3680 4690 4691 4792 4791 3580 3581 3682 3681 4691 4692 4793 4792 3581 3582 3683 3682 4692 4693 4794 4793 3582 3583 3684 3683 4693 4694 4795 4794 3583 3584 3685 3684 4694 4695 4796 4795 3584 3585 3686 3685 4695 4696 4797 4796 3585 3586 3687 3686 4696 4697 4798 4797 3586 3587 3688 3687 4697 4698 4799 4798 3587 3588 3689 3688 4698 4699 4800 4799 3588 3589 3690 3689 4699 4700 4801 4800 3589 3590 3691 3690 4700 4701 4802 4801 3590 3591 3692 3691 4701 4702 4803 4802 3591 3592 3693 3692 4702 4703 4804 4803 3592 3593 3694 3693 4703 4704 4805 4804 3593 3594 3695 3694 4704 4705 4806 4805 3594 3595 3696 3695 4705 4706 4807 4806 3595 3596 3697 3696 4706 4707 4808 4807 3596 3597 3698 3697 4707 4708 4809 4808 3597 3598 3699 3698 4708 4709 4810 4809 3598 3599 3700 3699 4709 4710 4811 4810 3599 3600 3701 3700 4710 4711 4812 4811 3600 3601 3702 3701 4711 4712 4813 4812 3601 3602 3703 3702 4712 4713 4814 4813 3602 3603 3704 3703 4713 4714 4815 4814 3603 3604 3705 3704 4714 4715 4816 4815 3604 3605 3706 3705 4715 4716 4817 4816 3605 3606 3707 3706 4716 4717 4818 4817 3606 3607 3708 3707 4717 4718 4819 4818 3607 3608 3709 3708 4718 4719 4820 4819 3608 3609 3710 3709 4719 4720 4821 4820 3609 3610 3711 3710 4720 4721 4822 4821 3610 3611 3712 3711 4721 4722 4823 4822 3611 3612 3713 3712 4722 4723 4824 4823 3612 3613 3714 3713 4723 4724 4825 4824 3613 3614 3715 3714 4724 4725 4826 4825 3614 3615 3716 3715 4725 4726 4827 4826 3615 3616 3717 3716 4726 4727 4828 4827 3616 3617 3718 3717 4727 4728 4829 4828 3617 3618 3719 3718 4728 4729 4830 4829 3618 3619 3720 3719 4729 4730 4831 4830 3619 3620 3721 3720 4730 4731 4832 4831 3620 3621 3722 3721 4731 4732 4833 4832 3621 3622 3723 3722 4732 4733 4834 4833 3622 3623 3724 3723 4733 4734 4835 4834 3623 3624 3725 3724 4734 4735 4836 4835 3624 3625 3726 3725 4735 4736 4837 4836 3625 3626 3727 3726 4736 4737 4838 4837 3626 3627 3728 3727 4737 4738 4839 4838 3627 3628 3729 3728 4738 4739 4840 4839 3628 3629 3730 3729 4739 4740 4841 4840 3629 3630 3731 3730 4740 4741 4842 4841 3630 3631 3732 3731 4741 4742 4843 4842 3631 3632 3733 3732 4742 4743 4844 4843 3632 3633 3734 3733 4743 4744 4845 4844 3633 3634 3735 3734 4744 4745 4846 4845 3634 3635 3736 3735 4745 4746 4847 4846 3636 3637 3738 3737 4747 4748 4849 4848 3637 3638 3739 3738 4748 4749 4850 4849 3638 3639 3740 3739 4749 4750 4851 4850 3639 3640 3741 3740 4750 4751 4852 4851 3640 3641 3742 3741 4751 4752 4853 4852 3641 3642 3743 3742 4752 4753 4854 4853 3642 3643 3744 3743 4753 4754 4855 4854 3643 3644 3745 3744 4754 4755 4856 4855 3644 3645 3746 3745 4755 4756 4857 4856 3645 3646 3747 3746 4756 4757 4858 4857 3646 3647 3748 3747 4757 4758 4859 4858 3647 3648 3749 3748 4758 4759 4860 4859 3648 3649 3750 3749 4759 4760 4861 4860 3649 3650 3751 3750 4760 4761 4862 4861 3650 3651 3752 3751 4761 4762 4863 4862 3651 3652 3753 3752 4762 4763 4864 4863 3652 3653 3754 3753 4763 4764 4865 4864 3653 3654 3755 3754 4764 4765 4866 4865 3654 3655 3756 3755 4765 4766 4867 4866 3655 3656 3757 3756 4766 4767 4868 4867 3656 3657 3758 3757 4767 4768 4869 4868 3657 3658 3759 3758 4768 4769 4870 4869 3658 3659 3760 3759 4769 4770 4871 4870 3659 3660 3761 3760 4770 4771 4872 4871 3660 3661 3762 3761 4771 4772 4873 4872 3661 3662 3763 3762 4772 4773 4874 4873 3662 3663 3764 3763 4773 4774 4875 4874 3663 3664 3765 3764 4774 4775 4876 4875 3664 3665 3766 3765 4775 4776 4877 4876 3665 3666 3767 3766 4776 4777 4878 4877 3666 3667 3768 3767 4777 4778 4879 4878 3667 3668 3769 3768 4778 4779 4880 4879 3668 3669 3770 3769 4779 4780 4881 4880 3669 3670 3771 3770 4780 4781 4882 4881 3670 3671 3772 3771 4781 4782 4883 4882 3671 3672 3773 3772 4782 4783 4884 4883 3672 3673 3774 3773 4783 4784 4885 4884 3673 3674 3775 3774 4784 4785 4886 4885 3674 3675 3776 3775 4785 4786 4887 4886 3675 3676 3777 3776 4786 4787 4888 4887 3676 3677 3778 3777 4787 4788 4889 4888 3677 3678 3779 3778 4788 4789 4890 4889 3678 3679 3780 3779 4789 4790 4891 4890 3679 3680 3781 3780 4790 4791 4892 4891 3680 3681 3782 3781 4791 4792 4893 4892 3681 3682 3783 3782 4792 4793 4894 4893 3682 3683 3784 3783 4793 4794 4895 4894 3683 3684 3785 3784 4794 4795 4896 4895 3684 3685 3786 3785 4795 4796 4897 4896 3685 3686 3787 3786 4796 4797 4898 4897 3686 3687 3788 3787 4797 4798 4899 4898 3687 3688 3789 3788 4798 4799 4900 4899 3688 3689 3790 3789 4799 4800 4901 4900 3689 3690 3791 3790 4800 4801 4902 4901 3690 3691 3792 3791 4801 4802 4903 4902 3691 3692 3793 3792 4802 4803 4904 4903 3692 3693 3794 3793 4803 4804 4905 4904 3693 3694 3795 3794 4804 4805 4906 4905 3694 3695 3796 3795 4805 4806 4907 4906 3695 3696 3797 3796 4806 4807 4908 4907 3696 3697 3798 3797 4807 4808 4909 4908 3697 3698 3799 3798 4808 4809 4910 4909 3698 3699 3800 3799 4809 4810 4911 4910 3699 3700 3801 3800 4810 4811 4912 4911 3700 3701 3802 3801 4811 4812 4913 4912 3701 3702 3803 3802 4812 4813 4914 4913 3702 3703 3804 3803 4813 4814 4915 4914 3703 3704 3805 3804 4814 4815 4916 4915 3704 3705 3806 3805 4815 4816 4917 4916 3705 3706 3807 3806 4816 4817 4918 4917 3706 3707 3808 3807 4817 4818 4919 4918 3707 3708 3809 3808 4818 4819 4920 4919 3708 3709 3810 3809 4819 4820 4921 4920 3709 3710 3811 3810 4820 4821 4922 4921 3710 3711 3812 3811 4821 4822 4923 4922 3711 3712 3813 3812 4822 4823 4924 4923 3712 3713 3814 3813 4823 4824 4925 4924 3713 3714 3815 3814 4824 4825 4926 4925 3714 3715 3816 3815 4825 4826 4927 4926 3715 3716 3817 3816 4826 4827 4928 4927 3716 3717 3818 3817 4827 4828 4929 4928 3717 3718 3819 3818 4828 4829 4930 4929 3718 3719 3820 3819 4829 4830 4931 4930 3719 3720 3821 3820 4830 4831 4932 4931 3720 3721 3822 3821 4831 4832 4933 4932 3721 3722 3823 3822 4832 4833 4934 4933 3722 3723 3824 3823 4833 4834 4935 4934 3723 3724 3825 3824 4834 4835 4936 4935 3724 3725 3826 3825 4835 4836 4937 4936 3725 3726 3827 3826 4836 4837 4938 4937 3726 3727 3828 3827 4837 4838 4939 4938 3727 3728 3829 3828 4838 4839 4940 4939 3728 3729 3830 3829 4839 4840 4941 4940 3729 3730 3831 3830 4840 4841 4942 4941 3730 3731 3832 3831 4841 4842 4943 4942 3731 3732 3833 3832 4842 4843 4944 4943 3732 3733 3834 3833 4843 4844 4945 4944 3733 3734 3835 3834 4844 4845 4946 4945 3734 3735 3836 3835 4845 4846 4947 4946 3735 3736 3837 3836 4846 4847 4948 4947 3737 3738 3839 3838 4848 4849 4950 4949 3738 3739 3840 3839 4849 4850 4951 4950 3739 3740 3841 3840 4850 4851 4952 4951 3740 3741 3842 3841 4851 4852 4953 4952 3741 3742 3843 3842 4852 4853 4954 4953 3742 3743 3844 3843 4853 4854 4955 4954 3743 3744 3845 3844 4854 4855 4956 4955 3744 3745 3846 3845 4855 4856 4957 4956 3745 3746 3847 3846 4856 4857 4958 4957 3746 3747 3848 3847 4857 4858 4959 4958 3747 3748 3849 3848 4858 4859 4960 4959 3748 3749 3850 3849 4859 4860 4961 4960 3749 3750 3851 3850 4860 4861 4962 4961 3750 3751 3852 3851 4861 4862 4963 4962 3751 3752 3853 3852 4862 4863 4964 4963 3752 3753 3854 3853 4863 4864 4965 4964 3753 3754 3855 3854 4864 4865 4966 4965 3754 3755 3856 3855 4865 4866 4967 4966 3755 3756 3857 3856 4866 4867 4968 4967 3756 3757 3858 3857 4867 4868 4969 4968 3757 3758 3859 3858 4868 4869 4970 4969 3758 3759 3860 3859 4869 4870 4971 4970 3759 3760 3861 3860 4870 4871 4972 4971 3760 3761 3862 3861 4871 4872 4973 4972 3761 3762 3863 3862 4872 4873 4974 4973 3762 3763 3864 3863 4873 4874 4975 4974 3763 3764 3865 3864 4874 4875 4976 4975 3764 3765 3866 3865 4875 4876 4977 4976 3765 3766 3867 3866 4876 4877 4978 4977 3766 3767 3868 3867 4877 4878 4979 4978 3767 3768 3869 3868 4878 4879 4980 4979 3768 3769 3870 3869 4879 4880 4981 4980 3769 3770 3871 3870 4880 4881 4982 4981 3770 3771 3872 3871 4881 4882 4983 4982 3771 3772 3873 3872 4882 4883 4984 4983 3772 3773 3874 3873 4883 4884 4985 4984 3773 3774 3875 3874 4884 4885 4986 4985 3774 3775 3876 3875 4885 4886 4987 4986 3775 3776 3877 3876 4886 4887 4988 4987 3776 3777 3878 3877 4887 4888 4989 4988 3777 3778 3879 3878 4888 4889 4990 4989 3778 3779 3880 3879 4889 4890 4991 4990 3779 3780 3881 3880 4890 4891 4992 4991 3780 3781 3882 3881 4891 4892 4993 4992 3781 3782 3883 3882 4892 4893 4994 4993 3782 3783 3884 3883 4893 4894 4995 4994 3783 3784 3885 3884 4894 4895 4996 4995 3784 3785 3886 3885 4895 4896 4997 4996 3785 3786 3887 3886 4896 4897 4998 4997 3786 3787 3888 3887 4897 4898 4999 4998 3787 3788 3889 3888 4898 4899 5000 4999 3788 3789 3890 3889 4899 4900 5001 5000 3789 3790 3891 3890 4900 4901 5002 5001 3790 3791 3892 3891 4901 4902 5003 5002 3791 3792 3893 3892 4902 4903 5004 5003 3792 3793 3894 3893 4903 4904 5005 5004 3793 3794 3895 3894 4904 4905 5006 5005 3794 3795 3896 3895 4905 4906 5007 5006 3795 3796 3897 3896 4906 4907 5008 5007 3796 3797 3898 3897 4907 4908 5009 5008 3797 3798 3899 3898 4908 4909 5010 5009 3798 3799 3900 3899 4909 4910 5011 5010 3799 3800 3901 3900 4910 4911 5012 5011 3800 3801 3902 3901 4911 4912 5013 5012 3801 3802 3903 3902 4912 4913 5014 5013 3802 3803 3904 3903 4913 4914 5015 5014 3803 3804 3905 3904 4914 4915 5016 5015 3804 3805 3906 3905 4915 4916 5017 5016 3805 3806 3907 3906 4916 4917 5018 5017 3806 3807 3908 3907 4917 4918 5019 5018 3807 3808 3909 3908 4918 4919 5020 5019 3808 3809 3910 3909 4919 4920 5021 5020 3809 3810 3911 3910 4920 4921 5022 5021 3810 3811 3912 3911 4921 4922 5023 5022 3811 3812 3913 3912 4922 4923 5024 5023 3812 3813 3914 3913 4923 4924 5025 5024 3813 3814 3915 3914 4924 4925 5026 5025 3814 3815 3916 3915 4925 4926 5027 5026 3815 3816 3917 3916 4926 4927 5028 5027 3816 3817 3918 3917 4927 4928 5029 5028 3817 3818 3919 3918 4928 4929 5030 5029 3818 3819 3920 3919 4929 4930 5031 5030 3819 3820 3921 3920 4930 4931 5032 5031 3820 3821 3922 3921 4931 4932 5033 5032 3821 3822 3923 3922 4932 4933 5034 5033 3822 3823 3924 3923 4933 4934 5035 5034 3823 3824 3925 3924 4934 4935 5036 5035 3824 3825 3926 3925 4935 4936 5037 5036 3825 3826 3927 3926 4936 4937 5038 5037 3826 3827 3928 3927 4937 4938 5039 5038 3827 3828 3929 3928 4938 4939 5040 5039 3828 3829 3930 3929 4939 4940 5041 5040 3829 3830 3931 3930 4940 4941 5042 5041 3830 3831 3932 3931 4941 4942 5043 5042 3831 3832 3933 3932 4942 4943 5044 5043 3832 3833 3934 3933 4943 4944 5045 5044 3833 3834 3935 3934 4944 4945 5046 5045 3834 3835 3936 3935 4945 4946 5047 5046 3835 3836 3937 3936 4946 4947 5048 5047 3836 3837 3938 3937 4947 4948 5049 5048 3838 3839 3940 3939 4949 4950 5051 5050 3839 3840 3941 3940 4950 4951 5052 5051 3840 3841 3942 3941 4951 4952 5053 5052 3841 3842 3943 3942 4952 4953 5054 5053 3842 3843 3944 3943 4953 4954 5055 5054 3843 3844 3945 3944 4954 4955 5056 5055 3844 3845 3946 3945 4955 4956 5057 5056 3845 3846 3947 3946 4956 4957 5058 5057 3846 3847 3948 3947 4957 4958 5059 5058 3847 3848 3949 3948 4958 4959 5060 5059 3848 3849 3950 3949 4959 4960 5061 5060 3849 3850 3951 3950 4960 4961 5062 5061 3850 3851 3952 3951 4961 4962 5063 5062 3851 3852 3953 3952 4962 4963 5064 5063 3852 3853 3954 3953 4963 4964 5065 5064 3853 3854 3955 3954 4964 4965 5066 5065 3854 3855 3956 3955 4965 4966 5067 5066 3855 3856 3957 3956 4966 4967 5068 5067 3856 3857 3958 3957 4967 4968 5069 5068 3857 3858 3959 3958 4968 4969 5070 5069 3858 3859 3960 3959 4969 4970 5071 5070 3859 3860 3961 3960 4970 4971 5072 5071 3860 3861 3962 3961 4971 4972 5073 5072 3861 3862 3963 3962 4972 4973 5074 5073 3862 3863 3964 3963 4973 4974 5075 5074 3863 3864 3965 3964 4974 4975 5076 5075 3864 3865 3966 3965 4975 4976 5077 5076 3865 3866 3967 3966 4976 4977 5078 5077 3866 3867 3968 3967 4977 4978 5079 5078 3867 3868 3969 3968 4978 4979 5080 5079 3868 3869 3970 3969 4979 4980 5081 5080 3869 3870 3971 3970 4980 4981 5082 5081 3870 3871 3972 3971 4981 4982 5083 5082 3871 3872 3973 3972 4982 4983 5084 5083 3872 3873 3974 3973 4983 4984 5085 5084 3873 3874 3975 3974 4984 4985 5086 5085 3874 3875 3976 3975 4985 4986 5087 5086 3875 3876 3977 3976 4986 4987 5088 5087 3876 3877 3978 3977 4987 4988 5089 5088 3877 3878 3979 3978 4988 4989 5090 5089 3878 3879 3980 3979 4989 4990 5091 5090 3879 3880 3981 3980 4990 4991 5092 5091 3880 3881 3982 3981 4991 4992 5093 5092 3881 3882 3983 3982 4992 4993 5094 5093 3882 3883 3984 3983 4993 4994 5095 5094 3883 3884 3985 3984 4994 4995 5096 5095 3884 3885 3986 3985 4995 4996 5097 5096 3885 3886 3987 3986 4996 4997 5098 5097 3886 3887 3988 3987 4997 4998 5099 5098 3887 3888 3989 3988 4998 4999 5100 5099 3888 3889 3990 3989 4999 5000 5101 5100 3889 3890 3991 3990 5000 5001 5102 5101 3890 3891 3992 3991 5001 5002 5103 5102 3891 3892 3993 3992 5002 5003 5104 5103 3892 3893 3994 3993 5003 5004 5105 5104 3893 3894 3995 3994 5004 5005 5106 5105 3894 3895 3996 3995 5005 5006 5107 5106 3895 3896 3997 3996 5006 5007 5108 5107 3896 3897 3998 3997 5007 5008 5109 5108 3897 3898 3999 3998 5008 5009 5110 5109 3898 3899 4000 3999 5009 5010 5111 5110 3899 3900 4001 4000 5010 5011 5112 5111 3900 3901 4002 4001 5011 5012 5113 5112 3901 3902 4003 4002 5012 5013 5114 5113 3902 3903 4004 4003 5013 5014 5115 5114 3903 3904 4005 4004 5014 5015 5116 5115 3904 3905 4006 4005 5015 5016 5117 5116 3905 3906 4007 4006 5016 5017 5118 5117 3906 3907 4008 4007 5017 5018 5119 5118 3907 3908 4009 4008 5018 5019 5120 5119 3908 3909 4010 4009 5019 5020 5121 5120 3909 3910 4011 4010 5020 5021 5122 5121 3910 3911 4012 4011 5021 5022 5123 5122 3911 3912 4013 4012 5022 5023 5124 5123 3912 3913 4014 4013 5023 5024 5125 5124 3913 3914 4015 4014 5024 5025 5126 5125 3914 3915 4016 4015 5025 5026 5127 5126 3915 3916 4017 4016 5026 5027 5128 5127 3916 3917 4018 4017 5027 5028 5129 5128 3917 3918 4019 4018 5028 5029 5130 5129 3918 3919 4020 4019 5029 5030 5131 5130 3919 3920 4021 4020 5030 5031 5132 5131 3920 3921 4022 4021 5031 5032 5133 5132 3921 3922 4023 4022 5032 5033 5134 5133 3922 3923 4024 4023 5033 5034 5135 5134 3923 3924 4025 4024 5034 5035 5136 5135 3924 3925 4026 4025 5035 5036 5137 5136 3925 3926 4027 4026 5036 5037 5138 5137 3926 3927 4028 4027 5037 5038 5139 5138 3927 3928 4029 4028 5038 5039 5140 5139 3928 3929 4030 4029 5039 5040 5141 5140 3929 3930 4031 4030 5040 5041 5142 5141 3930 3931 4032 4031 5041 5042 5143 5142 3931 3932 4033 4032 5042 5043 5144 5143 3932 3933 4034 4033 5043 5044 5145 5144 3933 3934 4035 4034 5044 5045 5146 5145 3934 3935 4036 4035 5045 5046 5147 5146 3935 3936 4037 4036 5046 5047 5148 5147 3936 3937 4038 4037 5047 5048 5149 5148 3937 3938 4039 4038 5048 5049 5150 5149 3939 3940 4041 4040 5050 5051 5152 5151 3940 3941 4042 4041 5051 5052 5153 5152 3941 3942 4043 4042 5052 5053 5154 5153 3942 3943 4044 4043 5053 5054 5155 5154 3943 3944 4045 4044 5054 5055 5156 5155 3944 3945 4046 4045 5055 5056 5157 5156 3945 3946 4047 4046 5056 5057 5158 5157 3946 3947 4048 4047 5057 5058 5159 5158 3947 3948 4049 4048 5058 5059 5160 5159 3948 3949 4050 4049 5059 5060 5161 5160 3949 3950 4051 4050 5060 5061 5162 5161 3950 3951 4052 4051 5061 5062 5163 5162 3951 3952 4053 4052 5062 5063 5164 5163 3952 3953 4054 4053 5063 5064 5165 5164 3953 3954 4055 4054 5064 5065 5166 5165 3954 3955 4056 4055 5065 5066 5167 5166 3955 3956 4057 4056 5066 5067 5168 5167 3956 3957 4058 4057 5067 5068 5169 5168 3957 3958 4059 4058 5068 5069 5170 5169 3958 3959 4060 4059 5069 5070 5171 5170 3959 3960 4061 4060 5070 5071 5172 5171 3960 3961 4062 4061 5071 5072 5173 5172 3961 3962 4063 4062 5072 5073 5174 5173 3962 3963 4064 4063 5073 5074 5175 5174 3963 3964 4065 4064 5074 5075 5176 5175 3964 3965 4066 4065 5075 5076 5177 5176 3965 3966 4067 4066 5076 5077 5178 5177 3966 3967 4068 4067 5077 5078 5179 5178 3967 3968 4069 4068 5078 5079 5180 5179 3968 3969 4070 4069 5079 5080 5181 5180 3969 3970 4071 4070 5080 5081 5182 5181 3970 3971 4072 4071 5081 5082 5183 5182 3971 3972 4073 4072 5082 5083 5184 5183 3972 3973 4074 4073 5083 5084 5185 5184 3973 3974 4075 4074 5084 5085 5186 5185 3974 3975 4076 4075 5085 5086 5187 5186 3975 3976 4077 4076 5086 5087 5188 5187 3976 3977 4078 4077 5087 5088 5189 5188 3977 3978 4079 4078 5088 5089 5190 5189 3978 3979 4080 4079 5089 5090 5191 5190 3979 3980 4081 4080 5090 5091 5192 5191 3980 3981 4082 4081 5091 5092 5193 5192 3981 3982 4083 4082 5092 5093 5194 5193 3982 3983 4084 4083 5093 5094 5195 5194 3983 3984 4085 4084 5094 5095 5196 5195 3984 3985 4086 4085 5095 5096 5197 5196 3985 3986 4087 4086 5096 5097 5198 5197 3986 3987 4088 4087 5097 5098 5199 5198 3987 3988 4089 4088 5098 5099 5200 5199 3988 3989 4090 4089 5099 5100 5201 5200 3989 3990 4091 4090 5100 5101 5202 5201 3990 3991 4092 4091 5101 5102 5203 5202 3991 3992 4093 4092 5102 5103 5204 5203 3992 3993 4094 4093 5103 5104 5205 5204 3993 3994 4095 4094 5104 5105 5206 5205 3994 3995 4096 4095 5105 5106 5207 5206 3995 3996 4097 4096 5106 5107 5208 5207 3996 3997 4098 4097 5107 5108 5209 5208 3997 3998 4099 4098 5108 5109 5210 5209 3998 3999 4100 4099 5109 5110 5211 5210 3999 4000 4101 4100 5110 5111 5212 5211 4000 4001 4102 4101 5111 5112 5213 5212 4001 4002 4103 4102 5112 5113 5214 5213 4002 4003 4104 4103 5113 5114 5215 5214 4003 4004 4105 4104 5114 5115 5216 5215 4004 4005 4106 4105 5115 5116 5217 5216 4005 4006 4107 4106 5116 5117 5218 5217 4006 4007 4108 4107 5117 5118 5219 5218 4007 4008 4109 4108 5118 5119 5220 5219 4008 4009 4110 4109 5119 5120 5221 5220 4009 4010 4111 4110 5120 5121 5222 5221 4010 4011 4112 4111 5121 5122 5223 5222 4011 4012 4113 4112 5122 5123 5224 5223 4012 4013 4114 4113 5123 5124 5225 5224 4013 4014 4115 4114 5124 5125 5226 5225 4014 4015 4116 4115 5125 5126 5227 5226 4015 4016 4117 4116 5126 5127 5228 5227 4016 4017 4118 4117 5127 5128 5229 5228 4017 4018 4119 4118 5128 5129 5230 5229 4018 4019 4120 4119 5129 5130 5231 5230 4019 4020 4121 4120 5130 5131 5232 5231 4020 4021 4122 4121 5131 5132 5233 5232 4021 4022 4123 4122 5132 5133 5234 5233 4022 4023 4124 4123 5133 5134 5235 5234 4023 4024 4125 4124 5134 5135 5236 5235 4024 4025 4126 4125 5135 5136 5237 5236 4025 4026 4127 4126 5136 5137 5238 5237 4026 4027 4128 4127 5137 5138 5239 5238 4027 4028 4129 4128 5138 5139 5240 5239 4028 4029 4130 4129 5139 5140 5241 5240 4029 4030 4131 4130 5140 5141 5242 5241 4030 4031 4132 4131 5141 5142 5243 5242 4031 4032 4133 4132 5142 5143 5244 5243 4032 4033 4134 4133 5143 5144 5245 5244 4033 4034 4135 4134 5144 5145 5246 5245 4034 4035 4136 4135 5145 5146 5247 5246 4035 4036 4137 4136 5146 5147 5248 5247 4036 4037 4138 4137 5147 5148 5249 5248 4037 4038 4139 4138 5148 5149 5250 5249 4038 4039 4140 4139 5149 5150 5251 5250 4040 4041 4142 4141 5151 5152 5253 5252 4041 4042 4143 4142 5152 5153 5254 5253 4042 4043 4144 4143 5153 5154 5255 5254 4043 4044 4145 4144 5154 5155 5256 5255 4044 4045 4146 4145 5155 5156 5257 5256 4045 4046 4147 4146 5156 5157 5258 5257 4046 4047 4148 4147 5157 5158 5259 5258 4047 4048 4149 4148 5158 5159 5260 5259 4048 4049 4150 4149 5159 5160 5261 5260 4049 4050 4151 4150 5160 5161 5262 5261 4050 4051 4152 4151 5161 5162 5263 5262 4051 4052 4153 4152 5162 5163 5264 5263 4052 4053 4154 4153 5163 5164 5265 5264 4053 4054 4155 4154 5164 5165 5266 5265 4054 4055 4156 4155 5165 5166 5267 5266 4055 4056 4157 4156 5166 5167 5268 5267 4056 4057 4158 4157 5167 5168 5269 5268 4057 4058 4159 4158 5168 5169 5270 5269 4058 4059 4160 4159 5169 5170 5271 5270 4059 4060 4161 4160 5170 5171 5272 5271 4060 4061 4162 4161 5171 5172 5273 5272 4061 4062 4163 4162 5172 5173 5274 5273 4062 4063 4164 4163 5173 5174 5275 5274 4063 4064 4165 4164 5174 5175 5276 5275 4064 4065 4166 4165 5175 5176 5277 5276 4065 4066 4167 4166 5176 5177 5278 5277 4066 4067 4168 4167 5177 5178 5279 5278 4067 4068 4169 4168 5178 5179 5280 5279 4068 4069 4170 4169 5179 5180 5281 5280 4069 4070 4171 4170 5180 5181 5282 5281 4070 4071 4172 4171 5181 5182 5283 5282 4071 4072 4173 4172 5182 5183 5284 5283 4072 4073 4174 4173 5183 5184 5285 5284 4073 4074 4175 4174 5184 5185 5286 5285 4074 4075 4176 4175 5185 5186 5287 5286 4075 4076 4177 4176 5186 5187 5288 5287 4076 4077 4178 4177 5187 5188 5289 5288 4077 4078 4179 4178 5188 5189 5290 5289 4078 4079 4180 4179 5189 5190 5291 5290 4079 4080 4181 4180 5190 5191 5292 5291 4080 4081 4182 4181 5191 5192 5293 5292 4081 4082 4183 4182 5192 5193 5294 5293 4082 4083 4184 4183 5193 5194 5295 5294 4083 4084 4185 4184 5194 5195 5296 5295 4084 4085 4186 4185 5195 5196 5297 5296 4085 4086 4187 4186 5196 5197 5298 5297 4086 4087 4188 4187 5197 5198 5299 5298 4087 4088 4189 4188 5198 5199 5300 5299 4088 4089 4190 4189 5199 5200 5301 5300 4089 4090 4191 4190 5200 5201 5302 5301 4090 4091 4192 4191 5201 5202 5303 5302 4091 4092 4193 4192 5202 5203 5304 5303 4092 4093 4194 4193 5203 5204 5305 5304 4093 4094 4195 4194 5204 5205 5306 5305 4094 4095 4196 4195 5205 5206 5307 5306 4095 4096 4197 4196 5206 5207 5308 5307 4096 4097 4198 4197 5207 5208 5309 5308 4097 4098 4199 4198 5208 5209 5310 5309 4098 4099 4200 4199 5209 5210 5311 5310 4099 4100 4201 4200 5210 5211 5312 5311 4100 4101 4202 4201 5211 5212 5313 5312 4101 4102 4203 4202 5212 5213 5314 5313 4102 4103 4204 4203 5213 5214 5315 5314 4103 4104 4205 4204 5214 5215 5316 5315 4104 4105 4206 4205 5215 5216 5317 5316 4105 4106 4207 4206 5216 5217 5318 5317 4106 4107 4208 4207 5217 5218 5319 5318 4107 4108 4209 4208 5218 5219 5320 5319 4108 4109 4210 4209 5219 5220 5321 5320 4109 4110 4211 4210 5220 5221 5322 5321 4110 4111 4212 4211 5221 5222 5323 5322 4111 4112 4213 4212 5222 5223 5324 5323 4112 4113 4214 4213 5223 5224 5325 5324 4113 4114 4215 4214 5224 5225 5326 5325 4114 4115 4216 4215 5225 5226 5327 5326 4115 4116 4217 4216 5226 5227 5328 5327 4116 4117 4218 4217 5227 5228 5329 5328 4117 4118 4219 4218 5228 5229 5330 5329 4118 4119 4220 4219 5229 5230 5331 5330 4119 4120 4221 4220 5230 5231 5332 5331 4120 4121 4222 4221 5231 5232 5333 5332 4121 4122 4223 4222 5232 5233 5334 5333 4122 4123 4224 4223 5233 5234 5335 5334 4123 4124 4225 4224 5234 5235 5336 5335 4124 4125 4226 4225 5235 5236 5337 5336 4125 4126 4227 4226 5236 5237 5338 5337 4126 4127 4228 4227 5237 5238 5339 5338 4127 4128 4229 4228 5238 5239 5340 5339 4128 4129 4230 4229 5239 5240 5341 5340 4129 4130 4231 4230 5240 5241 5342 5341 4130 4131 4232 4231 5241 5242 5343 5342 4131 4132 4233 4232 5242 5243 5344 5343 4132 4133 4234 4233 5243 5244 5345 5344 4133 4134 4235 4234 5244 5245 5346 5345 4134 4135 4236 4235 5245 5246 5347 5346 4135 4136 4237 4236 5246 5247 5348 5347 4136 4137 4238 4237 5247 5248 5349 5348 4137 4138 4239 4238 5248 5249 5350 5349 4138 4139 4240 4239 5249 5250 5351 5350 4139 4140 4241 4240 5250 5251 5352 5351 4141 4142 4243 4242 5252 5253 5354 5353 4142 4143 4244 4243 5253 5254 5355 5354 4143 4144 4245 4244 5254 5255 5356 5355 4144 4145 4246 4245 5255 5256 5357 5356 4145 4146 4247 4246 5256 5257 5358 5357 4146 4147 4248 4247 5257 5258 5359 5358 4147 4148 4249 4248 5258 5259 5360 5359 4148 4149 4250 4249 5259 5260 5361 5360 4149 4150 4251 4250 5260 5261 5362 5361 4150 4151 4252 4251 5261 5262 5363 5362 4151 4152 4253 4252 5262 5263 5364 5363 4152 4153 4254 4253 5263 5264 5365 5364 4153 4154 4255 4254 5264 5265 5366 5365 4154 4155 4256 4255 5265 5266 5367 5366 4155 4156 4257 4256 5266 5267 5368 5367 4156 4157 4258 4257 5267 5268 5369 5368 4157 4158 4259 4258 5268 5269 5370 5369 4158 4159 4260 4259 5269 5270 5371 5370 4159 4160 4261 4260 5270 5271 5372 5371 4160 4161 4262 4261 5271 5272 5373 5372 4161 4162 4263 4262 5272 5273 5374 5373 4162 4163 4264 4263 5273 5274 5375 5374 4163 4164 4265 4264 5274 5275 5376 5375 4164 4165 4266 4265 5275 5276 5377 5376 4165 4166 4267 4266 5276 5277 5378 5377 4166 4167 4268 4267 5277 5278 5379 5378 4167 4168 4269 4268 5278 5279 5380 5379 4168 4169 4270 4269 5279 5280 5381 5380 4169 4170 4271 4270 5280 5281 5382 5381 4170 4171 4272 4271 5281 5282 5383 5382 4171 4172 4273 4272 5282 5283 5384 5383 4172 4173 4274 4273 5283 5284 5385 5384 4173 4174 4275 4274 5284 5285 5386 5385 4174 4175 4276 4275 5285 5286 5387 5386 4175 4176 4277 4276 5286 5287 5388 5387 4176 4177 4278 4277 5287 5288 5389 5388 4177 4178 4279 4278 5288 5289 5390 5389 4178 4179 4280 4279 5289 5290 5391 5390 4179 4180 4281 4280 5290 5291 5392 5391 4180 4181 4282 4281 5291 5292 5393 5392 4181 4182 4283 4282 5292 5293 5394 5393 4182 4183 4284 4283 5293 5294 5395 5394 4183 4184 4285 4284 5294 5295 5396 5395 4184 4185 4286 4285 5295 5296 5397 5396 4185 4186 4287 4286 5296 5297 5398 5397 4186 4187 4288 4287 5297 5298 5399 5398 4187 4188 4289 4288 5298 5299 5400 5399 4188 4189 4290 4289 5299 5300 5401 5400 4189 4190 4291 4290 5300 5301 5402 5401 4190 4191 4292 4291 5301 5302 5403 5402 4191 4192 4293 4292 5302 5303 5404 5403 4192 4193 4294 4293 5303 5304 5405 5404 4193 4194 4295 4294 5304 5305 5406 5405 4194 4195 4296 4295 5305 5306 5407 5406 4195 4196 4297 4296 5306 5307 5408 5407 4196 4197 4298 4297 5307 5308 5409 5408 4197 4198 4299 4298 5308 5309 5410 5409 4198 4199 4300 4299 5309 5310 5411 5410 4199 4200 4301 4300 5310 5311 5412 5411 4200 4201 4302 4301 5311 5312 5413 5412 4201 4202 4303 4302 5312 5313 5414 5413 4202 4203 4304 4303 5313 5314 5415 5414 4203 4204 4305 4304 5314 5315 5416 5415 4204 4205 4306 4305 5315 5316 5417 5416 4205 4206 4307 4306 5316 5317 5418 5417 4206 4207 4308 4307 5317 5318 5419 5418 4207 4208 4309 4308 5318 5319 5420 5419 4208 4209 4310 4309 5319 5320 5421 5420 4209 4210 4311 4310 5320 5321 5422 5421 4210 4211 4312 4311 5321 5322 5423 5422 4211 4212 4313 4312 5322 5323 5424 5423 4212 4213 4314 4313 5323 5324 5425 5424 4213 4214 4315 4314 5324 5325 5426 5425 4214 4215 4316 4315 5325 5326 5427 5426 4215 4216 4317 4316 5326 5327 5428 5427 4216 4217 4318 4317 5327 5328 5429 5428 4217 4218 4319 4318 5328 5329 5430 5429 4218 4219 4320 4319 5329 5330 5431 5430 4219 4220 4321 4320 5330 5331 5432 5431 4220 4221 4322 4321 5331 5332 5433 5432 4221 4222 4323 4322 5332 5333 5434 5433 4222 4223 4324 4323 5333 5334 5435 5434 4223 4224 4325 4324 5334 5335 5436 5435 4224 4225 4326 4325 5335 5336 5437 5436 4225 4226 4327 4326 5336 5337 5438 5437 4226 4227 4328 4327 5337 5338 5439 5438 4227 4228 4329 4328 5338 5339 5440 5439 4228 4229 4330 4329 5339 5340 5441 5440 4229 4230 4331 4330 5340 5341 5442 5441 4230 4231 4332 4331 5341 5342 5443 5442 4231 4232 4333 4332 5342 5343 5444 5443 4232 4233 4334 4333 5343 5344 5445 5444 4233 4234 4335 4334 5344 5345 5446 5445 4234 4235 4336 4335 5345 5346 5447 5446 4235 4236 4337 4336 5346 5347 5448 5447 4236 4237 4338 4337 5347 5348 5449 5448 4237 4238 4339 4338 5348 5349 5450 5449 4238 4239 4340 4339 5349 5350 5451 5450 4239 4240 4341 4340 5350 5351 5452 5451 4240 4241 4342 4341 5351 5352 5453 5452 4242 4243 4344 4343 5353 5354 5455 5454 4243 4244 4345 4344 5354 5355 5456 5455 4244 4245 4346 4345 5355 5356 5457 5456 4245 4246 4347 4346 5356 5357 5458 5457 4246 4247 4348 4347 5357 5358 5459 5458 4247 4248 4349 4348 5358 5359 5460 5459 4248 4249 4350 4349 5359 5360 5461 5460 4249 4250 4351 4350 5360 5361 5462 5461 4250 4251 4352 4351 5361 5362 5463 5462 4251 4252 4353 4352 5362 5363 5464 5463 4252 4253 4354 4353 5363 5364 5465 5464 4253 4254 4355 4354 5364 5365 5466 5465 4254 4255 4356 4355 5365 5366 5467 5466 4255 4256 4357 4356 5366 5367 5468 5467 4256 4257 4358 4357 5367 5368 5469 5468 4257 4258 4359 4358 5368 5369 5470 5469 4258 4259 4360 4359 5369 5370 5471 5470 4259 4260 4361 4360 5370 5371 5472 5471 4260 4261 4362 4361 5371 5372 5473 5472 4261 4262 4363 4362 5372 5373 5474 5473 4262 4263 4364 4363 5373 5374 5475 5474 4263 4264 4365 4364 5374 5375 5476 5475 4264 4265 4366 4365 5375 5376 5477 5476 4265 4266 4367 4366 5376 5377 5478 5477 4266 4267 4368 4367 5377 5378 5479 5478 4267 4268 4369 4368 5378 5379 5480 5479 4268 4269 4370 4369 5379 5380 5481 5480 4269 4270 4371 4370 5380 5381 5482 5481 4270 4271 4372 4371 5381 5382 5483 5482 4271 4272 4373 4372 5382 5383 5484 5483 4272 4273 4374 4373 5383 5384 5485 5484 4273 4274 4375 4374 5384 5385 5486 5485 4274 4275 4376 4375 5385 5386 5487 5486 4275 4276 4377 4376 5386 5387 5488 5487 4276 4277 4378 4377 5387 5388 5489 5488 4277 4278 4379 4378 5388 5389 5490 5489 4278 4279 4380 4379 5389 5390 5491 5490 4279 4280 4381 4380 5390 5391 5492 5491 4280 4281 4382 4381 5391 5392 5493 5492 4281 4282 4383 4382 5392 5393 5494 5493 4282 4283 4384 4383 5393 5394 5495 5494 4283 4284 4385 4384 5394 5395 5496 5495 4284 4285 4386 4385 5395 5396 5497 5496 4285 4286 4387 4386 5396 5397 5498 5497 4286 4287 4388 4387 5397 5398 5499 5498 4287 4288 4389 4388 5398 5399 5500 5499 4288 4289 4390 4389 5399 5400 5501 5500 4289 4290 4391 4390 5400 5401 5502 5501 4290 4291 4392 4391 5401 5402 5503 5502 4291 4292 4393 4392 5402 5403 5504 5503 4292 4293 4394 4393 5403 5404 5505 5504 4293 4294 4395 4394 5404 5405 5506 5505 4294 4295 4396 4395 5405 5406 5507 5506 4295 4296 4397 4396 5406 5407 5508 5507 4296 4297 4398 4397 5407 5408 5509 5508 4297 4298 4399 4398 5408 5409 5510 5509 4298 4299 4400 4399 5409 5410 5511 5510 4299 4300 4401 4400 5410 5411 5512 5511 4300 4301 4402 4401 5411 5412 5513 5512 4301 4302 4403 4402 5412 5413 5514 5513 4302 4303 4404 4403 5413 5414 5515 5514 4303 4304 4405 4404 5414 5415 5516 5515 4304 4305 4406 4405 5415 5416 5517 5516 4305 4306 4407 4406 5416 5417 5518 5517 4306 4307 4408 4407 5417 5418 5519 5518 4307 4308 4409 4408 5418 5419 5520 5519 4308 4309 4410 4409 5419 5420 5521 5520 4309 4310 4411 4410 5420 5421 5522 5521 4310 4311 4412 4411 5421 5422 5523 5522 4311 4312 4413 4412 5422 5423 5524 5523 4312 4313 4414 4413 5423 5424 5525 5524 4313 4314 4415 4414 5424 5425 5526 5525 4314 4315 4416 4415 5425 5426 5527 5526 4315 4316 4417 4416 5426 5427 5528 5527 4316 4317 4418 4417 5427 5428 5529 5528 4317 4318 4419 4418 5428 5429 5530 5529 4318 4319 4420 4419 5429 5430 5531 5530 4319 4320 4421 4420 5430 5431 5532 5531 4320 4321 4422 4421 5431 5432 5533 5532 4321 4322 4423 4422 5432 5433 5534 5533 4322 4323 4424 4423 5433 5434 5535 5534 4323 4324 4425 4424 5434 5435 5536 5535 4324 4325 4426 4425 5435 5436 5537 5536 4325 4326 4427 4426 5436 5437 5538 5537 4326 4327 4428 4427 5437 5438 5539 5538 4327 4328 4429 4428 5438 5439 5540 5539 4328 4329 4430 4429 5439 5440 5541 5540 4329 4330 4431 4430 5440 5441 5542 5541 4330 4331 4432 4431 5441 5442 5543 5542 4331 4332 4433 4432 5442 5443 5544 5543 4332 4333 4434 4433 5443 5444 5545 5544 4333 4334 4435 4434 5444 5445 5546 5545 4334 4335 4436 4435 5445 5446 5547 5546 4335 4336 4437 4436 5446 5447 5548 5547 4336 4337 4438 4437 5447 5448 5549 5548 4337 4338 4439 4438 5448 5449 5550 5549 4338 4339 4440 4439 5449 5450 5551 5550 4339 4340 4441 4440 5450 5451 5552 5551 4340 4341 4442 4441 5451 5452 5553 5552 4341 4342 4443 4442 5452 5453 5554 5553 4444 4445 4546 4545 5555 5556 5657 5656 4445 4446 4547 4546 5556 5557 5658 5657 4446 4447 4548 4547 5557 5558 5659 5658 4447 4448 4549 4548 5558 5559 5660 5659 4448 4449 4550 4549 5559 5560 5661 5660 4449 4450 4551 4550 5560 5561 5662 5661 4450 4451 4552 4551 5561 5562 5663 5662 4451 4452 4553 4552 5562 5563 5664 5663 4452 4453 4554 4553 5563 5564 5665 5664 4453 4454 4555 4554 5564 5565 5666 5665 4454 4455 4556 4555 5565 5566 5667 5666 4455 4456 4557 4556 5566 5567 5668 5667 4456 4457 4558 4557 5567 5568 5669 5668 4457 4458 4559 4558 5568 5569 5670 5669 4458 4459 4560 4559 5569 5570 5671 5670 4459 4460 4561 4560 5570 5571 5672 5671 4460 4461 4562 4561 5571 5572 5673 5672 4461 4462 4563 4562 5572 5573 5674 5673 4462 4463 4564 4563 5573 5574 5675 5674 4463 4464 4565 4564 5574 5575 5676 5675 4464 4465 4566 4565 5575 5576 5677 5676 4465 4466 4567 4566 5576 5577 5678 5677 4466 4467 4568 4567 5577 5578 5679 5678 4467 4468 4569 4568 5578 5579 5680 5679 4468 4469 4570 4569 5579 5580 5681 5680 4469 4470 4571 4570 5580 5581 5682 5681 4470 4471 4572 4571 5581 5582 5683 5682 4471 4472 4573 4572 5582 5583 5684 5683 4472 4473 4574 4573 5583 5584 5685 5684 4473 4474 4575 4574 5584 5585 5686 5685 4474 4475 4576 4575 5585 5586 5687 5686 4475 4476 4577 4576 5586 5587 5688 5687 4476 4477 4578 4577 5587 5588 5689 5688 4477 4478 4579 4578 5588 5589 5690 5689 4478 4479 4580 4579 5589 5590 5691 5690 4479 4480 4581 4580 5590 5591 5692 5691 4480 4481 4582 4581 5591 5592 5693 5692 4481 4482 4583 4582 5592 5593 5694 5693 4482 4483 4584 4583 5593 5594 5695 5694 4483 4484 4585 4584 5594 5595 5696 5695 4484 4485 4586 4585 5595 5596 5697 5696 4485 4486 4587 4586 5596 5597 5698 5697 4486 4487 4588 4587 5597 5598 5699 5698 4487 4488 4589 4588 5598 5599 5700 5699 4488 4489 4590 4589 5599 5600 5701 5700 4489 4490 4591 4590 5600 5601 5702 5701 4490 4491 4592 4591 5601 5602 5703 5702 4491 4492 4593 4592 5602 5603 5704 5703 4492 4493 4594 4593 5603 5604 5705 5704 4493 4494 4595 4594 5604 5605 5706 5705 4494 4495 4596 4595 5605 5606 5707 5706 4495 4496 4597 4596 5606 5607 5708 5707 4496 4497 4598 4597 5607 5608 5709 5708 4497 4498 4599 4598 5608 5609 5710 5709 4498 4499 4600 4599 5609 5610 5711 5710 4499 4500 4601 4600 5610 5611 5712 5711 4500 4501 4602 4601 5611 5612 5713 5712 4501 4502 4603 4602 5612 5613 5714 5713 4502 4503 4604 4603 5613 5614 5715 5714 4503 4504 4605 4604 5614 5615 5716 5715 4504 4505 4606 4605 5615 5616 5717 5716 4505 4506 4607 4606 5616 5617 5718 5717 4506 4507 4608 4607 5617 5618 5719 5718 4507 4508 4609 4608 5618 5619 5720 5719 4508 4509 4610 4609 5619 5620 5721 5720 4509 4510 4611 4610 5620 5621 5722 5721 4510 4511 4612 4611 5621 5622 5723 5722 4511 4512 4613 4612 5622 5623 5724 5723 4512 4513 4614 4613 5623 5624 5725 5724 4513 4514 4615 4614 5624 5625 5726 5725 4514 4515 4616 4615 5625 5626 5727 5726 4515 4516 4617 4616 5626 5627 5728 5727 4516 4517 4618 4617 5627 5628 5729 5728 4517 4518 4619 4618 5628 5629 5730 5729 4518 4519 4620 4619 5629 5630 5731 5730 4519 4520 4621 4620 5630 5631 5732 5731 4520 4521 4622 4621 5631 5632 5733 5732 4521 4522 4623 4622 5632 5633 5734 5733 4522 4523 4624 4623 5633 5634 5735 5734 4523 4524 4625 4624 5634 5635 5736 5735 4524 4525 4626 4625 5635 5636 5737 5736 4525 4526 4627 4626 5636 5637 5738 5737 4526 4527 4628 4627 5637 5638 5739 5738 4527 4528 4629 4628 5638 5639 5740 5739 4528 4529 4630 4629 5639 5640 5741 5740 4529 4530 4631 4630 5640 5641 5742 5741 4530 4531 4632 4631 5641 5642 5743 5742 4531 4532 4633 4632 5642 5643 5744 5743 4532 4533 4634 4633 5643 5644 5745 5744 4533 4534 4635 4634 5644 5645 5746 5745 4534 4535 4636 4635 5645 5646 5747 5746 4535 4536 4637 4636 5646 5647 5748 5747 4536 4537 4638 4637 5647 5648 5749 5748 4537 4538 4639 4638 5648 5649 5750 5749 4538 4539 4640 4639 5649 5650 5751 5750 4539 4540 4641 4640 5650 5651 5752 5751 4540 4541 4642 4641 5651 5652 5753 5752 4541 4542 4643 4642 5652 5653 5754 5753 4542 4543 4644 4643 5653 5654 5755 5754 4543 4544 4645 4644 5654 5655 5756 5755 4545 4546 4647 4646 5656 5657 5758 5757 4546 4547 4648 4647 5657 5658 5759 5758 4547 4548 4649 4648 5658 5659 5760 5759 4548 4549 4650 4649 5659 5660 5761 5760 4549 4550 4651 4650 5660 5661 5762 5761 4550 4551 4652 4651 5661 5662 5763 5762 4551 4552 4653 4652 5662 5663 5764 5763 4552 4553 4654 4653 5663 5664 5765 5764 4553 4554 4655 4654 5664 5665 5766 5765 4554 4555 4656 4655 5665 5666 5767 5766 4555 4556 4657 4656 5666 5667 5768 5767 4556 4557 4658 4657 5667 5668 5769 5768 4557 4558 4659 4658 5668 5669 5770 5769 4558 4559 4660 4659 5669 5670 5771 5770 4559 4560 4661 4660 5670 5671 5772 5771 4560 4561 4662 4661 5671 5672 5773 5772 4561 4562 4663 4662 5672 5673 5774 5773 4562 4563 4664 4663 5673 5674 5775 5774 4563 4564 4665 4664 5674 5675 5776 5775 4564 4565 4666 4665 5675 5676 5777 5776 4565 4566 4667 4666 5676 5677 5778 5777 4566 4567 4668 4667 5677 5678 5779 5778 4567 4568 4669 4668 5678 5679 5780 5779 4568 4569 4670 4669 5679 5680 5781 5780 4569 4570 4671 4670 5680 5681 5782 5781 4570 4571 4672 4671 5681 5682 5783 5782 4571 4572 4673 4672 5682 5683 5784 5783 4572 4573 4674 4673 5683 5684 5785 5784 4573 4574 4675 4674 5684 5685 5786 5785 4574 4575 4676 4675 5685 5686 5787 5786 4575 4576 4677 4676 5686 5687 5788 5787 4576 4577 4678 4677 5687 5688 5789 5788 4577 4578 4679 4678 5688 5689 5790 5789 4578 4579 4680 4679 5689 5690 5791 5790 4579 4580 4681 4680 5690 5691 5792 5791 4580 4581 4682 4681 5691 5692 5793 5792 4581 4582 4683 4682 5692 5693 5794 5793 4582 4583 4684 4683 5693 5694 5795 5794 4583 4584 4685 4684 5694 5695 5796 5795 4584 4585 4686 4685 5695 5696 5797 5796 4585 4586 4687 4686 5696 5697 5798 5797 4586 4587 4688 4687 5697 5698 5799 5798 4587 4588 4689 4688 5698 5699 5800 5799 4588 4589 4690 4689 5699 5700 5801 5800 4589 4590 4691 4690 5700 5701 5802 5801 4590 4591 4692 4691 5701 5702 5803 5802 4591 4592 4693 4692 5702 5703 5804 5803 4592 4593 4694 4693 5703 5704 5805 5804 4593 4594 4695 4694 5704 5705 5806 5805 4594 4595 4696 4695 5705 5706 5807 5806 4595 4596 4697 4696 5706 5707 5808 5807 4596 4597 4698 4697 5707 5708 5809 5808 4597 4598 4699 4698 5708 5709 5810 5809 4598 4599 4700 4699 5709 5710 5811 5810 4599 4600 4701 4700 5710 5711 5812 5811 4600 4601 4702 4701 5711 5712 5813 5812 4601 4602 4703 4702 5712 5713 5814 5813 4602 4603 4704 4703 5713 5714 5815 5814 4603 4604 4705 4704 5714 5715 5816 5815 4604 4605 4706 4705 5715 5716 5817 5816 4605 4606 4707 4706 5716 5717 5818 5817 4606 4607 4708 4707 5717 5718 5819 5818 4607 4608 4709 4708 5718 5719 5820 5819 4608 4609 4710 4709 5719 5720 5821 5820 4609 4610 4711 4710 5720 5721 5822 5821 4610 4611 4712 4711 5721 5722 5823 5822 4611 4612 4713 4712 5722 5723 5824 5823 4612 4613 4714 4713 5723 5724 5825 5824 4613 4614 4715 4714 5724 5725 5826 5825 4614 4615 4716 4715 5725 5726 5827 5826 4615 4616 4717 4716 5726 5727 5828 5827 4616 4617 4718 4717 5727 5728 5829 5828 4617 4618 4719 4718 5728 5729 5830 5829 4618 4619 4720 4719 5729 5730 5831 5830 4619 4620 4721 4720 5730 5731 5832 5831 4620 4621 4722 4721 5731 5732 5833 5832 4621 4622 4723 4722 5732 5733 5834 5833 4622 4623 4724 4723 5733 5734 5835 5834 4623 4624 4725 4724 5734 5735 5836 5835 4624 4625 4726 4725 5735 5736 5837 5836 4625 4626 4727 4726 5736 5737 5838 5837 4626 4627 4728 4727 5737 5738 5839 5838 4627 4628 4729 4728 5738 5739 5840 5839 4628 4629 4730 4729 5739 5740 5841 5840 4629 4630 4731 4730 5740 5741 5842 5841 4630 4631 4732 4731 5741 5742 5843 5842 4631 4632 4733 4732 5742 5743 5844 5843 4632 4633 4734 4733 5743 5744 5845 5844 4633 4634 4735 4734 5744 5745 5846 5845 4634 4635 4736 4735 5745 5746 5847 5846 4635 4636 4737 4736 5746 5747 5848 5847 4636 4637 4738 4737 5747 5748 5849 5848 4637 4638 4739 4738 5748 5749 5850 5849 4638 4639 4740 4739 5749 5750 5851 5850 4639 4640 4741 4740 5750 5751 5852 5851 4640 4641 4742 4741 5751 5752 5853 5852 4641 4642 4743 4742 5752 5753 5854 5853 4642 4643 4744 4743 5753 5754 5855 5854 4643 4644 4745 4744 5754 5755 5856 5855 4644 4645 4746 4745 5755 5756 5857 5856 4646 4647 4748 4747 5757 5758 5859 5858 4647 4648 4749 4748 5758 5759 5860 5859 4648 4649 4750 4749 5759 5760 5861 5860 4649 4650 4751 4750 5760 5761 5862 5861 4650 4651 4752 4751 5761 5762 5863 5862 4651 4652 4753 4752 5762 5763 5864 5863 4652 4653 4754 4753 5763 5764 5865 5864 4653 4654 4755 4754 5764 5765 5866 5865 4654 4655 4756 4755 5765 5766 5867 5866 4655 4656 4757 4756 5766 5767 5868 5867 4656 4657 4758 4757 5767 5768 5869 5868 4657 4658 4759 4758 5768 5769 5870 5869 4658 4659 4760 4759 5769 5770 5871 5870 4659 4660 4761 4760 5770 5771 5872 5871 4660 4661 4762 4761 5771 5772 5873 5872 4661 4662 4763 4762 5772 5773 5874 5873 4662 4663 4764 4763 5773 5774 5875 5874 4663 4664 4765 4764 5774 5775 5876 5875 4664 4665 4766 4765 5775 5776 5877 5876 4665 4666 4767 4766 5776 5777 5878 5877 4666 4667 4768 4767 5777 5778 5879 5878 4667 4668 4769 4768 5778 5779 5880 5879 4668 4669 4770 4769 5779 5780 5881 5880 4669 4670 4771 4770 5780 5781 5882 5881 4670 4671 4772 4771 5781 5782 5883 5882 4671 4672 4773 4772 5782 5783 5884 5883 4672 4673 4774 4773 5783 5784 5885 5884 4673 4674 4775 4774 5784 5785 5886 5885 4674 4675 4776 4775 5785 5786 5887 5886 4675 4676 4777 4776 5786 5787 5888 5887 4676 4677 4778 4777 5787 5788 5889 5888 4677 4678 4779 4778 5788 5789 5890 5889 4678 4679 4780 4779 5789 5790 5891 5890 4679 4680 4781 4780 5790 5791 5892 5891 4680 4681 4782 4781 5791 5792 5893 5892 4681 4682 4783 4782 5792 5793 5894 5893 4682 4683 4784 4783 5793 5794 5895 5894 4683 4684 4785 4784 5794 5795 5896 5895 4684 4685 4786 4785 5795 5796 5897 5896 4685 4686 4787 4786 5796 5797 5898 5897 4686 4687 4788 4787 5797 5798 5899 5898 4687 4688 4789 4788 5798 5799 5900 5899 4688 4689 4790 4789 5799 5800 5901 5900 4689 4690 4791 4790 5800 5801 5902 5901 4690 4691 4792 4791 5801 5802 5903 5902 4691 4692 4793 4792 5802 5803 5904 5903 4692 4693 4794 4793 5803 5804 5905 5904 4693 4694 4795 4794 5804 5805 5906 5905 4694 4695 4796 4795 5805 5806 5907 5906 4695 4696 4797 4796 5806 5807 5908 5907 4696 4697 4798 4797 5807 5808 5909 5908 4697 4698 4799 4798 5808 5809 5910 5909 4698 4699 4800 4799 5809 5810 5911 5910 4699 4700 4801 4800 5810 5811 5912 5911 4700 4701 4802 4801 5811 5812 5913 5912 4701 4702 4803 4802 5812 5813 5914 5913 4702 4703 4804 4803 5813 5814 5915 5914 4703 4704 4805 4804 5814 5815 5916 5915 4704 4705 4806 4805 5815 5816 5917 5916 4705 4706 4807 4806 5816 5817 5918 5917 4706 4707 4808 4807 5817 5818 5919 5918 4707 4708 4809 4808 5818 5819 5920 5919 4708 4709 4810 4809 5819 5820 5921 5920 4709 4710 4811 4810 5820 5821 5922 5921 4710 4711 4812 4811 5821 5822 5923 5922 4711 4712 4813 4812 5822 5823 5924 5923 4712 4713 4814 4813 5823 5824 5925 5924 4713 4714 4815 4814 5824 5825 5926 5925 4714 4715 4816 4815 5825 5826 5927 5926 4715 4716 4817 4816 5826 5827 5928 5927 4716 4717 4818 4817 5827 5828 5929 5928 4717 4718 4819 4818 5828 5829 5930 5929 4718 4719 4820 4819 5829 5830 5931 5930 4719 4720 4821 4820 5830 5831 5932 5931 4720 4721 4822 4821 5831 5832 5933 5932 4721 4722 4823 4822 5832 5833 5934 5933 4722 4723 4824 4823 5833 5834 5935 5934 4723 4724 4825 4824 5834 5835 5936 5935 4724 4725 4826 4825 5835 5836 5937 5936 4725 4726 4827 4826 5836 5837 5938 5937 4726 4727 4828 4827 5837 5838 5939 5938 4727 4728 4829 4828 5838 5839 5940 5939 4728 4729 4830 4829 5839 5840 5941 5940 4729 4730 4831 4830 5840 5841 5942 5941 4730 4731 4832 4831 5841 5842 5943 5942 4731 4732 4833 4832 5842 5843 5944 5943 4732 4733 4834 4833 5843 5844 5945 5944 4733 4734 4835 4834 5844 5845 5946 5945 4734 4735 4836 4835 5845 5846 5947 5946 4735 4736 4837 4836 5846 5847 5948 5947 4736 4737 4838 4837 5847 5848 5949 5948 4737 4738 4839 4838 5848 5849 5950 5949 4738 4739 4840 4839 5849 5850 5951 5950 4739 4740 4841 4840 5850 5851 5952 5951 4740 4741 4842 4841 5851 5852 5953 5952 4741 4742 4843 4842 5852 5853 5954 5953 4742 4743 4844 4843 5853 5854 5955 5954 4743 4744 4845 4844 5854 5855 5956 5955 4744 4745 4846 4845 5855 5856 5957 5956 4745 4746 4847 4846 5856 5857 5958 5957 4747 4748 4849 4848 5858 5859 5960 5959 4748 4749 4850 4849 5859 5860 5961 5960 4749 4750 4851 4850 5860 5861 5962 5961 4750 4751 4852 4851 5861 5862 5963 5962 4751 4752 4853 4852 5862 5863 5964 5963 4752 4753 4854 4853 5863 5864 5965 5964 4753 4754 4855 4854 5864 5865 5966 5965 4754 4755 4856 4855 5865 5866 5967 5966 4755 4756 4857 4856 5866 5867 5968 5967 4756 4757 4858 4857 5867 5868 5969 5968 4757 4758 4859 4858 5868 5869 5970 5969 4758 4759 4860 4859 5869 5870 5971 5970 4759 4760 4861 4860 5870 5871 5972 5971 4760 4761 4862 4861 5871 5872 5973 5972 4761 4762 4863 4862 5872 5873 5974 5973 4762 4763 4864 4863 5873 5874 5975 5974 4763 4764 4865 4864 5874 5875 5976 5975 4764 4765 4866 4865 5875 5876 5977 5976 4765 4766 4867 4866 5876 5877 5978 5977 4766 4767 4868 4867 5877 5878 5979 5978 4767 4768 4869 4868 5878 5879 5980 5979 4768 4769 4870 4869 5879 5880 5981 5980 4769 4770 4871 4870 5880 5881 5982 5981 4770 4771 4872 4871 5881 5882 5983 5982 4771 4772 4873 4872 5882 5883 5984 5983 4772 4773 4874 4873 5883 5884 5985 5984 4773 4774 4875 4874 5884 5885 5986 5985 4774 4775 4876 4875 5885 5886 5987 5986 4775 4776 4877 4876 5886 5887 5988 5987 4776 4777 4878 4877 5887 5888 5989 5988 4777 4778 4879 4878 5888 5889 5990 5989 4778 4779 4880 4879 5889 5890 5991 5990 4779 4780 4881 4880 5890 5891 5992 5991 4780 4781 4882 4881 5891 5892 5993 5992 4781 4782 4883 4882 5892 5893 5994 5993 4782 4783 4884 4883 5893 5894 5995 5994 4783 4784 4885 4884 5894 5895 5996 5995 4784 4785 4886 4885 5895 5896 5997 5996 4785 4786 4887 4886 5896 5897 5998 5997 4786 4787 4888 4887 5897 5898 5999 5998 4787 4788 4889 4888 5898 5899 6000 5999 4788 4789 4890 4889 5899 5900 6001 6000 4789 4790 4891 4890 5900 5901 6002 6001 4790 4791 4892 4891 5901 5902 6003 6002 4791 4792 4893 4892 5902 5903 6004 6003 4792 4793 4894 4893 5903 5904 6005 6004 4793 4794 4895 4894 5904 5905 6006 6005 4794 4795 4896 4895 5905 5906 6007 6006 4795 4796 4897 4896 5906 5907 6008 6007 4796 4797 4898 4897 5907 5908 6009 6008 4797 4798 4899 4898 5908 5909 6010 6009 4798 4799 4900 4899 5909 5910 6011 6010 4799 4800 4901 4900 5910 5911 6012 6011 4800 4801 4902 4901 5911 5912 6013 6012 4801 4802 4903 4902 5912 5913 6014 6013 4802 4803 4904 4903 5913 5914 6015 6014 4803 4804 4905 4904 5914 5915 6016 6015 4804 4805 4906 4905 5915 5916 6017 6016 4805 4806 4907 4906 5916 5917 6018 6017 4806 4807 4908 4907 5917 5918 6019 6018 4807 4808 4909 4908 5918 5919 6020 6019 4808 4809 4910 4909 5919 5920 6021 6020 4809 4810 4911 4910 5920 5921 6022 6021 4810 4811 4912 4911 5921 5922 6023 6022 4811 4812 4913 4912 5922 5923 6024 6023 4812 4813 4914 4913 5923 5924 6025 6024 4813 4814 4915 4914 5924 5925 6026 6025 4814 4815 4916 4915 5925 5926 6027 6026 4815 4816 4917 4916 5926 5927 6028 6027 4816 4817 4918 4917 5927 5928 6029 6028 4817 4818 4919 4918 5928 5929 6030 6029 4818 4819 4920 4919 5929 5930 6031 6030 4819 4820 4921 4920 5930 5931 6032 6031 4820 4821 4922 4921 5931 5932 6033 6032 4821 4822 4923 4922 5932 5933 6034 6033 4822 4823 4924 4923 5933 5934 6035 6034 4823 4824 4925 4924 5934 5935 6036 6035 4824 4825 4926 4925 5935 5936 6037 6036 4825 4826 4927 4926 5936 5937 6038 6037 4826 4827 4928 4927 5937 5938 6039 6038 4827 4828 4929 4928 5938 5939 6040 6039 4828 4829 4930 4929 5939 5940 6041 6040 4829 4830 4931 4930 5940 5941 6042 6041 4830 4831 4932 4931 5941 5942 6043 6042 4831 4832 4933 4932 5942 5943 6044 6043 4832 4833 4934 4933 5943 5944 6045 6044 4833 4834 4935 4934 5944 5945 6046 6045 4834 4835 4936 4935 5945 5946 6047 6046 4835 4836 4937 4936 5946 5947 6048 6047 4836 4837 4938 4937 5947 5948 6049 6048 4837 4838 4939 4938 5948 5949 6050 6049 4838 4839 4940 4939 5949 5950 6051 6050 4839 4840 4941 4940 5950 5951 6052 6051 4840 4841 4942 4941 5951 5952 6053 6052 4841 4842 4943 4942 5952 5953 6054 6053 4842 4843 4944 4943 5953 5954 6055 6054 4843 4844 4945 4944 5954 5955 6056 6055 4844 4845 4946 4945 5955 5956 6057 6056 4845 4846 4947 4946 5956 5957 6058 6057 4846 4847 4948 4947 5957 5958 6059 6058 4848 4849 4950 4949 5959 5960 6061 6060 4849 4850 4951 4950 5960 5961 6062 6061 4850 4851 4952 4951 5961 5962 6063 6062 4851 4852 4953 4952 5962 5963 6064 6063 4852 4853 4954 4953 5963 5964 6065 6064 4853 4854 4955 4954 5964 5965 6066 6065 4854 4855 4956 4955 5965 5966 6067 6066 4855 4856 4957 4956 5966 5967 6068 6067 4856 4857 4958 4957 5967 5968 6069 6068 4857 4858 4959 4958 5968 5969 6070 6069 4858 4859 4960 4959 5969 5970 6071 6070 4859 4860 4961 4960 5970 5971 6072 6071 4860 4861 4962 4961 5971 5972 6073 6072 4861 4862 4963 4962 5972 5973 6074 6073 4862 4863 4964 4963 5973 5974 6075 6074 4863 4864 4965 4964 5974 5975 6076 6075 4864 4865 4966 4965 5975 5976 6077 6076 4865 4866 4967 4966 5976 5977 6078 6077 4866 4867 4968 4967 5977 5978 6079 6078 4867 4868 4969 4968 5978 5979 6080 6079 4868 4869 4970 4969 5979 5980 6081 6080 4869 4870 4971 4970 5980 5981 6082 6081 4870 4871 4972 4971 5981 5982 6083 6082 4871 4872 4973 4972 5982 5983 6084 6083 4872 4873 4974 4973 5983 5984 6085 6084 4873 4874 4975 4974 5984 5985 6086 6085 4874 4875 4976 4975 5985 5986 6087 6086 4875 4876 4977 4976 5986 5987 6088 6087 4876 4877 4978 4977 5987 5988 6089 6088 4877 4878 4979 4978 5988 5989 6090 6089 4878 4879 4980 4979 5989 5990 6091 6090 4879 4880 4981 4980 5990 5991 6092 6091 4880 4881 4982 4981 5991 5992 6093 6092 4881 4882 4983 4982 5992 5993 6094 6093 4882 4883 4984 4983 5993 5994 6095 6094 4883 4884 4985 4984 5994 5995 6096 6095 4884 4885 4986 4985 5995 5996 6097 6096 4885 4886 4987 4986 5996 5997 6098 6097 4886 4887 4988 4987 5997 5998 6099 6098 4887 4888 4989 4988 5998 5999 6100 6099 4888 4889 4990 4989 5999 6000 6101 6100 4889 4890 4991 4990 6000 6001 6102 6101 4890 4891 4992 4991 6001 6002 6103 6102 4891 4892 4993 4992 6002 6003 6104 6103 4892 4893 4994 4993 6003 6004 6105 6104 4893 4894 4995 4994 6004 6005 6106 6105 4894 4895 4996 4995 6005 6006 6107 6106 4895 4896 4997 4996 6006 6007 6108 6107 4896 4897 4998 4997 6007 6008 6109 6108 4897 4898 4999 4998 6008 6009 6110 6109 4898 4899 5000 4999 6009 6010 6111 6110 4899 4900 5001 5000 6010 6011 6112 6111 4900 4901 5002 5001 6011 6012 6113 6112 4901 4902 5003 5002 6012 6013 6114 6113 4902 4903 5004 5003 6013 6014 6115 6114 4903 4904 5005 5004 6014 6015 6116 6115 4904 4905 5006 5005 6015 6016 6117 6116 4905 4906 5007 5006 6016 6017 6118 6117 4906 4907 5008 5007 6017 6018 6119 6118 4907 4908 5009 5008 6018 6019 6120 6119 4908 4909 5010 5009 6019 6020 6121 6120 4909 4910 5011 5010 6020 6021 6122 6121 4910 4911 5012 5011 6021 6022 6123 6122 4911 4912 5013 5012 6022 6023 6124 6123 4912 4913 5014 5013 6023 6024 6125 6124 4913 4914 5015 5014 6024 6025 6126 6125 4914 4915 5016 5015 6025 6026 6127 6126 4915 4916 5017 5016 6026 6027 6128 6127 4916 4917 5018 5017 6027 6028 6129 6128 4917 4918 5019 5018 6028 6029 6130 6129 4918 4919 5020 5019 6029 6030 6131 6130 4919 4920 5021 5020 6030 6031 6132 6131 4920 4921 5022 5021 6031 6032 6133 6132 4921 4922 5023 5022 6032 6033 6134 6133 4922 4923 5024 5023 6033 6034 6135 6134 4923 4924 5025 5024 6034 6035 6136 6135 4924 4925 5026 5025 6035 6036 6137 6136 4925 4926 5027 5026 6036 6037 6138 6137 4926 4927 5028 5027 6037 6038 6139 6138 4927 4928 5029 5028 6038 6039 6140 6139 4928 4929 5030 5029 6039 6040 6141 6140 4929 4930 5031 5030 6040 6041 6142 6141 4930 4931 5032 5031 6041 6042 6143 6142 4931 4932 5033 5032 6042 6043 6144 6143 4932 4933 5034 5033 6043 6044 6145 6144 4933 4934 5035 5034 6044 6045 6146 6145 4934 4935 5036 5035 6045 6046 6147 6146 4935 4936 5037 5036 6046 6047 6148 6147 4936 4937 5038 5037 6047 6048 6149 6148 4937 4938 5039 5038 6048 6049 6150 6149 4938 4939 5040 5039 6049 6050 6151 6150 4939 4940 5041 5040 6050 6051 6152 6151 4940 4941 5042 5041 6051 6052 6153 6152 4941 4942 5043 5042 6052 6053 6154 6153 4942 4943 5044 5043 6053 6054 6155 6154 4943 4944 5045 5044 6054 6055 6156 6155 4944 4945 5046 5045 6055 6056 6157 6156 4945 4946 5047 5046 6056 6057 6158 6157 4946 4947 5048 5047 6057 6058 6159 6158 4947 4948 5049 5048 6058 6059 6160 6159 4949 4950 5051 5050 6060 6061 6162 6161 4950 4951 5052 5051 6061 6062 6163 6162 4951 4952 5053 5052 6062 6063 6164 6163 4952 4953 5054 5053 6063 6064 6165 6164 4953 4954 5055 5054 6064 6065 6166 6165 4954 4955 5056 5055 6065 6066 6167 6166 4955 4956 5057 5056 6066 6067 6168 6167 4956 4957 5058 5057 6067 6068 6169 6168 4957 4958 5059 5058 6068 6069 6170 6169 4958 4959 5060 5059 6069 6070 6171 6170 4959 4960 5061 5060 6070 6071 6172 6171 4960 4961 5062 5061 6071 6072 6173 6172 4961 4962 5063 5062 6072 6073 6174 6173 4962 4963 5064 5063 6073 6074 6175 6174 4963 4964 5065 5064 6074 6075 6176 6175 4964 4965 5066 5065 6075 6076 6177 6176 4965 4966 5067 5066 6076 6077 6178 6177 4966 4967 5068 5067 6077 6078 6179 6178 4967 4968 5069 5068 6078 6079 6180 6179 4968 4969 5070 5069 6079 6080 6181 6180 4969 4970 5071 5070 6080 6081 6182 6181 4970 4971 5072 5071 6081 6082 6183 6182 4971 4972 5073 5072 6082 6083 6184 6183 4972 4973 5074 5073 6083 6084 6185 6184 4973 4974 5075 5074 6084 6085 6186 6185 4974 4975 5076 5075 6085 6086 6187 6186 4975 4976 5077 5076 6086 6087 6188 6187 4976 4977 5078 5077 6087 6088 6189 6188 4977 4978 5079 5078 6088 6089 6190 6189 4978 4979 5080 5079 6089 6090 6191 6190 4979 4980 5081 5080 6090 6091 6192 6191 4980 4981 5082 5081 6091 6092 6193 6192 4981 4982 5083 5082 6092 6093 6194 6193 4982 4983 5084 5083 6093 6094 6195 6194 4983 4984 5085 5084 6094 6095 6196 6195 4984 4985 5086 5085 6095 6096 6197 6196 4985 4986 5087 5086 6096 6097 6198 6197 4986 4987 5088 5087 6097 6098 6199 6198 4987 4988 5089 5088 6098 6099 6200 6199 4988 4989 5090 5089 6099 6100 6201 6200 4989 4990 5091 5090 6100 6101 6202 6201 4990 4991 5092 5091 6101 6102 6203 6202 4991 4992 5093 5092 6102 6103 6204 6203 4992 4993 5094 5093 6103 6104 6205 6204 4993 4994 5095 5094 6104 6105 6206 6205 4994 4995 5096 5095 6105 6106 6207 6206 4995 4996 5097 5096 6106 6107 6208 6207 4996 4997 5098 5097 6107 6108 6209 6208 4997 4998 5099 5098 6108 6109 6210 6209 4998 4999 5100 5099 6109 6110 6211 6210 4999 5000 5101 5100 6110 6111 6212 6211 5000 5001 5102 5101 6111 6112 6213 6212 5001 5002 5103 5102 6112 6113 6214 6213 5002 5003 5104 5103 6113 6114 6215 6214 5003 5004 5105 5104 6114 6115 6216 6215 5004 5005 5106 5105 6115 6116 6217 6216 5005 5006 5107 5106 6116 6117 6218 6217 5006 5007 5108 5107 6117 6118 6219 6218 5007 5008 5109 5108 6118 6119 6220 6219 5008 5009 5110 5109 6119 6120 6221 6220 5009 5010 5111 5110 6120 6121 6222 6221 5010 5011 5112 5111 6121 6122 6223 6222 5011 5012 5113 5112 6122 6123 6224 6223 5012 5013 5114 5113 6123 6124 6225 6224 5013 5014 5115 5114 6124 6125 6226 6225 5014 5015 5116 5115 6125 6126 6227 6226 5015 5016 5117 5116 6126 6127 6228 6227 5016 5017 5118 5117 6127 6128 6229 6228 5017 5018 5119 5118 6128 6129 6230 6229 5018 5019 5120 5119 6129 6130 6231 6230 5019 5020 5121 5120 6130 6131 6232 6231 5020 5021 5122 5121 6131 6132 6233 6232 5021 5022 5123 5122 6132 6133 6234 6233 5022 5023 5124 5123 6133 6134 6235 6234 5023 5024 5125 5124 6134 6135 6236 6235 5024 5025 5126 5125 6135 6136 6237 6236 5025 5026 5127 5126 6136 6137 6238 6237 5026 5027 5128 5127 6137 6138 6239 6238 5027 5028 5129 5128 6138 6139 6240 6239 5028 5029 5130 5129 6139 6140 6241 6240 5029 5030 5131 5130 6140 6141 6242 6241 5030 5031 5132 5131 6141 6142 6243 6242 5031 5032 5133 5132 6142 6143 6244 6243 5032 5033 5134 5133 6143 6144 6245 6244 5033 5034 5135 5134 6144 6145 6246 6245 5034 5035 5136 5135 6145 6146 6247 6246 5035 5036 5137 5136 6146 6147 6248 6247 5036 5037 5138 5137 6147 6148 6249 6248 5037 5038 5139 5138 6148 6149 6250 6249 5038 5039 5140 5139 6149 6150 6251 6250 5039 5040 5141 5140 6150 6151 6252 6251 5040 5041 5142 5141 6151 6152 6253 6252 5041 5042 5143 5142 6152 6153 6254 6253 5042 5043 5144 5143 6153 6154 6255 6254 5043 5044 5145 5144 6154 6155 6256 6255 5044 5045 5146 5145 6155 6156 6257 6256 5045 5046 5147 5146 6156 6157 6258 6257 5046 5047 5148 5147 6157 6158 6259 6258 5047 5048 5149 5148 6158 6159 6260 6259 5048 5049 5150 5149 6159 6160 6261 6260 5050 5051 5152 5151 6161 6162 6263 6262 5051 5052 5153 5152 6162 6163 6264 6263 5052 5053 5154 5153 6163 6164 6265 6264 5053 5054 5155 5154 6164 6165 6266 6265 5054 5055 5156 5155 6165 6166 6267 6266 5055 5056 5157 5156 6166 6167 6268 6267 5056 5057 5158 5157 6167 6168 6269 6268 5057 5058 5159 5158 6168 6169 6270 6269 5058 5059 5160 5159 6169 6170 6271 6270 5059 5060 5161 5160 6170 6171 6272 6271 5060 5061 5162 5161 6171 6172 6273 6272 5061 5062 5163 5162 6172 6173 6274 6273 5062 5063 5164 5163 6173 6174 6275 6274 5063 5064 5165 5164 6174 6175 6276 6275 5064 5065 5166 5165 6175 6176 6277 6276 5065 5066 5167 5166 6176 6177 6278 6277 5066 5067 5168 5167 6177 6178 6279 6278 5067 5068 5169 5168 6178 6179 6280 6279 5068 5069 5170 5169 6179 6180 6281 6280 5069 5070 5171 5170 6180 6181 6282 6281 5070 5071 5172 5171 6181 6182 6283 6282 5071 5072 5173 5172 6182 6183 6284 6283 5072 5073 5174 5173 6183 6184 6285 6284 5073 5074 5175 5174 6184 6185 6286 6285 5074 5075 5176 5175 6185 6186 6287 6286 5075 5076 5177 5176 6186 6187 6288 6287 5076 5077 5178 5177 6187 6188 6289 6288 5077 5078 5179 5178 6188 6189 6290 6289 5078 5079 5180 5179 6189 6190 6291 6290 5079 5080 5181 5180 6190 6191 6292 6291 5080 5081 5182 5181 6191 6192 6293 6292 5081 5082 5183 5182 6192 6193 6294 6293 5082 5083 5184 5183 6193 6194 6295 6294 5083 5084 5185 5184 6194 6195 6296 6295 5084 5085 5186 5185 6195 6196 6297 6296 5085 5086 5187 5186 6196 6197 6298 6297 5086 5087 5188 5187 6197 6198 6299 6298 5087 5088 5189 5188 6198 6199 6300 6299 5088 5089 5190 5189 6199 6200 6301 6300 5089 5090 5191 5190 6200 6201 6302 6301 5090 5091 5192 5191 6201 6202 6303 6302 5091 5092 5193 5192 6202 6203 6304 6303 5092 5093 5194 5193 6203 6204 6305 6304 5093 5094 5195 5194 6204 6205 6306 6305 5094 5095 5196 5195 6205 6206 6307 6306 5095 5096 5197 5196 6206 6207 6308 6307 5096 5097 5198 5197 6207 6208 6309 6308 5097 5098 5199 5198 6208 6209 6310 6309 5098 5099 5200 5199 6209 6210 6311 6310 5099 5100 5201 5200 6210 6211 6312 6311 5100 5101 5202 5201 6211 6212 6313 6312 5101 5102 5203 5202 6212 6213 6314 6313 5102 5103 5204 5203 6213 6214 6315 6314 5103 5104 5205 5204 6214 6215 6316 6315 5104 5105 5206 5205 6215 6216 6317 6316 5105 5106 5207 5206 6216 6217 6318 6317 5106 5107 5208 5207 6217 6218 6319 6318 5107 5108 5209 5208 6218 6219 6320 6319 5108 5109 5210 5209 6219 6220 6321 6320 5109 5110 5211 5210 6220 6221 6322 6321 5110 5111 5212 5211 6221 6222 6323 6322 5111 5112 5213 5212 6222 6223 6324 6323 5112 5113 5214 5213 6223 6224 6325 6324 5113 5114 5215 5214 6224 6225 6326 6325 5114 5115 5216 5215 6225 6226 6327 6326 5115 5116 5217 5216 6226 6227 6328 6327 5116 5117 5218 5217 6227 6228 6329 6328 5117 5118 5219 5218 6228 6229 6330 6329 5118 5119 5220 5219 6229 6230 6331 6330 5119 5120 5221 5220 6230 6231 6332 6331 5120 5121 5222 5221 6231 6232 6333 6332 5121 5122 5223 5222 6232 6233 6334 6333 5122 5123 5224 5223 6233 6234 6335 6334 5123 5124 5225 5224 6234 6235 6336 6335 5124 5125 5226 5225 6235 6236 6337 6336 5125 5126 5227 5226 6236 6237 6338 6337 5126 5127 5228 5227 6237 6238 6339 6338 5127 5128 5229 5228 6238 6239 6340 6339 5128 5129 5230 5229 6239 6240 6341 6340 5129 5130 5231 5230 6240 6241 6342 6341 5130 5131 5232 5231 6241 6242 6343 6342 5131 5132 5233 5232 6242 6243 6344 6343 5132 5133 5234 5233 6243 6244 6345 6344 5133 5134 5235 5234 6244 6245 6346 6345 5134 5135 5236 5235 6245 6246 6347 6346 5135 5136 5237 5236 6246 6247 6348 6347 5136 5137 5238 5237 6247 6248 6349 6348 5137 5138 5239 5238 6248 6249 6350 6349 5138 5139 5240 5239 6249 6250 6351 6350 5139 5140 5241 5240 6250 6251 6352 6351 5140 5141 5242 5241 6251 6252 6353 6352 5141 5142 5243 5242 6252 6253 6354 6353 5142 5143 5244 5243 6253 6254 6355 6354 5143 5144 5245 5244 6254 6255 6356 6355 5144 5145 5246 5245 6255 6256 6357 6356 5145 5146 5247 5246 6256 6257 6358 6357 5146 5147 5248 5247 6257 6258 6359 6358 5147 5148 5249 5248 6258 6259 6360 6359 5148 5149 5250 5249 6259 6260 6361 6360 5149 5150 5251 5250 6260 6261 6362 6361 5151 5152 5253 5252 6262 6263 6364 6363 5152 5153 5254 5253 6263 6264 6365 6364 5153 5154 5255 5254 6264 6265 6366 6365 5154 5155 5256 5255 6265 6266 6367 6366 5155 5156 5257 5256 6266 6267 6368 6367 5156 5157 5258 5257 6267 6268 6369 6368 5157 5158 5259 5258 6268 6269 6370 6369 5158 5159 5260 5259 6269 6270 6371 6370 5159 5160 5261 5260 6270 6271 6372 6371 5160 5161 5262 5261 6271 6272 6373 6372 5161 5162 5263 5262 6272 6273 6374 6373 5162 5163 5264 5263 6273 6274 6375 6374 5163 5164 5265 5264 6274 6275 6376 6375 5164 5165 5266 5265 6275 6276 6377 6376 5165 5166 5267 5266 6276 6277 6378 6377 5166 5167 5268 5267 6277 6278 6379 6378 5167 5168 5269 5268 6278 6279 6380 6379 5168 5169 5270 5269 6279 6280 6381 6380 5169 5170 5271 5270 6280 6281 6382 6381 5170 5171 5272 5271 6281 6282 6383 6382 5171 5172 5273 5272 6282 6283 6384 6383 5172 5173 5274 5273 6283 6284 6385 6384 5173 5174 5275 5274 6284 6285 6386 6385 5174 5175 5276 5275 6285 6286 6387 6386 5175 5176 5277 5276 6286 6287 6388 6387 5176 5177 5278 5277 6287 6288 6389 6388 5177 5178 5279 5278 6288 6289 6390 6389 5178 5179 5280 5279 6289 6290 6391 6390 5179 5180 5281 5280 6290 6291 6392 6391 5180 5181 5282 5281 6291 6292 6393 6392 5181 5182 5283 5282 6292 6293 6394 6393 5182 5183 5284 5283 6293 6294 6395 6394 5183 5184 5285 5284 6294 6295 6396 6395 5184 5185 5286 5285 6295 6296 6397 6396 5185 5186 5287 5286 6296 6297 6398 6397 5186 5187 5288 5287 6297 6298 6399 6398 5187 5188 5289 5288 6298 6299 6400 6399 5188 5189 5290 5289 6299 6300 6401 6400 5189 5190 5291 5290 6300 6301 6402 6401 5190 5191 5292 5291 6301 6302 6403 6402 5191 5192 5293 5292 6302 6303 6404 6403 5192 5193 5294 5293 6303 6304 6405 6404 5193 5194 5295 5294 6304 6305 6406 6405 5194 5195 5296 5295 6305 6306 6407 6406 5195 5196 5297 5296 6306 6307 6408 6407 5196 5197 5298 5297 6307 6308 6409 6408 5197 5198 5299 5298 6308 6309 6410 6409 5198 5199 5300 5299 6309 6310 6411 6410 5199 5200 5301 5300 6310 6311 6412 6411 5200 5201 5302 5301 6311 6312 6413 6412 5201 5202 5303 5302 6312 6313 6414 6413 5202 5203 5304 5303 6313 6314 6415 6414 5203 5204 5305 5304 6314 6315 6416 6415 5204 5205 5306 5305 6315 6316 6417 6416 5205 5206 5307 5306 6316 6317 6418 6417 5206 5207 5308 5307 6317 6318 6419 6418 5207 5208 5309 5308 6318 6319 6420 6419 5208 5209 5310 5309 6319 6320 6421 6420 5209 5210 5311 5310 6320 6321 6422 6421 5210 5211 5312 5311 6321 6322 6423 6422 5211 5212 5313 5312 6322 6323 6424 6423 5212 5213 5314 5313 6323 6324 6425 6424 5213 5214 5315 5314 6324 6325 6426 6425 5214 5215 5316 5315 6325 6326 6427 6426 5215 5216 5317 5316 6326 6327 6428 6427 5216 5217 5318 5317 6327 6328 6429 6428 5217 5218 5319 5318 6328 6329 6430 6429 5218 5219 5320 5319 6329 6330 6431 6430 5219 5220 5321 5320 6330 6331 6432 6431 5220 5221 5322 5321 6331 6332 6433 6432 5221 5222 5323 5322 6332 6333 6434 6433 5222 5223 5324 5323 6333 6334 6435 6434 5223 5224 5325 5324 6334 6335 6436 6435 5224 5225 5326 5325 6335 6336 6437 6436 5225 5226 5327 5326 6336 6337 6438 6437 5226 5227 5328 5327 6337 6338 6439 6438 5227 5228 5329 5328 6338 6339 6440 6439 5228 5229 5330 5329 6339 6340 6441 6440 5229 5230 5331 5330 6340 6341 6442 6441 5230 5231 5332 5331 6341 6342 6443 6442 5231 5232 5333 5332 6342 6343 6444 6443 5232 5233 5334 5333 6343 6344 6445 6444 5233 5234 5335 5334 6344 6345 6446 6445 5234 5235 5336 5335 6345 6346 6447 6446 5235 5236 5337 5336 6346 6347 6448 6447 5236 5237 5338 5337 6347 6348 6449 6448 5237 5238 5339 5338 6348 6349 6450 6449 5238 5239 5340 5339 6349 6350 6451 6450 5239 5240 5341 5340 6350 6351 6452 6451 5240 5241 5342 5341 6351 6352 6453 6452 5241 5242 5343 5342 6352 6353 6454 6453 5242 5243 5344 5343 6353 6354 6455 6454 5243 5244 5345 5344 6354 6355 6456 6455 5244 5245 5346 5345 6355 6356 6457 6456 5245 5246 5347 5346 6356 6357 6458 6457 5246 5247 5348 5347 6357 6358 6459 6458 5247 5248 5349 5348 6358 6359 6460 6459 5248 5249 5350 5349 6359 6360 6461 6460 5249 5250 5351 5350 6360 6361 6462 6461 5250 5251 5352 5351 6361 6362 6463 6462 5252 5253 5354 5353 6363 6364 6465 6464 5253 5254 5355 5354 6364 6365 6466 6465 5254 5255 5356 5355 6365 6366 6467 6466 5255 5256 5357 5356 6366 6367 6468 6467 5256 5257 5358 5357 6367 6368 6469 6468 5257 5258 5359 5358 6368 6369 6470 6469 5258 5259 5360 5359 6369 6370 6471 6470 5259 5260 5361 5360 6370 6371 6472 6471 5260 5261 5362 5361 6371 6372 6473 6472 5261 5262 5363 5362 6372 6373 6474 6473 5262 5263 5364 5363 6373 6374 6475 6474 5263 5264 5365 5364 6374 6375 6476 6475 5264 5265 5366 5365 6375 6376 6477 6476 5265 5266 5367 5366 6376 6377 6478 6477 5266 5267 5368 5367 6377 6378 6479 6478 5267 5268 5369 5368 6378 6379 6480 6479 5268 5269 5370 5369 6379 6380 6481 6480 5269 5270 5371 5370 6380 6381 6482 6481 5270 5271 5372 5371 6381 6382 6483 6482 5271 5272 5373 5372 6382 6383 6484 6483 5272 5273 5374 5373 6383 6384 6485 6484 5273 5274 5375 5374 6384 6385 6486 6485 5274 5275 5376 5375 6385 6386 6487 6486 5275 5276 5377 5376 6386 6387 6488 6487 5276 5277 5378 5377 6387 6388 6489 6488 5277 5278 5379 5378 6388 6389 6490 6489 5278 5279 5380 5379 6389 6390 6491 6490 5279 5280 5381 5380 6390 6391 6492 6491 5280 5281 5382 5381 6391 6392 6493 6492 5281 5282 5383 5382 6392 6393 6494 6493 5282 5283 5384 5383 6393 6394 6495 6494 5283 5284 5385 5384 6394 6395 6496 6495 5284 5285 5386 5385 6395 6396 6497 6496 5285 5286 5387 5386 6396 6397 6498 6497 5286 5287 5388 5387 6397 6398 6499 6498 5287 5288 5389 5388 6398 6399 6500 6499 5288 5289 5390 5389 6399 6400 6501 6500 5289 5290 5391 5390 6400 6401 6502 6501 5290 5291 5392 5391 6401 6402 6503 6502 5291 5292 5393 5392 6402 6403 6504 6503 5292 5293 5394 5393 6403 6404 6505 6504 5293 5294 5395 5394 6404 6405 6506 6505 5294 5295 5396 5395 6405 6406 6507 6506 5295 5296 5397 5396 6406 6407 6508 6507 5296 5297 5398 5397 6407 6408 6509 6508 5297 5298 5399 5398 6408 6409 6510 6509 5298 5299 5400 5399 6409 6410 6511 6510 5299 5300 5401 5400 6410 6411 6512 6511 5300 5301 5402 5401 6411 6412 6513 6512 5301 5302 5403 5402 6412 6413 6514 6513 5302 5303 5404 5403 6413 6414 6515 6514 5303 5304 5405 5404 6414 6415 6516 6515 5304 5305 5406 5405 6415 6416 6517 6516 5305 5306 5407 5406 6416 6417 6518 6517 5306 5307 5408 5407 6417 6418 6519 6518 5307 5308 5409 5408 6418 6419 6520 6519 5308 5309 5410 5409 6419 6420 6521 6520 5309 5310 5411 5410 6420 6421 6522 6521 5310 5311 5412 5411 6421 6422 6523 6522 5311 5312 5413 5412 6422 6423 6524 6523 5312 5313 5414 5413 6423 6424 6525 6524 5313 5314 5415 5414 6424 6425 6526 6525 5314 5315 5416 5415 6425 6426 6527 6526 5315 5316 5417 5416 6426 6427 6528 6527 5316 5317 5418 5417 6427 6428 6529 6528 5317 5318 5419 5418 6428 6429 6530 6529 5318 5319 5420 5419 6429 6430 6531 6530 5319 5320 5421 5420 6430 6431 6532 6531 5320 5321 5422 5421 6431 6432 6533 6532 5321 5322 5423 5422 6432 6433 6534 6533 5322 5323 5424 5423 6433 6434 6535 6534 5323 5324 5425 5424 6434 6435 6536 6535 5324 5325 5426 5425 6435 6436 6537 6536 5325 5326 5427 5426 6436 6437 6538 6537 5326 5327 5428 5427 6437 6438 6539 6538 5327 5328 5429 5428 6438 6439 6540 6539 5328 5329 5430 5429 6439 6440 6541 6540 5329 5330 5431 5430 6440 6441 6542 6541 5330 5331 5432 5431 6441 6442 6543 6542 5331 5332 5433 5432 6442 6443 6544 6543 5332 5333 5434 5433 6443 6444 6545 6544 5333 5334 5435 5434 6444 6445 6546 6545 5334 5335 5436 5435 6445 6446 6547 6546 5335 5336 5437 5436 6446 6447 6548 6547 5336 5337 5438 5437 6447 6448 6549 6548 5337 5338 5439 5438 6448 6449 6550 6549 5338 5339 5440 5439 6449 6450 6551 6550 5339 5340 5441 5440 6450 6451 6552 6551 5340 5341 5442 5441 6451 6452 6553 6552 5341 5342 5443 5442 6452 6453 6554 6553 5342 5343 5444 5443 6453 6454 6555 6554 5343 5344 5445 5444 6454 6455 6556 6555 5344 5345 5446 5445 6455 6456 6557 6556 5345 5346 5447 5446 6456 6457 6558 6557 5346 5347 5448 5447 6457 6458 6559 6558 5347 5348 5449 5448 6458 6459 6560 6559 5348 5349 5450 5449 6459 6460 6561 6560 5349 5350 5451 5450 6460 6461 6562 6561 5350 5351 5452 5451 6461 6462 6563 6562 5351 5352 5453 5452 6462 6463 6564 6563 5353 5354 5455 5454 6464 6465 6566 6565 5354 5355 5456 5455 6465 6466 6567 6566 5355 5356 5457 5456 6466 6467 6568 6567 5356 5357 5458 5457 6467 6468 6569 6568 5357 5358 5459 5458 6468 6469 6570 6569 5358 5359 5460 5459 6469 6470 6571 6570 5359 5360 5461 5460 6470 6471 6572 6571 5360 5361 5462 5461 6471 6472 6573 6572 5361 5362 5463 5462 6472 6473 6574 6573 5362 5363 5464 5463 6473 6474 6575 6574 5363 5364 5465 5464 6474 6475 6576 6575 5364 5365 5466 5465 6475 6476 6577 6576 5365 5366 5467 5466 6476 6477 6578 6577 5366 5367 5468 5467 6477 6478 6579 6578 5367 5368 5469 5468 6478 6479 6580 6579 5368 5369 5470 5469 6479 6480 6581 6580 5369 5370 5471 5470 6480 6481 6582 6581 5370 5371 5472 5471 6481 6482 6583 6582 5371 5372 5473 5472 6482 6483 6584 6583 5372 5373 5474 5473 6483 6484 6585 6584 5373 5374 5475 5474 6484 6485 6586 6585 5374 5375 5476 5475 6485 6486 6587 6586 5375 5376 5477 5476 6486 6487 6588 6587 5376 5377 5478 5477 6487 6488 6589 6588 5377 5378 5479 5478 6488 6489 6590 6589 5378 5379 5480 5479 6489 6490 6591 6590 5379 5380 5481 5480 6490 6491 6592 6591 5380 5381 5482 5481 6491 6492 6593 6592 5381 5382 5483 5482 6492 6493 6594 6593 5382 5383 5484 5483 6493 6494 6595 6594 5383 5384 5485 5484 6494 6495 6596 6595 5384 5385 5486 5485 6495 6496 6597 6596 5385 5386 5487 5486 6496 6497 6598 6597 5386 5387 5488 5487 6497 6498 6599 6598 5387 5388 5489 5488 6498 6499 6600 6599 5388 5389 5490 5489 6499 6500 6601 6600 5389 5390 5491 5490 6500 6501 6602 6601 5390 5391 5492 5491 6501 6502 6603 6602 5391 5392 5493 5492 6502 6503 6604 6603 5392 5393 5494 5493 6503 6504 6605 6604 5393 5394 5495 5494 6504 6505 6606 6605 5394 5395 5496 5495 6505 6506 6607 6606 5395 5396 5497 5496 6506 6507 6608 6607 5396 5397 5498 5497 6507 6508 6609 6608 5397 5398 5499 5498 6508 6509 6610 6609 5398 5399 5500 5499 6509 6510 6611 6610 5399 5400 5501 5500 6510 6511 6612 6611 5400 5401 5502 5501 6511 6512 6613 6612 5401 5402 5503 5502 6512 6513 6614 6613 5402 5403 5504 5503 6513 6514 6615 6614 5403 5404 5505 5504 6514 6515 6616 6615 5404 5405 5506 5505 6515 6516 6617 6616 5405 5406 5507 5506 6516 6517 6618 6617 5406 5407 5508 5507 6517 6518 6619 6618 5407 5408 5509 5508 6518 6519 6620 6619 5408 5409 5510 5509 6519 6520 6621 6620 5409 5410 5511 5510 6520 6521 6622 6621 5410 5411 5512 5511 6521 6522 6623 6622 5411 5412 5513 5512 6522 6523 6624 6623 5412 5413 5514 5513 6523 6524 6625 6624 5413 5414 5515 5514 6524 6525 6626 6625 5414 5415 5516 5515 6525 6526 6627 6626 5415 5416 5517 5516 6526 6527 6628 6627 5416 5417 5518 5517 6527 6528 6629 6628 5417 5418 5519 5518 6528 6529 6630 6629 5418 5419 5520 5519 6529 6530 6631 6630 5419 5420 5521 5520 6530 6531 6632 6631 5420 5421 5522 5521 6531 6532 6633 6632 5421 5422 5523 5522 6532 6533 6634 6633 5422 5423 5524 5523 6533 6534 6635 6634 5423 5424 5525 5524 6534 6535 6636 6635 5424 5425 5526 5525 6535 6536 6637 6636 5425 5426 5527 5526 6536 6537 6638 6637 5426 5427 5528 5527 6537 6538 6639 6638 5427 5428 5529 5528 6538 6539 6640 6639 5428 5429 5530 5529 6539 6540 6641 6640 5429 5430 5531 5530 6540 6541 6642 6641 5430 5431 5532 5531 6541 6542 6643 6642 5431 5432 5533 5532 6542 6543 6644 6643 5432 5433 5534 5533 6543 6544 6645 6644 5433 5434 5535 5534 6544 6545 6646 6645 5434 5435 5536 5535 6545 6546 6647 6646 5435 5436 5537 5536 6546 6547 6648 6647 5436 5437 5538 5537 6547 6548 6649 6648 5437 5438 5539 5538 6548 6549 6650 6649 5438 5439 5540 5539 6549 6550 6651 6650 5439 5440 5541 5540 6550 6551 6652 6651 5440 5441 5542 5541 6551 6552 6653 6652 5441 5442 5543 5542 6552 6553 6654 6653 5442 5443 5544 5543 6553 6554 6655 6654 5443 5444 5545 5544 6554 6555 6656 6655 5444 5445 5546 5545 6555 6556 6657 6656 5445 5446 5547 5546 6556 6557 6658 6657 5446 5447 5548 5547 6557 6558 6659 6658 5447 5448 5549 5548 6558 6559 6660 6659 5448 5449 5550 5549 6559 6560 6661 6660 5449 5450 5551 5550 6560 6561 6662 6661 5450 5451 5552 5551 6561 6562 6663 6662 5451 5452 5553 5552 6562 6563 6664 6663 5452 5453 5554 5553 6563 6564 6665 6664 5555 5556 5657 5656 6666 6667 6768 6767 5556 5557 5658 5657 6667 6668 6769 6768 5557 5558 5659 5658 6668 6669 6770 6769 5558 5559 5660 5659 6669 6670 6771 6770 5559 5560 5661 5660 6670 6671 6772 6771 5560 5561 5662 5661 6671 6672 6773 6772 5561 5562 5663 5662 6672 6673 6774 6773 5562 5563 5664 5663 6673 6674 6775 6774 5563 5564 5665 5664 6674 6675 6776 6775 5564 5565 5666 5665 6675 6676 6777 6776 5565 5566 5667 5666 6676 6677 6778 6777 5566 5567 5668 5667 6677 6678 6779 6778 5567 5568 5669 5668 6678 6679 6780 6779 5568 5569 5670 5669 6679 6680 6781 6780 5569 5570 5671 5670 6680 6681 6782 6781 5570 5571 5672 5671 6681 6682 6783 6782 5571 5572 5673 5672 6682 6683 6784 6783 5572 5573 5674 5673 6683 6684 6785 6784 5573 5574 5675 5674 6684 6685 6786 6785 5574 5575 5676 5675 6685 6686 6787 6786 5575 5576 5677 5676 6686 6687 6788 6787 5576 5577 5678 5677 6687 6688 6789 6788 5577 5578 5679 5678 6688 6689 6790 6789 5578 5579 5680 5679 6689 6690 6791 6790 5579 5580 5681 5680 6690 6691 6792 6791 5580 5581 5682 5681 6691 6692 6793 6792 5581 5582 5683 5682 6692 6693 6794 6793 5582 5583 5684 5683 6693 6694 6795 6794 5583 5584 5685 5684 6694 6695 6796 6795 5584 5585 5686 5685 6695 6696 6797 6796 5585 5586 5687 5686 6696 6697 6798 6797 5586 5587 5688 5687 6697 6698 6799 6798 5587 5588 5689 5688 6698 6699 6800 6799 5588 5589 5690 5689 6699 6700 6801 6800 5589 5590 5691 5690 6700 6701 6802 6801 5590 5591 5692 5691 6701 6702 6803 6802 5591 5592 5693 5692 6702 6703 6804 6803 5592 5593 5694 5693 6703 6704 6805 6804 5593 5594 5695 5694 6704 6705 6806 6805 5594 5595 5696 5695 6705 6706 6807 6806 5595 5596 5697 5696 6706 6707 6808 6807 5596 5597 5698 5697 6707 6708 6809 6808 5597 5598 5699 5698 6708 6709 6810 6809 5598 5599 5700 5699 6709 6710 6811 6810 5599 5600 5701 5700 6710 6711 6812 6811 5600 5601 5702 5701 6711 6712 6813 6812 5601 5602 5703 5702 6712 6713 6814 6813 5602 5603 5704 5703 6713 6714 6815 6814 5603 5604 5705 5704 6714 6715 6816 6815 5604 5605 5706 5705 6715 6716 6817 6816 5605 5606 5707 5706 6716 6717 6818 6817 5606 5607 5708 5707 6717 6718 6819 6818 5607 5608 5709 5708 6718 6719 6820 6819 5608 5609 5710 5709 6719 6720 6821 6820 5609 5610 5711 5710 6720 6721 6822 6821 5610 5611 5712 5711 6721 6722 6823 6822 5611 5612 5713 5712 6722 6723 6824 6823 5612 5613 5714 5713 6723 6724 6825 6824 5613 5614 5715 5714 6724 6725 6826 6825 5614 5615 5716 5715 6725 6726 6827 6826 5615 5616 5717 5716 6726 6727 6828 6827 5616 5617 5718 5717 6727 6728 6829 6828 5617 5618 5719 5718 6728 6729 6830 6829 5618 5619 5720 5719 6729 6730 6831 6830 5619 5620 5721 5720 6730 6731 6832 6831 5620 5621 5722 5721 6731 6732 6833 6832 5621 5622 5723 5722 6732 6733 6834 6833 5622 5623 5724 5723 6733 6734 6835 6834 5623 5624 5725 5724 6734 6735 6836 6835 5624 5625 5726 5725 6735 6736 6837 6836 5625 5626 5727 5726 6736 6737 6838 6837 5626 5627 5728 5727 6737 6738 6839 6838 5627 5628 5729 5728 6738 6739 6840 6839 5628 5629 5730 5729 6739 6740 6841 6840 5629 5630 5731 5730 6740 6741 6842 6841 5630 5631 5732 5731 6741 6742 6843 6842 5631 5632 5733 5732 6742 6743 6844 6843 5632 5633 5734 5733 6743 6744 6845 6844 5633 5634 5735 5734 6744 6745 6846 6845 5634 5635 5736 5735 6745 6746 6847 6846 5635 5636 5737 5736 6746 6747 6848 6847 5636 5637 5738 5737 6747 6748 6849 6848 5637 5638 5739 5738 6748 6749 6850 6849 5638 5639 5740 5739 6749 6750 6851 6850 5639 5640 5741 5740 6750 6751 6852 6851 5640 5641 5742 5741 6751 6752 6853 6852 5641 5642 5743 5742 6752 6753 6854 6853 5642 5643 5744 5743 6753 6754 6855 6854 5643 5644 5745 5744 6754 6755 6856 6855 5644 5645 5746 5745 6755 6756 6857 6856 5645 5646 5747 5746 6756 6757 6858 6857 5646 5647 5748 5747 6757 6758 6859 6858 5647 5648 5749 5748 6758 6759 6860 6859 5648 5649 5750 5749 6759 6760 6861 6860 5649 5650 5751 5750 6760 6761 6862 6861 5650 5651 5752 5751 6761 6762 6863 6862 5651 5652 5753 5752 6762 6763 6864 6863 5652 5653 5754 5753 6763 6764 6865 6864 5653 5654 5755 5754 6764 6765 6866 6865 5654 5655 5756 5755 6765 6766 6867 6866 5656 5657 5758 5757 6767 6768 6869 6868 5657 5658 5759 5758 6768 6769 6870 6869 5658 5659 5760 5759 6769 6770 6871 6870 5659 5660 5761 5760 6770 6771 6872 6871 5660 5661 5762 5761 6771 6772 6873 6872 5661 5662 5763 5762 6772 6773 6874 6873 5662 5663 5764 5763 6773 6774 6875 6874 5663 5664 5765 5764 6774 6775 6876 6875 5664 5665 5766 5765 6775 6776 6877 6876 5665 5666 5767 5766 6776 6777 6878 6877 5666 5667 5768 5767 6777 6778 6879 6878 5667 5668 5769 5768 6778 6779 6880 6879 5668 5669 5770 5769 6779 6780 6881 6880 5669 5670 5771 5770 6780 6781 6882 6881 5670 5671 5772 5771 6781 6782 6883 6882 5671 5672 5773 5772 6782 6783 6884 6883 5672 5673 5774 5773 6783 6784 6885 6884 5673 5674 5775 5774 6784 6785 6886 6885 5674 5675 5776 5775 6785 6786 6887 6886 5675 5676 5777 5776 6786 6787 6888 6887 5676 5677 5778 5777 6787 6788 6889 6888 5677 5678 5779 5778 6788 6789 6890 6889 5678 5679 5780 5779 6789 6790 6891 6890 5679 5680 5781 5780 6790 6791 6892 6891 5680 5681 5782 5781 6791 6792 6893 6892 5681 5682 5783 5782 6792 6793 6894 6893 5682 5683 5784 5783 6793 6794 6895 6894 5683 5684 5785 5784 6794 6795 6896 6895 5684 5685 5786 5785 6795 6796 6897 6896 5685 5686 5787 5786 6796 6797 6898 6897 5686 5687 5788 5787 6797 6798 6899 6898 5687 5688 5789 5788 6798 6799 6900 6899 5688 5689 5790 5789 6799 6800 6901 6900 5689 5690 5791 5790 6800 6801 6902 6901 5690 5691 5792 5791 6801 6802 6903 6902 5691 5692 5793 5792 6802 6803 6904 6903 5692 5693 5794 5793 6803 6804 6905 6904 5693 5694 5795 5794 6804 6805 6906 6905 5694 5695 5796 5795 6805 6806 6907 6906 5695 5696 5797 5796 6806 6807 6908 6907 5696 5697 5798 5797 6807 6808 6909 6908 5697 5698 5799 5798 6808 6809 6910 6909 5698 5699 5800 5799 6809 6810 6911 6910 5699 5700 5801 5800 6810 6811 6912 6911 5700 5701 5802 5801 6811 6812 6913 6912 5701 5702 5803 5802 6812 6813 6914 6913 5702 5703 5804 5803 6813 6814 6915 6914 5703 5704 5805 5804 6814 6815 6916 6915 5704 5705 5806 5805 6815 6816 6917 6916 5705 5706 5807 5806 6816 6817 6918 6917 5706 5707 5808 5807 6817 6818 6919 6918 5707 5708 5809 5808 6818 6819 6920 6919 5708 5709 5810 5809 6819 6820 6921 6920 5709 5710 5811 5810 6820 6821 6922 6921 5710 5711 5812 5811 6821 6822 6923 6922 5711 5712 5813 5812 6822 6823 6924 6923 5712 5713 5814 5813 6823 6824 6925 6924 5713 5714 5815 5814 6824 6825 6926 6925 5714 5715 5816 5815 6825 6826 6927 6926 5715 5716 5817 5816 6826 6827 6928 6927 5716 5717 5818 5817 6827 6828 6929 6928 5717 5718 5819 5818 6828 6829 6930 6929 5718 5719 5820 5819 6829 6830 6931 6930 5719 5720 5821 5820 6830 6831 6932 6931 5720 5721 5822 5821 6831 6832 6933 6932 5721 5722 5823 5822 6832 6833 6934 6933 5722 5723 5824 5823 6833 6834 6935 6934 5723 5724 5825 5824 6834 6835 6936 6935 5724 5725 5826 5825 6835 6836 6937 6936 5725 5726 5827 5826 6836 6837 6938 6937 5726 5727 5828 5827 6837 6838 6939 6938 5727 5728 5829 5828 6838 6839 6940 6939 5728 5729 5830 5829 6839 6840 6941 6940 5729 5730 5831 5830 6840 6841 6942 6941 5730 5731 5832 5831 6841 6842 6943 6942 5731 5732 5833 5832 6842 6843 6944 6943 5732 5733 5834 5833 6843 6844 6945 6944 5733 5734 5835 5834 6844 6845 6946 6945 5734 5735 5836 5835 6845 6846 6947 6946 5735 5736 5837 5836 6846 6847 6948 6947 5736 5737 5838 5837 6847 6848 6949 6948 5737 5738 5839 5838 6848 6849 6950 6949 5738 5739 5840 5839 6849 6850 6951 6950 5739 5740 5841 5840 6850 6851 6952 6951 5740 5741 5842 5841 6851 6852 6953 6952 5741 5742 5843 5842 6852 6853 6954 6953 5742 5743 5844 5843 6853 6854 6955 6954 5743 5744 5845 5844 6854 6855 6956 6955 5744 5745 5846 5845 6855 6856 6957 6956 5745 5746 5847 5846 6856 6857 6958 6957 5746 5747 5848 5847 6857 6858 6959 6958 5747 5748 5849 5848 6858 6859 6960 6959 5748 5749 5850 5849 6859 6860 6961 6960 5749 5750 5851 5850 6860 6861 6962 6961 5750 5751 5852 5851 6861 6862 6963 6962 5751 5752 5853 5852 6862 6863 6964 6963 5752 5753 5854 5853 6863 6864 6965 6964 5753 5754 5855 5854 6864 6865 6966 6965 5754 5755 5856 5855 6865 6866 6967 6966 5755 5756 5857 5856 6866 6867 6968 6967 5757 5758 5859 5858 6868 6869 6970 6969 5758 5759 5860 5859 6869 6870 6971 6970 5759 5760 5861 5860 6870 6871 6972 6971 5760 5761 5862 5861 6871 6872 6973 6972 5761 5762 5863 5862 6872 6873 6974 6973 5762 5763 5864 5863 6873 6874 6975 6974 5763 5764 5865 5864 6874 6875 6976 6975 5764 5765 5866 5865 6875 6876 6977 6976 5765 5766 5867 5866 6876 6877 6978 6977 5766 5767 5868 5867 6877 6878 6979 6978 5767 5768 5869 5868 6878 6879 6980 6979 5768 5769 5870 5869 6879 6880 6981 6980 5769 5770 5871 5870 6880 6881 6982 6981 5770 5771 5872 5871 6881 6882 6983 6982 5771 5772 5873 5872 6882 6883 6984 6983 5772 5773 5874 5873 6883 6884 6985 6984 5773 5774 5875 5874 6884 6885 6986 6985 5774 5775 5876 5875 6885 6886 6987 6986 5775 5776 5877 5876 6886 6887 6988 6987 5776 5777 5878 5877 6887 6888 6989 6988 5777 5778 5879 5878 6888 6889 6990 6989 5778 5779 5880 5879 6889 6890 6991 6990 5779 5780 5881 5880 6890 6891 6992 6991 5780 5781 5882 5881 6891 6892 6993 6992 5781 5782 5883 5882 6892 6893 6994 6993 5782 5783 5884 5883 6893 6894 6995 6994 5783 5784 5885 5884 6894 6895 6996 6995 5784 5785 5886 5885 6895 6896 6997 6996 5785 5786 5887 5886 6896 6897 6998 6997 5786 5787 5888 5887 6897 6898 6999 6998 5787 5788 5889 5888 6898 6899 7000 6999 5788 5789 5890 5889 6899 6900 7001 7000 5789 5790 5891 5890 6900 6901 7002 7001 5790 5791 5892 5891 6901 6902 7003 7002 5791 5792 5893 5892 6902 6903 7004 7003 5792 5793 5894 5893 6903 6904 7005 7004 5793 5794 5895 5894 6904 6905 7006 7005 5794 5795 5896 5895 6905 6906 7007 7006 5795 5796 5897 5896 6906 6907 7008 7007 5796 5797 5898 5897 6907 6908 7009 7008 5797 5798 5899 5898 6908 6909 7010 7009 5798 5799 5900 5899 6909 6910 7011 7010 5799 5800 5901 5900 6910 6911 7012 7011 5800 5801 5902 5901 6911 6912 7013 7012 5801 5802 5903 5902 6912 6913 7014 7013 5802 5803 5904 5903 6913 6914 7015 7014 5803 5804 5905 5904 6914 6915 7016 7015 5804 5805 5906 5905 6915 6916 7017 7016 5805 5806 5907 5906 6916 6917 7018 7017 5806 5807 5908 5907 6917 6918 7019 7018 5807 5808 5909 5908 6918 6919 7020 7019 5808 5809 5910 5909 6919 6920 7021 7020 5809 5810 5911 5910 6920 6921 7022 7021 5810 5811 5912 5911 6921 6922 7023 7022 5811 5812 5913 5912 6922 6923 7024 7023 5812 5813 5914 5913 6923 6924 7025 7024 5813 5814 5915 5914 6924 6925 7026 7025 5814 5815 5916 5915 6925 6926 7027 7026 5815 5816 5917 5916 6926 6927 7028 7027 5816 5817 5918 5917 6927 6928 7029 7028 5817 5818 5919 5918 6928 6929 7030 7029 5818 5819 5920 5919 6929 6930 7031 7030 5819 5820 5921 5920 6930 6931 7032 7031 5820 5821 5922 5921 6931 6932 7033 7032 5821 5822 5923 5922 6932 6933 7034 7033 5822 5823 5924 5923 6933 6934 7035 7034 5823 5824 5925 5924 6934 6935 7036 7035 5824 5825 5926 5925 6935 6936 7037 7036 5825 5826 5927 5926 6936 6937 7038 7037 5826 5827 5928 5927 6937 6938 7039 7038 5827 5828 5929 5928 6938 6939 7040 7039 5828 5829 5930 5929 6939 6940 7041 7040 5829 5830 5931 5930 6940 6941 7042 7041 5830 5831 5932 5931 6941 6942 7043 7042 5831 5832 5933 5932 6942 6943 7044 7043 5832 5833 5934 5933 6943 6944 7045 7044 5833 5834 5935 5934 6944 6945 7046 7045 5834 5835 5936 5935 6945 6946 7047 7046 5835 5836 5937 5936 6946 6947 7048 7047 5836 5837 5938 5937 6947 6948 7049 7048 5837 5838 5939 5938 6948 6949 7050 7049 5838 5839 5940 5939 6949 6950 7051 7050 5839 5840 5941 5940 6950 6951 7052 7051 5840 5841 5942 5941 6951 6952 7053 7052 5841 5842 5943 5942 6952 6953 7054 7053 5842 5843 5944 5943 6953 6954 7055 7054 5843 5844 5945 5944 6954 6955 7056 7055 5844 5845 5946 5945 6955 6956 7057 7056 5845 5846 5947 5946 6956 6957 7058 7057 5846 5847 5948 5947 6957 6958 7059 7058 5847 5848 5949 5948 6958 6959 7060 7059 5848 5849 5950 5949 6959 6960 7061 7060 5849 5850 5951 5950 6960 6961 7062 7061 5850 5851 5952 5951 6961 6962 7063 7062 5851 5852 5953 5952 6962 6963 7064 7063 5852 5853 5954 5953 6963 6964 7065 7064 5853 5854 5955 5954 6964 6965 7066 7065 5854 5855 5956 5955 6965 6966 7067 7066 5855 5856 5957 5956 6966 6967 7068 7067 5856 5857 5958 5957 6967 6968 7069 7068 5858 5859 5960 5959 6969 6970 7071 7070 5859 5860 5961 5960 6970 6971 7072 7071 5860 5861 5962 5961 6971 6972 7073 7072 5861 5862 5963 5962 6972 6973 7074 7073 5862 5863 5964 5963 6973 6974 7075 7074 5863 5864 5965 5964 6974 6975 7076 7075 5864 5865 5966 5965 6975 6976 7077 7076 5865 5866 5967 5966 6976 6977 7078 7077 5866 5867 5968 5967 6977 6978 7079 7078 5867 5868 5969 5968 6978 6979 7080 7079 5868 5869 5970 5969 6979 6980 7081 7080 5869 5870 5971 5970 6980 6981 7082 7081 5870 5871 5972 5971 6981 6982 7083 7082 5871 5872 5973 5972 6982 6983 7084 7083 5872 5873 5974 5973 6983 6984 7085 7084 5873 5874 5975 5974 6984 6985 7086 7085 5874 5875 5976 5975 6985 6986 7087 7086 5875 5876 5977 5976 6986 6987 7088 7087 5876 5877 5978 5977 6987 6988 7089 7088 5877 5878 5979 5978 6988 6989 7090 7089 5878 5879 5980 5979 6989 6990 7091 7090 5879 5880 5981 5980 6990 6991 7092 7091 5880 5881 5982 5981 6991 6992 7093 7092 5881 5882 5983 5982 6992 6993 7094 7093 5882 5883 5984 5983 6993 6994 7095 7094 5883 5884 5985 5984 6994 6995 7096 7095 5884 5885 5986 5985 6995 6996 7097 7096 5885 5886 5987 5986 6996 6997 7098 7097 5886 5887 5988 5987 6997 6998 7099 7098 5887 5888 5989 5988 6998 6999 7100 7099 5888 5889 5990 5989 6999 7000 7101 7100 5889 5890 5991 5990 7000 7001 7102 7101 5890 5891 5992 5991 7001 7002 7103 7102 5891 5892 5993 5992 7002 7003 7104 7103 5892 5893 5994 5993 7003 7004 7105 7104 5893 5894 5995 5994 7004 7005 7106 7105 5894 5895 5996 5995 7005 7006 7107 7106 5895 5896 5997 5996 7006 7007 7108 7107 5896 5897 5998 5997 7007 7008 7109 7108 5897 5898 5999 5998 7008 7009 7110 7109 5898 5899 6000 5999 7009 7010 7111 7110 5899 5900 6001 6000 7010 7011 7112 7111 5900 5901 6002 6001 7011 7012 7113 7112 5901 5902 6003 6002 7012 7013 7114 7113 5902 5903 6004 6003 7013 7014 7115 7114 5903 5904 6005 6004 7014 7015 7116 7115 5904 5905 6006 6005 7015 7016 7117 7116 5905 5906 6007 6006 7016 7017 7118 7117 5906 5907 6008 6007 7017 7018 7119 7118 5907 5908 6009 6008 7018 7019 7120 7119 5908 5909 6010 6009 7019 7020 7121 7120 5909 5910 6011 6010 7020 7021 7122 7121 5910 5911 6012 6011 7021 7022 7123 7122 5911 5912 6013 6012 7022 7023 7124 7123 5912 5913 6014 6013 7023 7024 7125 7124 5913 5914 6015 6014 7024 7025 7126 7125 5914 5915 6016 6015 7025 7026 7127 7126 5915 5916 6017 6016 7026 7027 7128 7127 5916 5917 6018 6017 7027 7028 7129 7128 5917 5918 6019 6018 7028 7029 7130 7129 5918 5919 6020 6019 7029 7030 7131 7130 5919 5920 6021 6020 7030 7031 7132 7131 5920 5921 6022 6021 7031 7032 7133 7132 5921 5922 6023 6022 7032 7033 7134 7133 5922 5923 6024 6023 7033 7034 7135 7134 5923 5924 6025 6024 7034 7035 7136 7135 5924 5925 6026 6025 7035 7036 7137 7136 5925 5926 6027 6026 7036 7037 7138 7137 5926 5927 6028 6027 7037 7038 7139 7138 5927 5928 6029 6028 7038 7039 7140 7139 5928 5929 6030 6029 7039 7040 7141 7140 5929 5930 6031 6030 7040 7041 7142 7141 5930 5931 6032 6031 7041 7042 7143 7142 5931 5932 6033 6032 7042 7043 7144 7143 5932 5933 6034 6033 7043 7044 7145 7144 5933 5934 6035 6034 7044 7045 7146 7145 5934 5935 6036 6035 7045 7046 7147 7146 5935 5936 6037 6036 7046 7047 7148 7147 5936 5937 6038 6037 7047 7048 7149 7148 5937 5938 6039 6038 7048 7049 7150 7149 5938 5939 6040 6039 7049 7050 7151 7150 5939 5940 6041 6040 7050 7051 7152 7151 5940 5941 6042 6041 7051 7052 7153 7152 5941 5942 6043 6042 7052 7053 7154 7153 5942 5943 6044 6043 7053 7054 7155 7154 5943 5944 6045 6044 7054 7055 7156 7155 5944 5945 6046 6045 7055 7056 7157 7156 5945 5946 6047 6046 7056 7057 7158 7157 5946 5947 6048 6047 7057 7058 7159 7158 5947 5948 6049 6048 7058 7059 7160 7159 5948 5949 6050 6049 7059 7060 7161 7160 5949 5950 6051 6050 7060 7061 7162 7161 5950 5951 6052 6051 7061 7062 7163 7162 5951 5952 6053 6052 7062 7063 7164 7163 5952 5953 6054 6053 7063 7064 7165 7164 5953 5954 6055 6054 7064 7065 7166 7165 5954 5955 6056 6055 7065 7066 7167 7166 5955 5956 6057 6056 7066 7067 7168 7167 5956 5957 6058 6057 7067 7068 7169 7168 5957 5958 6059 6058 7068 7069 7170 7169 5959 5960 6061 6060 7070 7071 7172 7171 5960 5961 6062 6061 7071 7072 7173 7172 5961 5962 6063 6062 7072 7073 7174 7173 5962 5963 6064 6063 7073 7074 7175 7174 5963 5964 6065 6064 7074 7075 7176 7175 5964 5965 6066 6065 7075 7076 7177 7176 5965 5966 6067 6066 7076 7077 7178 7177 5966 5967 6068 6067 7077 7078 7179 7178 5967 5968 6069 6068 7078 7079 7180 7179 5968 5969 6070 6069 7079 7080 7181 7180 5969 5970 6071 6070 7080 7081 7182 7181 5970 5971 6072 6071 7081 7082 7183 7182 5971 5972 6073 6072 7082 7083 7184 7183 5972 5973 6074 6073 7083 7084 7185 7184 5973 5974 6075 6074 7084 7085 7186 7185 5974 5975 6076 6075 7085 7086 7187 7186 5975 5976 6077 6076 7086 7087 7188 7187 5976 5977 6078 6077 7087 7088 7189 7188 5977 5978 6079 6078 7088 7089 7190 7189 5978 5979 6080 6079 7089 7090 7191 7190 5979 5980 6081 6080 7090 7091 7192 7191 5980 5981 6082 6081 7091 7092 7193 7192 5981 5982 6083 6082 7092 7093 7194 7193 5982 5983 6084 6083 7093 7094 7195 7194 5983 5984 6085 6084 7094 7095 7196 7195 5984 5985 6086 6085 7095 7096 7197 7196 5985 5986 6087 6086 7096 7097 7198 7197 5986 5987 6088 6087 7097 7098 7199 7198 5987 5988 6089 6088 7098 7099 7200 7199 5988 5989 6090 6089 7099 7100 7201 7200 5989 5990 6091 6090 7100 7101 7202 7201 5990 5991 6092 6091 7101 7102 7203 7202 5991 5992 6093 6092 7102 7103 7204 7203 5992 5993 6094 6093 7103 7104 7205 7204 5993 5994 6095 6094 7104 7105 7206 7205 5994 5995 6096 6095 7105 7106 7207 7206 5995 5996 6097 6096 7106 7107 7208 7207 5996 5997 6098 6097 7107 7108 7209 7208 5997 5998 6099 6098 7108 7109 7210 7209 5998 5999 6100 6099 7109 7110 7211 7210 5999 6000 6101 6100 7110 7111 7212 7211 6000 6001 6102 6101 7111 7112 7213 7212 6001 6002 6103 6102 7112 7113 7214 7213 6002 6003 6104 6103 7113 7114 7215 7214 6003 6004 6105 6104 7114 7115 7216 7215 6004 6005 6106 6105 7115 7116 7217 7216 6005 6006 6107 6106 7116 7117 7218 7217 6006 6007 6108 6107 7117 7118 7219 7218 6007 6008 6109 6108 7118 7119 7220 7219 6008 6009 6110 6109 7119 7120 7221 7220 6009 6010 6111 6110 7120 7121 7222 7221 6010 6011 6112 6111 7121 7122 7223 7222 6011 6012 6113 6112 7122 7123 7224 7223 6012 6013 6114 6113 7123 7124 7225 7224 6013 6014 6115 6114 7124 7125 7226 7225 6014 6015 6116 6115 7125 7126 7227 7226 6015 6016 6117 6116 7126 7127 7228 7227 6016 6017 6118 6117 7127 7128 7229 7228 6017 6018 6119 6118 7128 7129 7230 7229 6018 6019 6120 6119 7129 7130 7231 7230 6019 6020 6121 6120 7130 7131 7232 7231 6020 6021 6122 6121 7131 7132 7233 7232 6021 6022 6123 6122 7132 7133 7234 7233 6022 6023 6124 6123 7133 7134 7235 7234 6023 6024 6125 6124 7134 7135 7236 7235 6024 6025 6126 6125 7135 7136 7237 7236 6025 6026 6127 6126 7136 7137 7238 7237 6026 6027 6128 6127 7137 7138 7239 7238 6027 6028 6129 6128 7138 7139 7240 7239 6028 6029 6130 6129 7139 7140 7241 7240 6029 6030 6131 6130 7140 7141 7242 7241 6030 6031 6132 6131 7141 7142 7243 7242 6031 6032 6133 6132 7142 7143 7244 7243 6032 6033 6134 6133 7143 7144 7245 7244 6033 6034 6135 6134 7144 7145 7246 7245 6034 6035 6136 6135 7145 7146 7247 7246 6035 6036 6137 6136 7146 7147 7248 7247 6036 6037 6138 6137 7147 7148 7249 7248 6037 6038 6139 6138 7148 7149 7250 7249 6038 6039 6140 6139 7149 7150 7251 7250 6039 6040 6141 6140 7150 7151 7252 7251 6040 6041 6142 6141 7151 7152 7253 7252 6041 6042 6143 6142 7152 7153 7254 7253 6042 6043 6144 6143 7153 7154 7255 7254 6043 6044 6145 6144 7154 7155 7256 7255 6044 6045 6146 6145 7155 7156 7257 7256 6045 6046 6147 6146 7156 7157 7258 7257 6046 6047 6148 6147 7157 7158 7259 7258 6047 6048 6149 6148 7158 7159 7260 7259 6048 6049 6150 6149 7159 7160 7261 7260 6049 6050 6151 6150 7160 7161 7262 7261 6050 6051 6152 6151 7161 7162 7263 7262 6051 6052 6153 6152 7162 7163 7264 7263 6052 6053 6154 6153 7163 7164 7265 7264 6053 6054 6155 6154 7164 7165 7266 7265 6054 6055 6156 6155 7165 7166 7267 7266 6055 6056 6157 6156 7166 7167 7268 7267 6056 6057 6158 6157 7167 7168 7269 7268 6057 6058 6159 6158 7168 7169 7270 7269 6058 6059 6160 6159 7169 7170 7271 7270 6060 6061 6162 6161 7171 7172 7273 7272 6061 6062 6163 6162 7172 7173 7274 7273 6062 6063 6164 6163 7173 7174 7275 7274 6063 6064 6165 6164 7174 7175 7276 7275 6064 6065 6166 6165 7175 7176 7277 7276 6065 6066 6167 6166 7176 7177 7278 7277 6066 6067 6168 6167 7177 7178 7279 7278 6067 6068 6169 6168 7178 7179 7280 7279 6068 6069 6170 6169 7179 7180 7281 7280 6069 6070 6171 6170 7180 7181 7282 7281 6070 6071 6172 6171 7181 7182 7283 7282 6071 6072 6173 6172 7182 7183 7284 7283 6072 6073 6174 6173 7183 7184 7285 7284 6073 6074 6175 6174 7184 7185 7286 7285 6074 6075 6176 6175 7185 7186 7287 7286 6075 6076 6177 6176 7186 7187 7288 7287 6076 6077 6178 6177 7187 7188 7289 7288 6077 6078 6179 6178 7188 7189 7290 7289 6078 6079 6180 6179 7189 7190 7291 7290 6079 6080 6181 6180 7190 7191 7292 7291 6080 6081 6182 6181 7191 7192 7293 7292 6081 6082 6183 6182 7192 7193 7294 7293 6082 6083 6184 6183 7193 7194 7295 7294 6083 6084 6185 6184 7194 7195 7296 7295 6084 6085 6186 6185 7195 7196 7297 7296 6085 6086 6187 6186 7196 7197 7298 7297 6086 6087 6188 6187 7197 7198 7299 7298 6087 6088 6189 6188 7198 7199 7300 7299 6088 6089 6190 6189 7199 7200 7301 7300 6089 6090 6191 6190 7200 7201 7302 7301 6090 6091 6192 6191 7201 7202 7303 7302 6091 6092 6193 6192 7202 7203 7304 7303 6092 6093 6194 6193 7203 7204 7305 7304 6093 6094 6195 6194 7204 7205 7306 7305 6094 6095 6196 6195 7205 7206 7307 7306 6095 6096 6197 6196 7206 7207 7308 7307 6096 6097 6198 6197 7207 7208 7309 7308 6097 6098 6199 6198 7208 7209 7310 7309 6098 6099 6200 6199 7209 7210 7311 7310 6099 6100 6201 6200 7210 7211 7312 7311 6100 6101 6202 6201 7211 7212 7313 7312 6101 6102 6203 6202 7212 7213 7314 7313 6102 6103 6204 6203 7213 7214 7315 7314 6103 6104 6205 6204 7214 7215 7316 7315 6104 6105 6206 6205 7215 7216 7317 7316 6105 6106 6207 6206 7216 7217 7318 7317 6106 6107 6208 6207 7217 7218 7319 7318 6107 6108 6209 6208 7218 7219 7320 7319 6108 6109 6210 6209 7219 7220 7321 7320 6109 6110 6211 6210 7220 7221 7322 7321 6110 6111 6212 6211 7221 7222 7323 7322 6111 6112 6213 6212 7222 7223 7324 7323 6112 6113 6214 6213 7223 7224 7325 7324 6113 6114 6215 6214 7224 7225 7326 7325 6114 6115 6216 6215 7225 7226 7327 7326 6115 6116 6217 6216 7226 7227 7328 7327 6116 6117 6218 6217 7227 7228 7329 7328 6117 6118 6219 6218 7228 7229 7330 7329 6118 6119 6220 6219 7229 7230 7331 7330 6119 6120 6221 6220 7230 7231 7332 7331 6120 6121 6222 6221 7231 7232 7333 7332 6121 6122 6223 6222 7232 7233 7334 7333 6122 6123 6224 6223 7233 7234 7335 7334 6123 6124 6225 6224 7234 7235 7336 7335 6124 6125 6226 6225 7235 7236 7337 7336 6125 6126 6227 6226 7236 7237 7338 7337 6126 6127 6228 6227 7237 7238 7339 7338 6127 6128 6229 6228 7238 7239 7340 7339 6128 6129 6230 6229 7239 7240 7341 7340 6129 6130 6231 6230 7240 7241 7342 7341 6130 6131 6232 6231 7241 7242 7343 7342 6131 6132 6233 6232 7242 7243 7344 7343 6132 6133 6234 6233 7243 7244 7345 7344 6133 6134 6235 6234 7244 7245 7346 7345 6134 6135 6236 6235 7245 7246 7347 7346 6135 6136 6237 6236 7246 7247 7348 7347 6136 6137 6238 6237 7247 7248 7349 7348 6137 6138 6239 6238 7248 7249 7350 7349 6138 6139 6240 6239 7249 7250 7351 7350 6139 6140 6241 6240 7250 7251 7352 7351 6140 6141 6242 6241 7251 7252 7353 7352 6141 6142 6243 6242 7252 7253 7354 7353 6142 6143 6244 6243 7253 7254 7355 7354 6143 6144 6245 6244 7254 7255 7356 7355 6144 6145 6246 6245 7255 7256 7357 7356 6145 6146 6247 6246 7256 7257 7358 7357 6146 6147 6248 6247 7257 7258 7359 7358 6147 6148 6249 6248 7258 7259 7360 7359 6148 6149 6250 6249 7259 7260 7361 7360 6149 6150 6251 6250 7260 7261 7362 7361 6150 6151 6252 6251 7261 7262 7363 7362 6151 6152 6253 6252 7262 7263 7364 7363 6152 6153 6254 6253 7263 7264 7365 7364 6153 6154 6255 6254 7264 7265 7366 7365 6154 6155 6256 6255 7265 7266 7367 7366 6155 6156 6257 6256 7266 7267 7368 7367 6156 6157 6258 6257 7267 7268 7369 7368 6157 6158 6259 6258 7268 7269 7370 7369 6158 6159 6260 6259 7269 7270 7371 7370 6159 6160 6261 6260 7270 7271 7372 7371 6161 6162 6263 6262 7272 7273 7374 7373 6162 6163 6264 6263 7273 7274 7375 7374 6163 6164 6265 6264 7274 7275 7376 7375 6164 6165 6266 6265 7275 7276 7377 7376 6165 6166 6267 6266 7276 7277 7378 7377 6166 6167 6268 6267 7277 7278 7379 7378 6167 6168 6269 6268 7278 7279 7380 7379 6168 6169 6270 6269 7279 7280 7381 7380 6169 6170 6271 6270 7280 7281 7382 7381 6170 6171 6272 6271 7281 7282 7383 7382 6171 6172 6273 6272 7282 7283 7384 7383 6172 6173 6274 6273 7283 7284 7385 7384 6173 6174 6275 6274 7284 7285 7386 7385 6174 6175 6276 6275 7285 7286 7387 7386 6175 6176 6277 6276 7286 7287 7388 7387 6176 6177 6278 6277 7287 7288 7389 7388 6177 6178 6279 6278 7288 7289 7390 7389 6178 6179 6280 6279 7289 7290 7391 7390 6179 6180 6281 6280 7290 7291 7392 7391 6180 6181 6282 6281 7291 7292 7393 7392 6181 6182 6283 6282 7292 7293 7394 7393 6182 6183 6284 6283 7293 7294 7395 7394 6183 6184 6285 6284 7294 7295 7396 7395 6184 6185 6286 6285 7295 7296 7397 7396 6185 6186 6287 6286 7296 7297 7398 7397 6186 6187 6288 6287 7297 7298 7399 7398 6187 6188 6289 6288 7298 7299 7400 7399 6188 6189 6290 6289 7299 7300 7401 7400 6189 6190 6291 6290 7300 7301 7402 7401 6190 6191 6292 6291 7301 7302 7403 7402 6191 6192 6293 6292 7302 7303 7404 7403 6192 6193 6294 6293 7303 7304 7405 7404 6193 6194 6295 6294 7304 7305 7406 7405 6194 6195 6296 6295 7305 7306 7407 7406 6195 6196 6297 6296 7306 7307 7408 7407 6196 6197 6298 6297 7307 7308 7409 7408 6197 6198 6299 6298 7308 7309 7410 7409 6198 6199 6300 6299 7309 7310 7411 7410 6199 6200 6301 6300 7310 7311 7412 7411 6200 6201 6302 6301 7311 7312 7413 7412 6201 6202 6303 6302 7312 7313 7414 7413 6202 6203 6304 6303 7313 7314 7415 7414 6203 6204 6305 6304 7314 7315 7416 7415 6204 6205 6306 6305 7315 7316 7417 7416 6205 6206 6307 6306 7316 7317 7418 7417 6206 6207 6308 6307 7317 7318 7419 7418 6207 6208 6309 6308 7318 7319 7420 7419 6208 6209 6310 6309 7319 7320 7421 7420 6209 6210 6311 6310 7320 7321 7422 7421 6210 6211 6312 6311 7321 7322 7423 7422 6211 6212 6313 6312 7322 7323 7424 7423 6212 6213 6314 6313 7323 7324 7425 7424 6213 6214 6315 6314 7324 7325 7426 7425 6214 6215 6316 6315 7325 7326 7427 7426 6215 6216 6317 6316 7326 7327 7428 7427 6216 6217 6318 6317 7327 7328 7429 7428 6217 6218 6319 6318 7328 7329 7430 7429 6218 6219 6320 6319 7329 7330 7431 7430 6219 6220 6321 6320 7330 7331 7432 7431 6220 6221 6322 6321 7331 7332 7433 7432 6221 6222 6323 6322 7332 7333 7434 7433 6222 6223 6324 6323 7333 7334 7435 7434 6223 6224 6325 6324 7334 7335 7436 7435 6224 6225 6326 6325 7335 7336 7437 7436 6225 6226 6327 6326 7336 7337 7438 7437 6226 6227 6328 6327 7337 7338 7439 7438 6227 6228 6329 6328 7338 7339 7440 7439 6228 6229 6330 6329 7339 7340 7441 7440 6229 6230 6331 6330 7340 7341 7442 7441 6230 6231 6332 6331 7341 7342 7443 7442 6231 6232 6333 6332 7342 7343 7444 7443 6232 6233 6334 6333 7343 7344 7445 7444 6233 6234 6335 6334 7344 7345 7446 7445 6234 6235 6336 6335 7345 7346 7447 7446 6235 6236 6337 6336 7346 7347 7448 7447 6236 6237 6338 6337 7347 7348 7449 7448 6237 6238 6339 6338 7348 7349 7450 7449 6238 6239 6340 6339 7349 7350 7451 7450 6239 6240 6341 6340 7350 7351 7452 7451 6240 6241 6342 6341 7351 7352 7453 7452 6241 6242 6343 6342 7352 7353 7454 7453 6242 6243 6344 6343 7353 7354 7455 7454 6243 6244 6345 6344 7354 7355 7456 7455 6244 6245 6346 6345 7355 7356 7457 7456 6245 6246 6347 6346 7356 7357 7458 7457 6246 6247 6348 6347 7357 7358 7459 7458 6247 6248 6349 6348 7358 7359 7460 7459 6248 6249 6350 6349 7359 7360 7461 7460 6249 6250 6351 6350 7360 7361 7462 7461 6250 6251 6352 6351 7361 7362 7463 7462 6251 6252 6353 6352 7362 7363 7464 7463 6252 6253 6354 6353 7363 7364 7465 7464 6253 6254 6355 6354 7364 7365 7466 7465 6254 6255 6356 6355 7365 7366 7467 7466 6255 6256 6357 6356 7366 7367 7468 7467 6256 6257 6358 6357 7367 7368 7469 7468 6257 6258 6359 6358 7368 7369 7470 7469 6258 6259 6360 6359 7369 7370 7471 7470 6259 6260 6361 6360 7370 7371 7472 7471 6260 6261 6362 6361 7371 7372 7473 7472 6262 6263 6364 6363 7373 7374 7475 7474 6263 6264 6365 6364 7374 7375 7476 7475 6264 6265 6366 6365 7375 7376 7477 7476 6265 6266 6367 6366 7376 7377 7478 7477 6266 6267 6368 6367 7377 7378 7479 7478 6267 6268 6369 6368 7378 7379 7480 7479 6268 6269 6370 6369 7379 7380 7481 7480 6269 6270 6371 6370 7380 7381 7482 7481 6270 6271 6372 6371 7381 7382 7483 7482 6271 6272 6373 6372 7382 7383 7484 7483 6272 6273 6374 6373 7383 7384 7485 7484 6273 6274 6375 6374 7384 7385 7486 7485 6274 6275 6376 6375 7385 7386 7487 7486 6275 6276 6377 6376 7386 7387 7488 7487 6276 6277 6378 6377 7387 7388 7489 7488 6277 6278 6379 6378 7388 7389 7490 7489 6278 6279 6380 6379 7389 7390 7491 7490 6279 6280 6381 6380 7390 7391 7492 7491 6280 6281 6382 6381 7391 7392 7493 7492 6281 6282 6383 6382 7392 7393 7494 7493 6282 6283 6384 6383 7393 7394 7495 7494 6283 6284 6385 6384 7394 7395 7496 7495 6284 6285 6386 6385 7395 7396 7497 7496 6285 6286 6387 6386 7396 7397 7498 7497 6286 6287 6388 6387 7397 7398 7499 7498 6287 6288 6389 6388 7398 7399 7500 7499 6288 6289 6390 6389 7399 7400 7501 7500 6289 6290 6391 6390 7400 7401 7502 7501 6290 6291 6392 6391 7401 7402 7503 7502 6291 6292 6393 6392 7402 7403 7504 7503 6292 6293 6394 6393 7403 7404 7505 7504 6293 6294 6395 6394 7404 7405 7506 7505 6294 6295 6396 6395 7405 7406 7507 7506 6295 6296 6397 6396 7406 7407 7508 7507 6296 6297 6398 6397 7407 7408 7509 7508 6297 6298 6399 6398 7408 7409 7510 7509 6298 6299 6400 6399 7409 7410 7511 7510 6299 6300 6401 6400 7410 7411 7512 7511 6300 6301 6402 6401 7411 7412 7513 7512 6301 6302 6403 6402 7412 7413 7514 7513 6302 6303 6404 6403 7413 7414 7515 7514 6303 6304 6405 6404 7414 7415 7516 7515 6304 6305 6406 6405 7415 7416 7517 7516 6305 6306 6407 6406 7416 7417 7518 7517 6306 6307 6408 6407 7417 7418 7519 7518 6307 6308 6409 6408 7418 7419 7520 7519 6308 6309 6410 6409 7419 7420 7521 7520 6309 6310 6411 6410 7420 7421 7522 7521 6310 6311 6412 6411 7421 7422 7523 7522 6311 6312 6413 6412 7422 7423 7524 7523 6312 6313 6414 6413 7423 7424 7525 7524 6313 6314 6415 6414 7424 7425 7526 7525 6314 6315 6416 6415 7425 7426 7527 7526 6315 6316 6417 6416 7426 7427 7528 7527 6316 6317 6418 6417 7427 7428 7529 7528 6317 6318 6419 6418 7428 7429 7530 7529 6318 6319 6420 6419 7429 7430 7531 7530 6319 6320 6421 6420 7430 7431 7532 7531 6320 6321 6422 6421 7431 7432 7533 7532 6321 6322 6423 6422 7432 7433 7534 7533 6322 6323 6424 6423 7433 7434 7535 7534 6323 6324 6425 6424 7434 7435 7536 7535 6324 6325 6426 6425 7435 7436 7537 7536 6325 6326 6427 6426 7436 7437 7538 7537 6326 6327 6428 6427 7437 7438 7539 7538 6327 6328 6429 6428 7438 7439 7540 7539 6328 6329 6430 6429 7439 7440 7541 7540 6329 6330 6431 6430 7440 7441 7542 7541 6330 6331 6432 6431 7441 7442 7543 7542 6331 6332 6433 6432 7442 7443 7544 7543 6332 6333 6434 6433 7443 7444 7545 7544 6333 6334 6435 6434 7444 7445 7546 7545 6334 6335 6436 6435 7445 7446 7547 7546 6335 6336 6437 6436 7446 7447 7548 7547 6336 6337 6438 6437 7447 7448 7549 7548 6337 6338 6439 6438 7448 7449 7550 7549 6338 6339 6440 6439 7449 7450 7551 7550 6339 6340 6441 6440 7450 7451 7552 7551 6340 6341 6442 6441 7451 7452 7553 7552 6341 6342 6443 6442 7452 7453 7554 7553 6342 6343 6444 6443 7453 7454 7555 7554 6343 6344 6445 6444 7454 7455 7556 7555 6344 6345 6446 6445 7455 7456 7557 7556 6345 6346 6447 6446 7456 7457 7558 7557 6346 6347 6448 6447 7457 7458 7559 7558 6347 6348 6449 6448 7458 7459 7560 7559 6348 6349 6450 6449 7459 7460 7561 7560 6349 6350 6451 6450 7460 7461 7562 7561 6350 6351 6452 6451 7461 7462 7563 7562 6351 6352 6453 6452 7462 7463 7564 7563 6352 6353 6454 6453 7463 7464 7565 7564 6353 6354 6455 6454 7464 7465 7566 7565 6354 6355 6456 6455 7465 7466 7567 7566 6355 6356 6457 6456 7466 7467 7568 7567 6356 6357 6458 6457 7467 7468 7569 7568 6357 6358 6459 6458 7468 7469 7570 7569 6358 6359 6460 6459 7469 7470 7571 7570 6359 6360 6461 6460 7470 7471 7572 7571 6360 6361 6462 6461 7471 7472 7573 7572 6361 6362 6463 6462 7472 7473 7574 7573 6363 6364 6465 6464 7474 7475 7576 7575 6364 6365 6466 6465 7475 7476 7577 7576 6365 6366 6467 6466 7476 7477 7578 7577 6366 6367 6468 6467 7477 7478 7579 7578 6367 6368 6469 6468 7478 7479 7580 7579 6368 6369 6470 6469 7479 7480 7581 7580 6369 6370 6471 6470 7480 7481 7582 7581 6370 6371 6472 6471 7481 7482 7583 7582 6371 6372 6473 6472 7482 7483 7584 7583 6372 6373 6474 6473 7483 7484 7585 7584 6373 6374 6475 6474 7484 7485 7586 7585 6374 6375 6476 6475 7485 7486 7587 7586 6375 6376 6477 6476 7486 7487 7588 7587 6376 6377 6478 6477 7487 7488 7589 7588 6377 6378 6479 6478 7488 7489 7590 7589 6378 6379 6480 6479 7489 7490 7591 7590 6379 6380 6481 6480 7490 7491 7592 7591 6380 6381 6482 6481 7491 7492 7593 7592 6381 6382 6483 6482 7492 7493 7594 7593 6382 6383 6484 6483 7493 7494 7595 7594 6383 6384 6485 6484 7494 7495 7596 7595 6384 6385 6486 6485 7495 7496 7597 7596 6385 6386 6487 6486 7496 7497 7598 7597 6386 6387 6488 6487 7497 7498 7599 7598 6387 6388 6489 6488 7498 7499 7600 7599 6388 6389 6490 6489 7499 7500 7601 7600 6389 6390 6491 6490 7500 7501 7602 7601 6390 6391 6492 6491 7501 7502 7603 7602 6391 6392 6493 6492 7502 7503 7604 7603 6392 6393 6494 6493 7503 7504 7605 7604 6393 6394 6495 6494 7504 7505 7606 7605 6394 6395 6496 6495 7505 7506 7607 7606 6395 6396 6497 6496 7506 7507 7608 7607 6396 6397 6498 6497 7507 7508 7609 7608 6397 6398 6499 6498 7508 7509 7610 7609 6398 6399 6500 6499 7509 7510 7611 7610 6399 6400 6501 6500 7510 7511 7612 7611 6400 6401 6502 6501 7511 7512 7613 7612 6401 6402 6503 6502 7512 7513 7614 7613 6402 6403 6504 6503 7513 7514 7615 7614 6403 6404 6505 6504 7514 7515 7616 7615 6404 6405 6506 6505 7515 7516 7617 7616 6405 6406 6507 6506 7516 7517 7618 7617 6406 6407 6508 6507 7517 7518 7619 7618 6407 6408 6509 6508 7518 7519 7620 7619 6408 6409 6510 6509 7519 7520 7621 7620 6409 6410 6511 6510 7520 7521 7622 7621 6410 6411 6512 6511 7521 7522 7623 7622 6411 6412 6513 6512 7522 7523 7624 7623 6412 6413 6514 6513 7523 7524 7625 7624 6413 6414 6515 6514 7524 7525 7626 7625 6414 6415 6516 6515 7525 7526 7627 7626 6415 6416 6517 6516 7526 7527 7628 7627 6416 6417 6518 6517 7527 7528 7629 7628 6417 6418 6519 6518 7528 7529 7630 7629 6418 6419 6520 6519 7529 7530 7631 7630 6419 6420 6521 6520 7530 7531 7632 7631 6420 6421 6522 6521 7531 7532 7633 7632 6421 6422 6523 6522 7532 7533 7634 7633 6422 6423 6524 6523 7533 7534 7635 7634 6423 6424 6525 6524 7534 7535 7636 7635 6424 6425 6526 6525 7535 7536 7637 7636 6425 6426 6527 6526 7536 7537 7638 7637 6426 6427 6528 6527 7537 7538 7639 7638 6427 6428 6529 6528 7538 7539 7640 7639 6428 6429 6530 6529 7539 7540 7641 7640 6429 6430 6531 6530 7540 7541 7642 7641 6430 6431 6532 6531 7541 7542 7643 7642 6431 6432 6533 6532 7542 7543 7644 7643 6432 6433 6534 6533 7543 7544 7645 7644 6433 6434 6535 6534 7544 7545 7646 7645 6434 6435 6536 6535 7545 7546 7647 7646 6435 6436 6537 6536 7546 7547 7648 7647 6436 6437 6538 6537 7547 7548 7649 7648 6437 6438 6539 6538 7548 7549 7650 7649 6438 6439 6540 6539 7549 7550 7651 7650 6439 6440 6541 6540 7550 7551 7652 7651 6440 6441 6542 6541 7551 7552 7653 7652 6441 6442 6543 6542 7552 7553 7654 7653 6442 6443 6544 6543 7553 7554 7655 7654 6443 6444 6545 6544 7554 7555 7656 7655 6444 6445 6546 6545 7555 7556 7657 7656 6445 6446 6547 6546 7556 7557 7658 7657 6446 6447 6548 6547 7557 7558 7659 7658 6447 6448 6549 6548 7558 7559 7660 7659 6448 6449 6550 6549 7559 7560 7661 7660 6449 6450 6551 6550 7560 7561 7662 7661 6450 6451 6552 6551 7561 7562 7663 7662 6451 6452 6553 6552 7562 7563 7664 7663 6452 6453 6554 6553 7563 7564 7665 7664 6453 6454 6555 6554 7564 7565 7666 7665 6454 6455 6556 6555 7565 7566 7667 7666 6455 6456 6557 6556 7566 7567 7668 7667 6456 6457 6558 6557 7567 7568 7669 7668 6457 6458 6559 6558 7568 7569 7670 7669 6458 6459 6560 6559 7569 7570 7671 7670 6459 6460 6561 6560 7570 7571 7672 7671 6460 6461 6562 6561 7571 7572 7673 7672 6461 6462 6563 6562 7572 7573 7674 7673 6462 6463 6564 6563 7573 7574 7675 7674 6464 6465 6566 6565 7575 7576 7677 7676 6465 6466 6567 6566 7576 7577 7678 7677 6466 6467 6568 6567 7577 7578 7679 7678 6467 6468 6569 6568 7578 7579 7680 7679 6468 6469 6570 6569 7579 7580 7681 7680 6469 6470 6571 6570 7580 7581 7682 7681 6470 6471 6572 6571 7581 7582 7683 7682 6471 6472 6573 6572 7582 7583 7684 7683 6472 6473 6574 6573 7583 7584 7685 7684 6473 6474 6575 6574 7584 7585 7686 7685 6474 6475 6576 6575 7585 7586 7687 7686 6475 6476 6577 6576 7586 7587 7688 7687 6476 6477 6578 6577 7587 7588 7689 7688 6477 6478 6579 6578 7588 7589 7690 7689 6478 6479 6580 6579 7589 7590 7691 7690 6479 6480 6581 6580 7590 7591 7692 7691 6480 6481 6582 6581 7591 7592 7693 7692 6481 6482 6583 6582 7592 7593 7694 7693 6482 6483 6584 6583 7593 7594 7695 7694 6483 6484 6585 6584 7594 7595 7696 7695 6484 6485 6586 6585 7595 7596 7697 7696 6485 6486 6587 6586 7596 7597 7698 7697 6486 6487 6588 6587 7597 7598 7699 7698 6487 6488 6589 6588 7598 7599 7700 7699 6488 6489 6590 6589 7599 7600 7701 7700 6489 6490 6591 6590 7600 7601 7702 7701 6490 6491 6592 6591 7601 7602 7703 7702 6491 6492 6593 6592 7602 7603 7704 7703 6492 6493 6594 6593 7603 7604 7705 7704 6493 6494 6595 6594 7604 7605 7706 7705 6494 6495 6596 6595 7605 7606 7707 7706 6495 6496 6597 6596 7606 7607 7708 7707 6496 6497 6598 6597 7607 7608 7709 7708 6497 6498 6599 6598 7608 7609 7710 7709 6498 6499 6600 6599 7609 7610 7711 7710 6499 6500 6601 6600 7610 7611 7712 7711 6500 6501 6602 6601 7611 7612 7713 7712 6501 6502 6603 6602 7612 7613 7714 7713 6502 6503 6604 6603 7613 7614 7715 7714 6503 6504 6605 6604 7614 7615 7716 7715 6504 6505 6606 6605 7615 7616 7717 7716 6505 6506 6607 6606 7616 7617 7718 7717 6506 6507 6608 6607 7617 7618 7719 7718 6507 6508 6609 6608 7618 7619 7720 7719 6508 6509 6610 6609 7619 7620 7721 7720 6509 6510 6611 6610 7620 7621 7722 7721 6510 6511 6612 6611 7621 7622 7723 7722 6511 6512 6613 6612 7622 7623 7724 7723 6512 6513 6614 6613 7623 7624 7725 7724 6513 6514 6615 6614 7624 7625 7726 7725 6514 6515 6616 6615 7625 7626 7727 7726 6515 6516 6617 6616 7626 7627 7728 7727 6516 6517 6618 6617 7627 7628 7729 7728 6517 6518 6619 6618 7628 7629 7730 7729 6518 6519 6620 6619 7629 7630 7731 7730 6519 6520 6621 6620 7630 7631 7732 7731 6520 6521 6622 6621 7631 7632 7733 7732 6521 6522 6623 6622 7632 7633 7734 7733 6522 6523 6624 6623 7633 7634 7735 7734 6523 6524 6625 6624 7634 7635 7736 7735 6524 6525 6626 6625 7635 7636 7737 7736 6525 6526 6627 6626 7636 7637 7738 7737 6526 6527 6628 6627 7637 7638 7739 7738 6527 6528 6629 6628 7638 7639 7740 7739 6528 6529 6630 6629 7639 7640 7741 7740 6529 6530 6631 6630 7640 7641 7742 7741 6530 6531 6632 6631 7641 7642 7743 7742 6531 6532 6633 6632 7642 7643 7744 7743 6532 6533 6634 6633 7643 7644 7745 7744 6533 6534 6635 6634 7644 7645 7746 7745 6534 6535 6636 6635 7645 7646 7747 7746 6535 6536 6637 6636 7646 7647 7748 7747 6536 6537 6638 6637 7647 7648 7749 7748 6537 6538 6639 6638 7648 7649 7750 7749 6538 6539 6640 6639 7649 7650 7751 7750 6539 6540 6641 6640 7650 7651 7752 7751 6540 6541 6642 6641 7651 7652 7753 7752 6541 6542 6643 6642 7652 7653 7754 7753 6542 6543 6644 6643 7653 7654 7755 7754 6543 6544 6645 6644 7654 7655 7756 7755 6544 6545 6646 6645 7655 7656 7757 7756 6545 6546 6647 6646 7656 7657 7758 7757 6546 6547 6648 6647 7657 7658 7759 7758 6547 6548 6649 6648 7658 7659 7760 7759 6548 6549 6650 6649 7659 7660 7761 7760 6549 6550 6651 6650 7660 7661 7762 7761 6550 6551 6652 6651 7661 7662 7763 7762 6551 6552 6653 6652 7662 7663 7764 7763 6552 6553 6654 6653 7663 7664 7765 7764 6553 6554 6655 6654 7664 7665 7766 7765 6554 6555 6656 6655 7665 7666 7767 7766 6555 6556 6657 6656 7666 7667 7768 7767 6556 6557 6658 6657 7667 7668 7769 7768 6557 6558 6659 6658 7668 7669 7770 7769 6558 6559 6660 6659 7669 7670 7771 7770 6559 6560 6661 6660 7670 7671 7772 7771 6560 6561 6662 6661 7671 7672 7773 7772 6561 6562 6663 6662 7672 7673 7774 7773 6562 6563 6664 6663 7673 7674 7775 7774 6563 6564 6665 6664 7674 7675 7776 7775 6666 6667 6768 6767 7777 7778 7879 7878 6667 6668 6769 6768 7778 7779 7880 7879 6668 6669 6770 6769 7779 7780 7881 7880 6669 6670 6771 6770 7780 7781 7882 7881 6670 6671 6772 6771 7781 7782 7883 7882 6671 6672 6773 6772 7782 7783 7884 7883 6672 6673 6774 6773 7783 7784 7885 7884 6673 6674 6775 6774 7784 7785 7886 7885 6674 6675 6776 6775 7785 7786 7887 7886 6675 6676 6777 6776 7786 7787 7888 7887 6676 6677 6778 6777 7787 7788 7889 7888 6677 6678 6779 6778 7788 7789 7890 7889 6678 6679 6780 6779 7789 7790 7891 7890 6679 6680 6781 6780 7790 7791 7892 7891 6680 6681 6782 6781 7791 7792 7893 7892 6681 6682 6783 6782 7792 7793 7894 7893 6682 6683 6784 6783 7793 7794 7895 7894 6683 6684 6785 6784 7794 7795 7896 7895 6684 6685 6786 6785 7795 7796 7897 7896 6685 6686 6787 6786 7796 7797 7898 7897 6686 6687 6788 6787 7797 7798 7899 7898 6687 6688 6789 6788 7798 7799 7900 7899 6688 6689 6790 6789 7799 7800 7901 7900 6689 6690 6791 6790 7800 7801 7902 7901 6690 6691 6792 6791 7801 7802 7903 7902 6691 6692 6793 6792 7802 7803 7904 7903 6692 6693 6794 6793 7803 7804 7905 7904 6693 6694 6795 6794 7804 7805 7906 7905 6694 6695 6796 6795 7805 7806 7907 7906 6695 6696 6797 6796 7806 7807 7908 7907 6696 6697 6798 6797 7807 7808 7909 7908 6697 6698 6799 6798 7808 7809 7910 7909 6698 6699 6800 6799 7809 7810 7911 7910 6699 6700 6801 6800 7810 7811 7912 7911 6700 6701 6802 6801 7811 7812 7913 7912 6701 6702 6803 6802 7812 7813 7914 7913 6702 6703 6804 6803 7813 7814 7915 7914 6703 6704 6805 6804 7814 7815 7916 7915 6704 6705 6806 6805 7815 7816 7917 7916 6705 6706 6807 6806 7816 7817 7918 7917 6706 6707 6808 6807 7817 7818 7919 7918 6707 6708 6809 6808 7818 7819 7920 7919 6708 6709 6810 6809 7819 7820 7921 7920 6709 6710 6811 6810 7820 7821 7922 7921 6710 6711 6812 6811 7821 7822 7923 7922 6711 6712 6813 6812 7822 7823 7924 7923 6712 6713 6814 6813 7823 7824 7925 7924 6713 6714 6815 6814 7824 7825 7926 7925 6714 6715 6816 6815 7825 7826 7927 7926 6715 6716 6817 6816 7826 7827 7928 7927 6716 6717 6818 6817 7827 7828 7929 7928 6717 6718 6819 6818 7828 7829 7930 7929 6718 6719 6820 6819 7829 7830 7931 7930 6719 6720 6821 6820 7830 7831 7932 7931 6720 6721 6822 6821 7831 7832 7933 7932 6721 6722 6823 6822 7832 7833 7934 7933 6722 6723 6824 6823 7833 7834 7935 7934 6723 6724 6825 6824 7834 7835 7936 7935 6724 6725 6826 6825 7835 7836 7937 7936 6725 6726 6827 6826 7836 7837 7938 7937 6726 6727 6828 6827 7837 7838 7939 7938 6727 6728 6829 6828 7838 7839 7940 7939 6728 6729 6830 6829 7839 7840 7941 7940 6729 6730 6831 6830 7840 7841 7942 7941 6730 6731 6832 6831 7841 7842 7943 7942 6731 6732 6833 6832 7842 7843 7944 7943 6732 6733 6834 6833 7843 7844 7945 7944 6733 6734 6835 6834 7844 7845 7946 7945 6734 6735 6836 6835 7845 7846 7947 7946 6735 6736 6837 6836 7846 7847 7948 7947 6736 6737 6838 6837 7847 7848 7949 7948 6737 6738 6839 6838 7848 7849 7950 7949 6738 6739 6840 6839 7849 7850 7951 7950 6739 6740 6841 6840 7850 7851 7952 7951 6740 6741 6842 6841 7851 7852 7953 7952 6741 6742 6843 6842 7852 7853 7954 7953 6742 6743 6844 6843 7853 7854 7955 7954 6743 6744 6845 6844 7854 7855 7956 7955 6744 6745 6846 6845 7855 7856 7957 7956 6745 6746 6847 6846 7856 7857 7958 7957 6746 6747 6848 6847 7857 7858 7959 7958 6747 6748 6849 6848 7858 7859 7960 7959 6748 6749 6850 6849 7859 7860 7961 7960 6749 6750 6851 6850 7860 7861 7962 7961 6750 6751 6852 6851 7861 7862 7963 7962 6751 6752 6853 6852 7862 7863 7964 7963 6752 6753 6854 6853 7863 7864 7965 7964 6753 6754 6855 6854 7864 7865 7966 7965 6754 6755 6856 6855 7865 7866 7967 7966 6755 6756 6857 6856 7866 7867 7968 7967 6756 6757 6858 6857 7867 7868 7969 7968 6757 6758 6859 6858 7868 7869 7970 7969 6758 6759 6860 6859 7869 7870 7971 7970 6759 6760 6861 6860 7870 7871 7972 7971 6760 6761 6862 6861 7871 7872 7973 7972 6761 6762 6863 6862 7872 7873 7974 7973 6762 6763 6864 6863 7873 7874 7975 7974 6763 6764 6865 6864 7874 7875 7976 7975 6764 6765 6866 6865 7875 7876 7977 7976 6765 6766 6867 6866 7876 7877 7978 7977 6767 6768 6869 6868 7878 7879 7980 7979 6768 6769 6870 6869 7879 7880 7981 7980 6769 6770 6871 6870 7880 7881 7982 7981 6770 6771 6872 6871 7881 7882 7983 7982 6771 6772 6873 6872 7882 7883 7984 7983 6772 6773 6874 6873 7883 7884 7985 7984 6773 6774 6875 6874 7884 7885 7986 7985 6774 6775 6876 6875 7885 7886 7987 7986 6775 6776 6877 6876 7886 7887 7988 7987 6776 6777 6878 6877 7887 7888 7989 7988 6777 6778 6879 6878 7888 7889 7990 7989 6778 6779 6880 6879 7889 7890 7991 7990 6779 6780 6881 6880 7890 7891 7992 7991 6780 6781 6882 6881 7891 7892 7993 7992 6781 6782 6883 6882 7892 7893 7994 7993 6782 6783 6884 6883 7893 7894 7995 7994 6783 6784 6885 6884 7894 7895 7996 7995 6784 6785 6886 6885 7895 7896 7997 7996 6785 6786 6887 6886 7896 7897 7998 7997 6786 6787 6888 6887 7897 7898 7999 7998 6787 6788 6889 6888 7898 7899 8000 7999 6788 6789 6890 6889 7899 7900 8001 8000 6789 6790 6891 6890 7900 7901 8002 8001 6790 6791 6892 6891 7901 7902 8003 8002 6791 6792 6893 6892 7902 7903 8004 8003 6792 6793 6894 6893 7903 7904 8005 8004 6793 6794 6895 6894 7904 7905 8006 8005 6794 6795 6896 6895 7905 7906 8007 8006 6795 6796 6897 6896 7906 7907 8008 8007 6796 6797 6898 6897 7907 7908 8009 8008 6797 6798 6899 6898 7908 7909 8010 8009 6798 6799 6900 6899 7909 7910 8011 8010 6799 6800 6901 6900 7910 7911 8012 8011 6800 6801 6902 6901 7911 7912 8013 8012 6801 6802 6903 6902 7912 7913 8014 8013 6802 6803 6904 6903 7913 7914 8015 8014 6803 6804 6905 6904 7914 7915 8016 8015 6804 6805 6906 6905 7915 7916 8017 8016 6805 6806 6907 6906 7916 7917 8018 8017 6806 6807 6908 6907 7917 7918 8019 8018 6807 6808 6909 6908 7918 7919 8020 8019 6808 6809 6910 6909 7919 7920 8021 8020 6809 6810 6911 6910 7920 7921 8022 8021 6810 6811 6912 6911 7921 7922 8023 8022 6811 6812 6913 6912 7922 7923 8024 8023 6812 6813 6914 6913 7923 7924 8025 8024 6813 6814 6915 6914 7924 7925 8026 8025 6814 6815 6916 6915 7925 7926 8027 8026 6815 6816 6917 6916 7926 7927 8028 8027 6816 6817 6918 6917 7927 7928 8029 8028 6817 6818 6919 6918 7928 7929 8030 8029 6818 6819 6920 6919 7929 7930 8031 8030 6819 6820 6921 6920 7930 7931 8032 8031 6820 6821 6922 6921 7931 7932 8033 8032 6821 6822 6923 6922 7932 7933 8034 8033 6822 6823 6924 6923 7933 7934 8035 8034 6823 6824 6925 6924 7934 7935 8036 8035 6824 6825 6926 6925 7935 7936 8037 8036 6825 6826 6927 6926 7936 7937 8038 8037 6826 6827 6928 6927 7937 7938 8039 8038 6827 6828 6929 6928 7938 7939 8040 8039 6828 6829 6930 6929 7939 7940 8041 8040 6829 6830 6931 6930 7940 7941 8042 8041 6830 6831 6932 6931 7941 7942 8043 8042 6831 6832 6933 6932 7942 7943 8044 8043 6832 6833 6934 6933 7943 7944 8045 8044 6833 6834 6935 6934 7944 7945 8046 8045 6834 6835 6936 6935 7945 7946 8047 8046 6835 6836 6937 6936 7946 7947 8048 8047 6836 6837 6938 6937 7947 7948 8049 8048 6837 6838 6939 6938 7948 7949 8050 8049 6838 6839 6940 6939 7949 7950 8051 8050 6839 6840 6941 6940 7950 7951 8052 8051 6840 6841 6942 6941 7951 7952 8053 8052 6841 6842 6943 6942 7952 7953 8054 8053 6842 6843 6944 6943 7953 7954 8055 8054 6843 6844 6945 6944 7954 7955 8056 8055 6844 6845 6946 6945 7955 7956 8057 8056 6845 6846 6947 6946 7956 7957 8058 8057 6846 6847 6948 6947 7957 7958 8059 8058 6847 6848 6949 6948 7958 7959 8060 8059 6848 6849 6950 6949 7959 7960 8061 8060 6849 6850 6951 6950 7960 7961 8062 8061 6850 6851 6952 6951 7961 7962 8063 8062 6851 6852 6953 6952 7962 7963 8064 8063 6852 6853 6954 6953 7963 7964 8065 8064 6853 6854 6955 6954 7964 7965 8066 8065 6854 6855 6956 6955 7965 7966 8067 8066 6855 6856 6957 6956 7966 7967 8068 8067 6856 6857 6958 6957 7967 7968 8069 8068 6857 6858 6959 6958 7968 7969 8070 8069 6858 6859 6960 6959 7969 7970 8071 8070 6859 6860 6961 6960 7970 7971 8072 8071 6860 6861 6962 6961 7971 7972 8073 8072 6861 6862 6963 6962 7972 7973 8074 8073 6862 6863 6964 6963 7973 7974 8075 8074 6863 6864 6965 6964 7974 7975 8076 8075 6864 6865 6966 6965 7975 7976 8077 8076 6865 6866 6967 6966 7976 7977 8078 8077 6866 6867 6968 6967 7977 7978 8079 8078 6868 6869 6970 6969 7979 7980 8081 8080 6869 6870 6971 6970 7980 7981 8082 8081 6870 6871 6972 6971 7981 7982 8083 8082 6871 6872 6973 6972 7982 7983 8084 8083 6872 6873 6974 6973 7983 7984 8085 8084 6873 6874 6975 6974 7984 7985 8086 8085 6874 6875 6976 6975 7985 7986 8087 8086 6875 6876 6977 6976 7986 7987 8088 8087 6876 6877 6978 6977 7987 7988 8089 8088 6877 6878 6979 6978 7988 7989 8090 8089 6878 6879 6980 6979 7989 7990 8091 8090 6879 6880 6981 6980 7990 7991 8092 8091 6880 6881 6982 6981 7991 7992 8093 8092 6881 6882 6983 6982 7992 7993 8094 8093 6882 6883 6984 6983 7993 7994 8095 8094 6883 6884 6985 6984 7994 7995 8096 8095 6884 6885 6986 6985 7995 7996 8097 8096 6885 6886 6987 6986 7996 7997 8098 8097 6886 6887 6988 6987 7997 7998 8099 8098 6887 6888 6989 6988 7998 7999 8100 8099 6888 6889 6990 6989 7999 8000 8101 8100 6889 6890 6991 6990 8000 8001 8102 8101 6890 6891 6992 6991 8001 8002 8103 8102 6891 6892 6993 6992 8002 8003 8104 8103 6892 6893 6994 6993 8003 8004 8105 8104 6893 6894 6995 6994 8004 8005 8106 8105 6894 6895 6996 6995 8005 8006 8107 8106 6895 6896 6997 6996 8006 8007 8108 8107 6896 6897 6998 6997 8007 8008 8109 8108 6897 6898 6999 6998 8008 8009 8110 8109 6898 6899 7000 6999 8009 8010 8111 8110 6899 6900 7001 7000 8010 8011 8112 8111 6900 6901 7002 7001 8011 8012 8113 8112 6901 6902 7003 7002 8012 8013 8114 8113 6902 6903 7004 7003 8013 8014 8115 8114 6903 6904 7005 7004 8014 8015 8116 8115 6904 6905 7006 7005 8015 8016 8117 8116 6905 6906 7007 7006 8016 8017 8118 8117 6906 6907 7008 7007 8017 8018 8119 8118 6907 6908 7009 7008 8018 8019 8120 8119 6908 6909 7010 7009 8019 8020 8121 8120 6909 6910 7011 7010 8020 8021 8122 8121 6910 6911 7012 7011 8021 8022 8123 8122 6911 6912 7013 7012 8022 8023 8124 8123 6912 6913 7014 7013 8023 8024 8125 8124 6913 6914 7015 7014 8024 8025 8126 8125 6914 6915 7016 7015 8025 8026 8127 8126 6915 6916 7017 7016 8026 8027 8128 8127 6916 6917 7018 7017 8027 8028 8129 8128 6917 6918 7019 7018 8028 8029 8130 8129 6918 6919 7020 7019 8029 8030 8131 8130 6919 6920 7021 7020 8030 8031 8132 8131 6920 6921 7022 7021 8031 8032 8133 8132 6921 6922 7023 7022 8032 8033 8134 8133 6922 6923 7024 7023 8033 8034 8135 8134 6923 6924 7025 7024 8034 8035 8136 8135 6924 6925 7026 7025 8035 8036 8137 8136 6925 6926 7027 7026 8036 8037 8138 8137 6926 6927 7028 7027 8037 8038 8139 8138 6927 6928 7029 7028 8038 8039 8140 8139 6928 6929 7030 7029 8039 8040 8141 8140 6929 6930 7031 7030 8040 8041 8142 8141 6930 6931 7032 7031 8041 8042 8143 8142 6931 6932 7033 7032 8042 8043 8144 8143 6932 6933 7034 7033 8043 8044 8145 8144 6933 6934 7035 7034 8044 8045 8146 8145 6934 6935 7036 7035 8045 8046 8147 8146 6935 6936 7037 7036 8046 8047 8148 8147 6936 6937 7038 7037 8047 8048 8149 8148 6937 6938 7039 7038 8048 8049 8150 8149 6938 6939 7040 7039 8049 8050 8151 8150 6939 6940 7041 7040 8050 8051 8152 8151 6940 6941 7042 7041 8051 8052 8153 8152 6941 6942 7043 7042 8052 8053 8154 8153 6942 6943 7044 7043 8053 8054 8155 8154 6943 6944 7045 7044 8054 8055 8156 8155 6944 6945 7046 7045 8055 8056 8157 8156 6945 6946 7047 7046 8056 8057 8158 8157 6946 6947 7048 7047 8057 8058 8159 8158 6947 6948 7049 7048 8058 8059 8160 8159 6948 6949 7050 7049 8059 8060 8161 8160 6949 6950 7051 7050 8060 8061 8162 8161 6950 6951 7052 7051 8061 8062 8163 8162 6951 6952 7053 7052 8062 8063 8164 8163 6952 6953 7054 7053 8063 8064 8165 8164 6953 6954 7055 7054 8064 8065 8166 8165 6954 6955 7056 7055 8065 8066 8167 8166 6955 6956 7057 7056 8066 8067 8168 8167 6956 6957 7058 7057 8067 8068 8169 8168 6957 6958 7059 7058 8068 8069 8170 8169 6958 6959 7060 7059 8069 8070 8171 8170 6959 6960 7061 7060 8070 8071 8172 8171 6960 6961 7062 7061 8071 8072 8173 8172 6961 6962 7063 7062 8072 8073 8174 8173 6962 6963 7064 7063 8073 8074 8175 8174 6963 6964 7065 7064 8074 8075 8176 8175 6964 6965 7066 7065 8075 8076 8177 8176 6965 6966 7067 7066 8076 8077 8178 8177 6966 6967 7068 7067 8077 8078 8179 8178 6967 6968 7069 7068 8078 8079 8180 8179 6969 6970 7071 7070 8080 8081 8182 8181 6970 6971 7072 7071 8081 8082 8183 8182 6971 6972 7073 7072 8082 8083 8184 8183 6972 6973 7074 7073 8083 8084 8185 8184 6973 6974 7075 7074 8084 8085 8186 8185 6974 6975 7076 7075 8085 8086 8187 8186 6975 6976 7077 7076 8086 8087 8188 8187 6976 6977 7078 7077 8087 8088 8189 8188 6977 6978 7079 7078 8088 8089 8190 8189 6978 6979 7080 7079 8089 8090 8191 8190 6979 6980 7081 7080 8090 8091 8192 8191 6980 6981 7082 7081 8091 8092 8193 8192 6981 6982 7083 7082 8092 8093 8194 8193 6982 6983 7084 7083 8093 8094 8195 8194 6983 6984 7085 7084 8094 8095 8196 8195 6984 6985 7086 7085 8095 8096 8197 8196 6985 6986 7087 7086 8096 8097 8198 8197 6986 6987 7088 7087 8097 8098 8199 8198 6987 6988 7089 7088 8098 8099 8200 8199 6988 6989 7090 7089 8099 8100 8201 8200 6989 6990 7091 7090 8100 8101 8202 8201 6990 6991 7092 7091 8101 8102 8203 8202 6991 6992 7093 7092 8102 8103 8204 8203 6992 6993 7094 7093 8103 8104 8205 8204 6993 6994 7095 7094 8104 8105 8206 8205 6994 6995 7096 7095 8105 8106 8207 8206 6995 6996 7097 7096 8106 8107 8208 8207 6996 6997 7098 7097 8107 8108 8209 8208 6997 6998 7099 7098 8108 8109 8210 8209 6998 6999 7100 7099 8109 8110 8211 8210 6999 7000 7101 7100 8110 8111 8212 8211 7000 7001 7102 7101 8111 8112 8213 8212 7001 7002 7103 7102 8112 8113 8214 8213 7002 7003 7104 7103 8113 8114 8215 8214 7003 7004 7105 7104 8114 8115 8216 8215 7004 7005 7106 7105 8115 8116 8217 8216 7005 7006 7107 7106 8116 8117 8218 8217 7006 7007 7108 7107 8117 8118 8219 8218 7007 7008 7109 7108 8118 8119 8220 8219 7008 7009 7110 7109 8119 8120 8221 8220 7009 7010 7111 7110 8120 8121 8222 8221 7010 7011 7112 7111 8121 8122 8223 8222 7011 7012 7113 7112 8122 8123 8224 8223 7012 7013 7114 7113 8123 8124 8225 8224 7013 7014 7115 7114 8124 8125 8226 8225 7014 7015 7116 7115 8125 8126 8227 8226 7015 7016 7117 7116 8126 8127 8228 8227 7016 7017 7118 7117 8127 8128 8229 8228 7017 7018 7119 7118 8128 8129 8230 8229 7018 7019 7120 7119 8129 8130 8231 8230 7019 7020 7121 7120 8130 8131 8232 8231 7020 7021 7122 7121 8131 8132 8233 8232 7021 7022 7123 7122 8132 8133 8234 8233 7022 7023 7124 7123 8133 8134 8235 8234 7023 7024 7125 7124 8134 8135 8236 8235 7024 7025 7126 7125 8135 8136 8237 8236 7025 7026 7127 7126 8136 8137 8238 8237 7026 7027 7128 7127 8137 8138 8239 8238 7027 7028 7129 7128 8138 8139 8240 8239 7028 7029 7130 7129 8139 8140 8241 8240 7029 7030 7131 7130 8140 8141 8242 8241 7030 7031 7132 7131 8141 8142 8243 8242 7031 7032 7133 7132 8142 8143 8244 8243 7032 7033 7134 7133 8143 8144 8245 8244 7033 7034 7135 7134 8144 8145 8246 8245 7034 7035 7136 7135 8145 8146 8247 8246 7035 7036 7137 7136 8146 8147 8248 8247 7036 7037 7138 7137 8147 8148 8249 8248 7037 7038 7139 7138 8148 8149 8250 8249 7038 7039 7140 7139 8149 8150 8251 8250 7039 7040 7141 7140 8150 8151 8252 8251 7040 7041 7142 7141 8151 8152 8253 8252 7041 7042 7143 7142 8152 8153 8254 8253 7042 7043 7144 7143 8153 8154 8255 8254 7043 7044 7145 7144 8154 8155 8256 8255 7044 7045 7146 7145 8155 8156 8257 8256 7045 7046 7147 7146 8156 8157 8258 8257 7046 7047 7148 7147 8157 8158 8259 8258 7047 7048 7149 7148 8158 8159 8260 8259 7048 7049 7150 7149 8159 8160 8261 8260 7049 7050 7151 7150 8160 8161 8262 8261 7050 7051 7152 7151 8161 8162 8263 8262 7051 7052 7153 7152 8162 8163 8264 8263 7052 7053 7154 7153 8163 8164 8265 8264 7053 7054 7155 7154 8164 8165 8266 8265 7054 7055 7156 7155 8165 8166 8267 8266 7055 7056 7157 7156 8166 8167 8268 8267 7056 7057 7158 7157 8167 8168 8269 8268 7057 7058 7159 7158 8168 8169 8270 8269 7058 7059 7160 7159 8169 8170 8271 8270 7059 7060 7161 7160 8170 8171 8272 8271 7060 7061 7162 7161 8171 8172 8273 8272 7061 7062 7163 7162 8172 8173 8274 8273 7062 7063 7164 7163 8173 8174 8275 8274 7063 7064 7165 7164 8174 8175 8276 8275 7064 7065 7166 7165 8175 8176 8277 8276 7065 7066 7167 7166 8176 8177 8278 8277 7066 7067 7168 7167 8177 8178 8279 8278 7067 7068 7169 7168 8178 8179 8280 8279 7068 7069 7170 7169 8179 8180 8281 8280 7070 7071 7172 7171 8181 8182 8283 8282 7071 7072 7173 7172 8182 8183 8284 8283 7072 7073 7174 7173 8183 8184 8285 8284 7073 7074 7175 7174 8184 8185 8286 8285 7074 7075 7176 7175 8185 8186 8287 8286 7075 7076 7177 7176 8186 8187 8288 8287 7076 7077 7178 7177 8187 8188 8289 8288 7077 7078 7179 7178 8188 8189 8290 8289 7078 7079 7180 7179 8189 8190 8291 8290 7079 7080 7181 7180 8190 8191 8292 8291 7080 7081 7182 7181 8191 8192 8293 8292 7081 7082 7183 7182 8192 8193 8294 8293 7082 7083 7184 7183 8193 8194 8295 8294 7083 7084 7185 7184 8194 8195 8296 8295 7084 7085 7186 7185 8195 8196 8297 8296 7085 7086 7187 7186 8196 8197 8298 8297 7086 7087 7188 7187 8197 8198 8299 8298 7087 7088 7189 7188 8198 8199 8300 8299 7088 7089 7190 7189 8199 8200 8301 8300 7089 7090 7191 7190 8200 8201 8302 8301 7090 7091 7192 7191 8201 8202 8303 8302 7091 7092 7193 7192 8202 8203 8304 8303 7092 7093 7194 7193 8203 8204 8305 8304 7093 7094 7195 7194 8204 8205 8306 8305 7094 7095 7196 7195 8205 8206 8307 8306 7095 7096 7197 7196 8206 8207 8308 8307 7096 7097 7198 7197 8207 8208 8309 8308 7097 7098 7199 7198 8208 8209 8310 8309 7098 7099 7200 7199 8209 8210 8311 8310 7099 7100 7201 7200 8210 8211 8312 8311 7100 7101 7202 7201 8211 8212 8313 8312 7101 7102 7203 7202 8212 8213 8314 8313 7102 7103 7204 7203 8213 8214 8315 8314 7103 7104 7205 7204 8214 8215 8316 8315 7104 7105 7206 7205 8215 8216 8317 8316 7105 7106 7207 7206 8216 8217 8318 8317 7106 7107 7208 7207 8217 8218 8319 8318 7107 7108 7209 7208 8218 8219 8320 8319 7108 7109 7210 7209 8219 8220 8321 8320 7109 7110 7211 7210 8220 8221 8322 8321 7110 7111 7212 7211 8221 8222 8323 8322 7111 7112 7213 7212 8222 8223 8324 8323 7112 7113 7214 7213 8223 8224 8325 8324 7113 7114 7215 7214 8224 8225 8326 8325 7114 7115 7216 7215 8225 8226 8327 8326 7115 7116 7217 7216 8226 8227 8328 8327 7116 7117 7218 7217 8227 8228 8329 8328 7117 7118 7219 7218 8228 8229 8330 8329 7118 7119 7220 7219 8229 8230 8331 8330 7119 7120 7221 7220 8230 8231 8332 8331 7120 7121 7222 7221 8231 8232 8333 8332 7121 7122 7223 7222 8232 8233 8334 8333 7122 7123 7224 7223 8233 8234 8335 8334 7123 7124 7225 7224 8234 8235 8336 8335 7124 7125 7226 7225 8235 8236 8337 8336 7125 7126 7227 7226 8236 8237 8338 8337 7126 7127 7228 7227 8237 8238 8339 8338 7127 7128 7229 7228 8238 8239 8340 8339 7128 7129 7230 7229 8239 8240 8341 8340 7129 7130 7231 7230 8240 8241 8342 8341 7130 7131 7232 7231 8241 8242 8343 8342 7131 7132 7233 7232 8242 8243 8344 8343 7132 7133 7234 7233 8243 8244 8345 8344 7133 7134 7235 7234 8244 8245 8346 8345 7134 7135 7236 7235 8245 8246 8347 8346 7135 7136 7237 7236 8246 8247 8348 8347 7136 7137 7238 7237 8247 8248 8349 8348 7137 7138 7239 7238 8248 8249 8350 8349 7138 7139 7240 7239 8249 8250 8351 8350 7139 7140 7241 7240 8250 8251 8352 8351 7140 7141 7242 7241 8251 8252 8353 8352 7141 7142 7243 7242 8252 8253 8354 8353 7142 7143 7244 7243 8253 8254 8355 8354 7143 7144 7245 7244 8254 8255 8356 8355 7144 7145 7246 7245 8255 8256 8357 8356 7145 7146 7247 7246 8256 8257 8358 8357 7146 7147 7248 7247 8257 8258 8359 8358 7147 7148 7249 7248 8258 8259 8360 8359 7148 7149 7250 7249 8259 8260 8361 8360 7149 7150 7251 7250 8260 8261 8362 8361 7150 7151 7252 7251 8261 8262 8363 8362 7151 7152 7253 7252 8262 8263 8364 8363 7152 7153 7254 7253 8263 8264 8365 8364 7153 7154 7255 7254 8264 8265 8366 8365 7154 7155 7256 7255 8265 8266 8367 8366 7155 7156 7257 7256 8266 8267 8368 8367 7156 7157 7258 7257 8267 8268 8369 8368 7157 7158 7259 7258 8268 8269 8370 8369 7158 7159 7260 7259 8269 8270 8371 8370 7159 7160 7261 7260 8270 8271 8372 8371 7160 7161 7262 7261 8271 8272 8373 8372 7161 7162 7263 7262 8272 8273 8374 8373 7162 7163 7264 7263 8273 8274 8375 8374 7163 7164 7265 7264 8274 8275 8376 8375 7164 7165 7266 7265 8275 8276 8377 8376 7165 7166 7267 7266 8276 8277 8378 8377 7166 7167 7268 7267 8277 8278 8379 8378 7167 7168 7269 7268 8278 8279 8380 8379 7168 7169 7270 7269 8279 8280 8381 8380 7169 7170 7271 7270 8280 8281 8382 8381 7171 7172 7273 7272 8282 8283 8384 8383 7172 7173 7274 7273 8283 8284 8385 8384 7173 7174 7275 7274 8284 8285 8386 8385 7174 7175 7276 7275 8285 8286 8387 8386 7175 7176 7277 7276 8286 8287 8388 8387 7176 7177 7278 7277 8287 8288 8389 8388 7177 7178 7279 7278 8288 8289 8390 8389 7178 7179 7280 7279 8289 8290 8391 8390 7179 7180 7281 7280 8290 8291 8392 8391 7180 7181 7282 7281 8291 8292 8393 8392 7181 7182 7283 7282 8292 8293 8394 8393 7182 7183 7284 7283 8293 8294 8395 8394 7183 7184 7285 7284 8294 8295 8396 8395 7184 7185 7286 7285 8295 8296 8397 8396 7185 7186 7287 7286 8296 8297 8398 8397 7186 7187 7288 7287 8297 8298 8399 8398 7187 7188 7289 7288 8298 8299 8400 8399 7188 7189 7290 7289 8299 8300 8401 8400 7189 7190 7291 7290 8300 8301 8402 8401 7190 7191 7292 7291 8301 8302 8403 8402 7191 7192 7293 7292 8302 8303 8404 8403 7192 7193 7294 7293 8303 8304 8405 8404 7193 7194 7295 7294 8304 8305 8406 8405 7194 7195 7296 7295 8305 8306 8407 8406 7195 7196 7297 7296 8306 8307 8408 8407 7196 7197 7298 7297 8307 8308 8409 8408 7197 7198 7299 7298 8308 8309 8410 8409 7198 7199 7300 7299 8309 8310 8411 8410 7199 7200 7301 7300 8310 8311 8412 8411 7200 7201 7302 7301 8311 8312 8413 8412 7201 7202 7303 7302 8312 8313 8414 8413 7202 7203 7304 7303 8313 8314 8415 8414 7203 7204 7305 7304 8314 8315 8416 8415 7204 7205 7306 7305 8315 8316 8417 8416 7205 7206 7307 7306 8316 8317 8418 8417 7206 7207 7308 7307 8317 8318 8419 8418 7207 7208 7309 7308 8318 8319 8420 8419 7208 7209 7310 7309 8319 8320 8421 8420 7209 7210 7311 7310 8320 8321 8422 8421 7210 7211 7312 7311 8321 8322 8423 8422 7211 7212 7313 7312 8322 8323 8424 8423 7212 7213 7314 7313 8323 8324 8425 8424 7213 7214 7315 7314 8324 8325 8426 8425 7214 7215 7316 7315 8325 8326 8427 8426 7215 7216 7317 7316 8326 8327 8428 8427 7216 7217 7318 7317 8327 8328 8429 8428 7217 7218 7319 7318 8328 8329 8430 8429 7218 7219 7320 7319 8329 8330 8431 8430 7219 7220 7321 7320 8330 8331 8432 8431 7220 7221 7322 7321 8331 8332 8433 8432 7221 7222 7323 7322 8332 8333 8434 8433 7222 7223 7324 7323 8333 8334 8435 8434 7223 7224 7325 7324 8334 8335 8436 8435 7224 7225 7326 7325 8335 8336 8437 8436 7225 7226 7327 7326 8336 8337 8438 8437 7226 7227 7328 7327 8337 8338 8439 8438 7227 7228 7329 7328 8338 8339 8440 8439 7228 7229 7330 7329 8339 8340 8441 8440 7229 7230 7331 7330 8340 8341 8442 8441 7230 7231 7332 7331 8341 8342 8443 8442 7231 7232 7333 7332 8342 8343 8444 8443 7232 7233 7334 7333 8343 8344 8445 8444 7233 7234 7335 7334 8344 8345 8446 8445 7234 7235 7336 7335 8345 8346 8447 8446 7235 7236 7337 7336 8346 8347 8448 8447 7236 7237 7338 7337 8347 8348 8449 8448 7237 7238 7339 7338 8348 8349 8450 8449 7238 7239 7340 7339 8349 8350 8451 8450 7239 7240 7341 7340 8350 8351 8452 8451 7240 7241 7342 7341 8351 8352 8453 8452 7241 7242 7343 7342 8352 8353 8454 8453 7242 7243 7344 7343 8353 8354 8455 8454 7243 7244 7345 7344 8354 8355 8456 8455 7244 7245 7346 7345 8355 8356 8457 8456 7245 7246 7347 7346 8356 8357 8458 8457 7246 7247 7348 7347 8357 8358 8459 8458 7247 7248 7349 7348 8358 8359 8460 8459 7248 7249 7350 7349 8359 8360 8461 8460 7249 7250 7351 7350 8360 8361 8462 8461 7250 7251 7352 7351 8361 8362 8463 8462 7251 7252 7353 7352 8362 8363 8464 8463 7252 7253 7354 7353 8363 8364 8465 8464 7253 7254 7355 7354 8364 8365 8466 8465 7254 7255 7356 7355 8365 8366 8467 8466 7255 7256 7357 7356 8366 8367 8468 8467 7256 7257 7358 7357 8367 8368 8469 8468 7257 7258 7359 7358 8368 8369 8470 8469 7258 7259 7360 7359 8369 8370 8471 8470 7259 7260 7361 7360 8370 8371 8472 8471 7260 7261 7362 7361 8371 8372 8473 8472 7261 7262 7363 7362 8372 8373 8474 8473 7262 7263 7364 7363 8373 8374 8475 8474 7263 7264 7365 7364 8374 8375 8476 8475 7264 7265 7366 7365 8375 8376 8477 8476 7265 7266 7367 7366 8376 8377 8478 8477 7266 7267 7368 7367 8377 8378 8479 8478 7267 7268 7369 7368 8378 8379 8480 8479 7268 7269 7370 7369 8379 8380 8481 8480 7269 7270 7371 7370 8380 8381 8482 8481 7270 7271 7372 7371 8381 8382 8483 8482 7272 7273 7374 7373 8383 8384 8485 8484 7273 7274 7375 7374 8384 8385 8486 8485 7274 7275 7376 7375 8385 8386 8487 8486 7275 7276 7377 7376 8386 8387 8488 8487 7276 7277 7378 7377 8387 8388 8489 8488 7277 7278 7379 7378 8388 8389 8490 8489 7278 7279 7380 7379 8389 8390 8491 8490 7279 7280 7381 7380 8390 8391 8492 8491 7280 7281 7382 7381 8391 8392 8493 8492 7281 7282 7383 7382 8392 8393 8494 8493 7282 7283 7384 7383 8393 8394 8495 8494 7283 7284 7385 7384 8394 8395 8496 8495 7284 7285 7386 7385 8395 8396 8497 8496 7285 7286 7387 7386 8396 8397 8498 8497 7286 7287 7388 7387 8397 8398 8499 8498 7287 7288 7389 7388 8398 8399 8500 8499 7288 7289 7390 7389 8399 8400 8501 8500 7289 7290 7391 7390 8400 8401 8502 8501 7290 7291 7392 7391 8401 8402 8503 8502 7291 7292 7393 7392 8402 8403 8504 8503 7292 7293 7394 7393 8403 8404 8505 8504 7293 7294 7395 7394 8404 8405 8506 8505 7294 7295 7396 7395 8405 8406 8507 8506 7295 7296 7397 7396 8406 8407 8508 8507 7296 7297 7398 7397 8407 8408 8509 8508 7297 7298 7399 7398 8408 8409 8510 8509 7298 7299 7400 7399 8409 8410 8511 8510 7299 7300 7401 7400 8410 8411 8512 8511 7300 7301 7402 7401 8411 8412 8513 8512 7301 7302 7403 7402 8412 8413 8514 8513 7302 7303 7404 7403 8413 8414 8515 8514 7303 7304 7405 7404 8414 8415 8516 8515 7304 7305 7406 7405 8415 8416 8517 8516 7305 7306 7407 7406 8416 8417 8518 8517 7306 7307 7408 7407 8417 8418 8519 8518 7307 7308 7409 7408 8418 8419 8520 8519 7308 7309 7410 7409 8419 8420 8521 8520 7309 7310 7411 7410 8420 8421 8522 8521 7310 7311 7412 7411 8421 8422 8523 8522 7311 7312 7413 7412 8422 8423 8524 8523 7312 7313 7414 7413 8423 8424 8525 8524 7313 7314 7415 7414 8424 8425 8526 8525 7314 7315 7416 7415 8425 8426 8527 8526 7315 7316 7417 7416 8426 8427 8528 8527 7316 7317 7418 7417 8427 8428 8529 8528 7317 7318 7419 7418 8428 8429 8530 8529 7318 7319 7420 7419 8429 8430 8531 8530 7319 7320 7421 7420 8430 8431 8532 8531 7320 7321 7422 7421 8431 8432 8533 8532 7321 7322 7423 7422 8432 8433 8534 8533 7322 7323 7424 7423 8433 8434 8535 8534 7323 7324 7425 7424 8434 8435 8536 8535 7324 7325 7426 7425 8435 8436 8537 8536 7325 7326 7427 7426 8436 8437 8538 8537 7326 7327 7428 7427 8437 8438 8539 8538 7327 7328 7429 7428 8438 8439 8540 8539 7328 7329 7430 7429 8439 8440 8541 8540 7329 7330 7431 7430 8440 8441 8542 8541 7330 7331 7432 7431 8441 8442 8543 8542 7331 7332 7433 7432 8442 8443 8544 8543 7332 7333 7434 7433 8443 8444 8545 8544 7333 7334 7435 7434 8444 8445 8546 8545 7334 7335 7436 7435 8445 8446 8547 8546 7335 7336 7437 7436 8446 8447 8548 8547 7336 7337 7438 7437 8447 8448 8549 8548 7337 7338 7439 7438 8448 8449 8550 8549 7338 7339 7440 7439 8449 8450 8551 8550 7339 7340 7441 7440 8450 8451 8552 8551 7340 7341 7442 7441 8451 8452 8553 8552 7341 7342 7443 7442 8452 8453 8554 8553 7342 7343 7444 7443 8453 8454 8555 8554 7343 7344 7445 7444 8454 8455 8556 8555 7344 7345 7446 7445 8455 8456 8557 8556 7345 7346 7447 7446 8456 8457 8558 8557 7346 7347 7448 7447 8457 8458 8559 8558 7347 7348 7449 7448 8458 8459 8560 8559 7348 7349 7450 7449 8459 8460 8561 8560 7349 7350 7451 7450 8460 8461 8562 8561 7350 7351 7452 7451 8461 8462 8563 8562 7351 7352 7453 7452 8462 8463 8564 8563 7352 7353 7454 7453 8463 8464 8565 8564 7353 7354 7455 7454 8464 8465 8566 8565 7354 7355 7456 7455 8465 8466 8567 8566 7355 7356 7457 7456 8466 8467 8568 8567 7356 7357 7458 7457 8467 8468 8569 8568 7357 7358 7459 7458 8468 8469 8570 8569 7358 7359 7460 7459 8469 8470 8571 8570 7359 7360 7461 7460 8470 8471 8572 8571 7360 7361 7462 7461 8471 8472 8573 8572 7361 7362 7463 7462 8472 8473 8574 8573 7362 7363 7464 7463 8473 8474 8575 8574 7363 7364 7465 7464 8474 8475 8576 8575 7364 7365 7466 7465 8475 8476 8577 8576 7365 7366 7467 7466 8476 8477 8578 8577 7366 7367 7468 7467 8477 8478 8579 8578 7367 7368 7469 7468 8478 8479 8580 8579 7368 7369 7470 7469 8479 8480 8581 8580 7369 7370 7471 7470 8480 8481 8582 8581 7370 7371 7472 7471 8481 8482 8583 8582 7371 7372 7473 7472 8482 8483 8584 8583 7373 7374 7475 7474 8484 8485 8586 8585 7374 7375 7476 7475 8485 8486 8587 8586 7375 7376 7477 7476 8486 8487 8588 8587 7376 7377 7478 7477 8487 8488 8589 8588 7377 7378 7479 7478 8488 8489 8590 8589 7378 7379 7480 7479 8489 8490 8591 8590 7379 7380 7481 7480 8490 8491 8592 8591 7380 7381 7482 7481 8491 8492 8593 8592 7381 7382 7483 7482 8492 8493 8594 8593 7382 7383 7484 7483 8493 8494 8595 8594 7383 7384 7485 7484 8494 8495 8596 8595 7384 7385 7486 7485 8495 8496 8597 8596 7385 7386 7487 7486 8496 8497 8598 8597 7386 7387 7488 7487 8497 8498 8599 8598 7387 7388 7489 7488 8498 8499 8600 8599 7388 7389 7490 7489 8499 8500 8601 8600 7389 7390 7491 7490 8500 8501 8602 8601 7390 7391 7492 7491 8501 8502 8603 8602 7391 7392 7493 7492 8502 8503 8604 8603 7392 7393 7494 7493 8503 8504 8605 8604 7393 7394 7495 7494 8504 8505 8606 8605 7394 7395 7496 7495 8505 8506 8607 8606 7395 7396 7497 7496 8506 8507 8608 8607 7396 7397 7498 7497 8507 8508 8609 8608 7397 7398 7499 7498 8508 8509 8610 8609 7398 7399 7500 7499 8509 8510 8611 8610 7399 7400 7501 7500 8510 8511 8612 8611 7400 7401 7502 7501 8511 8512 8613 8612 7401 7402 7503 7502 8512 8513 8614 8613 7402 7403 7504 7503 8513 8514 8615 8614 7403 7404 7505 7504 8514 8515 8616 8615 7404 7405 7506 7505 8515 8516 8617 8616 7405 7406 7507 7506 8516 8517 8618 8617 7406 7407 7508 7507 8517 8518 8619 8618 7407 7408 7509 7508 8518 8519 8620 8619 7408 7409 7510 7509 8519 8520 8621 8620 7409 7410 7511 7510 8520 8521 8622 8621 7410 7411 7512 7511 8521 8522 8623 8622 7411 7412 7513 7512 8522 8523 8624 8623 7412 7413 7514 7513 8523 8524 8625 8624 7413 7414 7515 7514 8524 8525 8626 8625 7414 7415 7516 7515 8525 8526 8627 8626 7415 7416 7517 7516 8526 8527 8628 8627 7416 7417 7518 7517 8527 8528 8629 8628 7417 7418 7519 7518 8528 8529 8630 8629 7418 7419 7520 7519 8529 8530 8631 8630 7419 7420 7521 7520 8530 8531 8632 8631 7420 7421 7522 7521 8531 8532 8633 8632 7421 7422 7523 7522 8532 8533 8634 8633 7422 7423 7524 7523 8533 8534 8635 8634 7423 7424 7525 7524 8534 8535 8636 8635 7424 7425 7526 7525 8535 8536 8637 8636 7425 7426 7527 7526 8536 8537 8638 8637 7426 7427 7528 7527 8537 8538 8639 8638 7427 7428 7529 7528 8538 8539 8640 8639 7428 7429 7530 7529 8539 8540 8641 8640 7429 7430 7531 7530 8540 8541 8642 8641 7430 7431 7532 7531 8541 8542 8643 8642 7431 7432 7533 7532 8542 8543 8644 8643 7432 7433 7534 7533 8543 8544 8645 8644 7433 7434 7535 7534 8544 8545 8646 8645 7434 7435 7536 7535 8545 8546 8647 8646 7435 7436 7537 7536 8546 8547 8648 8647 7436 7437 7538 7537 8547 8548 8649 8648 7437 7438 7539 7538 8548 8549 8650 8649 7438 7439 7540 7539 8549 8550 8651 8650 7439 7440 7541 7540 8550 8551 8652 8651 7440 7441 7542 7541 8551 8552 8653 8652 7441 7442 7543 7542 8552 8553 8654 8653 7442 7443 7544 7543 8553 8554 8655 8654 7443 7444 7545 7544 8554 8555 8656 8655 7444 7445 7546 7545 8555 8556 8657 8656 7445 7446 7547 7546 8556 8557 8658 8657 7446 7447 7548 7547 8557 8558 8659 8658 7447 7448 7549 7548 8558 8559 8660 8659 7448 7449 7550 7549 8559 8560 8661 8660 7449 7450 7551 7550 8560 8561 8662 8661 7450 7451 7552 7551 8561 8562 8663 8662 7451 7452 7553 7552 8562 8563 8664 8663 7452 7453 7554 7553 8563 8564 8665 8664 7453 7454 7555 7554 8564 8565 8666 8665 7454 7455 7556 7555 8565 8566 8667 8666 7455 7456 7557 7556 8566 8567 8668 8667 7456 7457 7558 7557 8567 8568 8669 8668 7457 7458 7559 7558 8568 8569 8670 8669 7458 7459 7560 7559 8569 8570 8671 8670 7459 7460 7561 7560 8570 8571 8672 8671 7460 7461 7562 7561 8571 8572 8673 8672 7461 7462 7563 7562 8572 8573 8674 8673 7462 7463 7564 7563 8573 8574 8675 8674 7463 7464 7565 7564 8574 8575 8676 8675 7464 7465 7566 7565 8575 8576 8677 8676 7465 7466 7567 7566 8576 8577 8678 8677 7466 7467 7568 7567 8577 8578 8679 8678 7467 7468 7569 7568 8578 8579 8680 8679 7468 7469 7570 7569 8579 8580 8681 8680 7469 7470 7571 7570 8580 8581 8682 8681 7470 7471 7572 7571 8581 8582 8683 8682 7471 7472 7573 7572 8582 8583 8684 8683 7472 7473 7574 7573 8583 8584 8685 8684 7474 7475 7576 7575 8585 8586 8687 8686 7475 7476 7577 7576 8586 8587 8688 8687 7476 7477 7578 7577 8587 8588 8689 8688 7477 7478 7579 7578 8588 8589 8690 8689 7478 7479 7580 7579 8589 8590 8691 8690 7479 7480 7581 7580 8590 8591 8692 8691 7480 7481 7582 7581 8591 8592 8693 8692 7481 7482 7583 7582 8592 8593 8694 8693 7482 7483 7584 7583 8593 8594 8695 8694 7483 7484 7585 7584 8594 8595 8696 8695 7484 7485 7586 7585 8595 8596 8697 8696 7485 7486 7587 7586 8596 8597 8698 8697 7486 7487 7588 7587 8597 8598 8699 8698 7487 7488 7589 7588 8598 8599 8700 8699 7488 7489 7590 7589 8599 8600 8701 8700 7489 7490 7591 7590 8600 8601 8702 8701 7490 7491 7592 7591 8601 8602 8703 8702 7491 7492 7593 7592 8602 8603 8704 8703 7492 7493 7594 7593 8603 8604 8705 8704 7493 7494 7595 7594 8604 8605 8706 8705 7494 7495 7596 7595 8605 8606 8707 8706 7495 7496 7597 7596 8606 8607 8708 8707 7496 7497 7598 7597 8607 8608 8709 8708 7497 7498 7599 7598 8608 8609 8710 8709 7498 7499 7600 7599 8609 8610 8711 8710 7499 7500 7601 7600 8610 8611 8712 8711 7500 7501 7602 7601 8611 8612 8713 8712 7501 7502 7603 7602 8612 8613 8714 8713 7502 7503 7604 7603 8613 8614 8715 8714 7503 7504 7605 7604 8614 8615 8716 8715 7504 7505 7606 7605 8615 8616 8717 8716 7505 7506 7607 7606 8616 8617 8718 8717 7506 7507 7608 7607 8617 8618 8719 8718 7507 7508 7609 7608 8618 8619 8720 8719 7508 7509 7610 7609 8619 8620 8721 8720 7509 7510 7611 7610 8620 8621 8722 8721 7510 7511 7612 7611 8621 8622 8723 8722 7511 7512 7613 7612 8622 8623 8724 8723 7512 7513 7614 7613 8623 8624 8725 8724 7513 7514 7615 7614 8624 8625 8726 8725 7514 7515 7616 7615 8625 8626 8727 8726 7515 7516 7617 7616 8626 8627 8728 8727 7516 7517 7618 7617 8627 8628 8729 8728 7517 7518 7619 7618 8628 8629 8730 8729 7518 7519 7620 7619 8629 8630 8731 8730 7519 7520 7621 7620 8630 8631 8732 8731 7520 7521 7622 7621 8631 8632 8733 8732 7521 7522 7623 7622 8632 8633 8734 8733 7522 7523 7624 7623 8633 8634 8735 8734 7523 7524 7625 7624 8634 8635 8736 8735 7524 7525 7626 7625 8635 8636 8737 8736 7525 7526 7627 7626 8636 8637 8738 8737 7526 7527 7628 7627 8637 8638 8739 8738 7527 7528 7629 7628 8638 8639 8740 8739 7528 7529 7630 7629 8639 8640 8741 8740 7529 7530 7631 7630 8640 8641 8742 8741 7530 7531 7632 7631 8641 8642 8743 8742 7531 7532 7633 7632 8642 8643 8744 8743 7532 7533 7634 7633 8643 8644 8745 8744 7533 7534 7635 7634 8644 8645 8746 8745 7534 7535 7636 7635 8645 8646 8747 8746 7535 7536 7637 7636 8646 8647 8748 8747 7536 7537 7638 7637 8647 8648 8749 8748 7537 7538 7639 7638 8648 8649 8750 8749 7538 7539 7640 7639 8649 8650 8751 8750 7539 7540 7641 7640 8650 8651 8752 8751 7540 7541 7642 7641 8651 8652 8753 8752 7541 7542 7643 7642 8652 8653 8754 8753 7542 7543 7644 7643 8653 8654 8755 8754 7543 7544 7645 7644 8654 8655 8756 8755 7544 7545 7646 7645 8655 8656 8757 8756 7545 7546 7647 7646 8656 8657 8758 8757 7546 7547 7648 7647 8657 8658 8759 8758 7547 7548 7649 7648 8658 8659 8760 8759 7548 7549 7650 7649 8659 8660 8761 8760 7549 7550 7651 7650 8660 8661 8762 8761 7550 7551 7652 7651 8661 8662 8763 8762 7551 7552 7653 7652 8662 8663 8764 8763 7552 7553 7654 7653 8663 8664 8765 8764 7553 7554 7655 7654 8664 8665 8766 8765 7554 7555 7656 7655 8665 8666 8767 8766 7555 7556 7657 7656 8666 8667 8768 8767 7556 7557 7658 7657 8667 8668 8769 8768 7557 7558 7659 7658 8668 8669 8770 8769 7558 7559 7660 7659 8669 8670 8771 8770 7559 7560 7661 7660 8670 8671 8772 8771 7560 7561 7662 7661 8671 8672 8773 8772 7561 7562 7663 7662 8672 8673 8774 8773 7562 7563 7664 7663 8673 8674 8775 8774 7563 7564 7665 7664 8674 8675 8776 8775 7564 7565 7666 7665 8675 8676 8777 8776 7565 7566 7667 7666 8676 8677 8778 8777 7566 7567 7668 7667 8677 8678 8779 8778 7567 7568 7669 7668 8678 8679 8780 8779 7568 7569 7670 7669 8679 8680 8781 8780 7569 7570 7671 7670 8680 8681 8782 8781 7570 7571 7672 7671 8681 8682 8783 8782 7571 7572 7673 7672 8682 8683 8784 8783 7572 7573 7674 7673 8683 8684 8785 8784 7573 7574 7675 7674 8684 8685 8786 8785 7575 7576 7677 7676 8686 8687 8788 8787 7576 7577 7678 7677 8687 8688 8789 8788 7577 7578 7679 7678 8688 8689 8790 8789 7578 7579 7680 7679 8689 8690 8791 8790 7579 7580 7681 7680 8690 8691 8792 8791 7580 7581 7682 7681 8691 8692 8793 8792 7581 7582 7683 7682 8692 8693 8794 8793 7582 7583 7684 7683 8693 8694 8795 8794 7583 7584 7685 7684 8694 8695 8796 8795 7584 7585 7686 7685 8695 8696 8797 8796 7585 7586 7687 7686 8696 8697 8798 8797 7586 7587 7688 7687 8697 8698 8799 8798 7587 7588 7689 7688 8698 8699 8800 8799 7588 7589 7690 7689 8699 8700 8801 8800 7589 7590 7691 7690 8700 8701 8802 8801 7590 7591 7692 7691 8701 8702 8803 8802 7591 7592 7693 7692 8702 8703 8804 8803 7592 7593 7694 7693 8703 8704 8805 8804 7593 7594 7695 7694 8704 8705 8806 8805 7594 7595 7696 7695 8705 8706 8807 8806 7595 7596 7697 7696 8706 8707 8808 8807 7596 7597 7698 7697 8707 8708 8809 8808 7597 7598 7699 7698 8708 8709 8810 8809 7598 7599 7700 7699 8709 8710 8811 8810 7599 7600 7701 7700 8710 8711 8812 8811 7600 7601 7702 7701 8711 8712 8813 8812 7601 7602 7703 7702 8712 8713 8814 8813 7602 7603 7704 7703 8713 8714 8815 8814 7603 7604 7705 7704 8714 8715 8816 8815 7604 7605 7706 7705 8715 8716 8817 8816 7605 7606 7707 7706 8716 8717 8818 8817 7606 7607 7708 7707 8717 8718 8819 8818 7607 7608 7709 7708 8718 8719 8820 8819 7608 7609 7710 7709 8719 8720 8821 8820 7609 7610 7711 7710 8720 8721 8822 8821 7610 7611 7712 7711 8721 8722 8823 8822 7611 7612 7713 7712 8722 8723 8824 8823 7612 7613 7714 7713 8723 8724 8825 8824 7613 7614 7715 7714 8724 8725 8826 8825 7614 7615 7716 7715 8725 8726 8827 8826 7615 7616 7717 7716 8726 8727 8828 8827 7616 7617 7718 7717 8727 8728 8829 8828 7617 7618 7719 7718 8728 8729 8830 8829 7618 7619 7720 7719 8729 8730 8831 8830 7619 7620 7721 7720 8730 8731 8832 8831 7620 7621 7722 7721 8731 8732 8833 8832 7621 7622 7723 7722 8732 8733 8834 8833 7622 7623 7724 7723 8733 8734 8835 8834 7623 7624 7725 7724 8734 8735 8836 8835 7624 7625 7726 7725 8735 8736 8837 8836 7625 7626 7727 7726 8736 8737 8838 8837 7626 7627 7728 7727 8737 8738 8839 8838 7627 7628 7729 7728 8738 8739 8840 8839 7628 7629 7730 7729 8739 8740 8841 8840 7629 7630 7731 7730 8740 8741 8842 8841 7630 7631 7732 7731 8741 8742 8843 8842 7631 7632 7733 7732 8742 8743 8844 8843 7632 7633 7734 7733 8743 8744 8845 8844 7633 7634 7735 7734 8744 8745 8846 8845 7634 7635 7736 7735 8745 8746 8847 8846 7635 7636 7737 7736 8746 8747 8848 8847 7636 7637 7738 7737 8747 8748 8849 8848 7637 7638 7739 7738 8748 8749 8850 8849 7638 7639 7740 7739 8749 8750 8851 8850 7639 7640 7741 7740 8750 8751 8852 8851 7640 7641 7742 7741 8751 8752 8853 8852 7641 7642 7743 7742 8752 8753 8854 8853 7642 7643 7744 7743 8753 8754 8855 8854 7643 7644 7745 7744 8754 8755 8856 8855 7644 7645 7746 7745 8755 8756 8857 8856 7645 7646 7747 7746 8756 8757 8858 8857 7646 7647 7748 7747 8757 8758 8859 8858 7647 7648 7749 7748 8758 8759 8860 8859 7648 7649 7750 7749 8759 8760 8861 8860 7649 7650 7751 7750 8760 8761 8862 8861 7650 7651 7752 7751 8761 8762 8863 8862 7651 7652 7753 7752 8762 8763 8864 8863 7652 7653 7754 7753 8763 8764 8865 8864 7653 7654 7755 7754 8764 8765 8866 8865 7654 7655 7756 7755 8765 8766 8867 8866 7655 7656 7757 7756 8766 8767 8868 8867 7656 7657 7758 7757 8767 8768 8869 8868 7657 7658 7759 7758 8768 8769 8870 8869 7658 7659 7760 7759 8769 8770 8871 8870 7659 7660 7761 7760 8770 8771 8872 8871 7660 7661 7762 7761 8771 8772 8873 8872 7661 7662 7763 7762 8772 8773 8874 8873 7662 7663 7764 7763 8773 8774 8875 8874 7663 7664 7765 7764 8774 8775 8876 8875 7664 7665 7766 7765 8775 8776 8877 8876 7665 7666 7767 7766 8776 8777 8878 8877 7666 7667 7768 7767 8777 8778 8879 8878 7667 7668 7769 7768 8778 8779 8880 8879 7668 7669 7770 7769 8779 8780 8881 8880 7669 7670 7771 7770 8780 8781 8882 8881 7670 7671 7772 7771 8781 8782 8883 8882 7671 7672 7773 7772 8782 8783 8884 8883 7672 7673 7774 7773 8783 8784 8885 8884 7673 7674 7775 7774 8784 8785 8886 8885 7674 7675 7776 7775 8785 8786 8887 8886 7777 7778 7879 7878 8888 8889 8990 8989 7778 7779 7880 7879 8889 8890 8991 8990 7779 7780 7881 7880 8890 8891 8992 8991 7780 7781 7882 7881 8891 8892 8993 8992 7781 7782 7883 7882 8892 8893 8994 8993 7782 7783 7884 7883 8893 8894 8995 8994 7783 7784 7885 7884 8894 8895 8996 8995 7784 7785 7886 7885 8895 8896 8997 8996 7785 7786 7887 7886 8896 8897 8998 8997 7786 7787 7888 7887 8897 8898 8999 8998 7787 7788 7889 7888 8898 8899 9000 8999 7788 7789 7890 7889 8899 8900 9001 9000 7789 7790 7891 7890 8900 8901 9002 9001 7790 7791 7892 7891 8901 8902 9003 9002 7791 7792 7893 7892 8902 8903 9004 9003 7792 7793 7894 7893 8903 8904 9005 9004 7793 7794 7895 7894 8904 8905 9006 9005 7794 7795 7896 7895 8905 8906 9007 9006 7795 7796 7897 7896 8906 8907 9008 9007 7796 7797 7898 7897 8907 8908 9009 9008 7797 7798 7899 7898 8908 8909 9010 9009 7798 7799 7900 7899 8909 8910 9011 9010 7799 7800 7901 7900 8910 8911 9012 9011 7800 7801 7902 7901 8911 8912 9013 9012 7801 7802 7903 7902 8912 8913 9014 9013 7802 7803 7904 7903 8913 8914 9015 9014 7803 7804 7905 7904 8914 8915 9016 9015 7804 7805 7906 7905 8915 8916 9017 9016 7805 7806 7907 7906 8916 8917 9018 9017 7806 7807 7908 7907 8917 8918 9019 9018 7807 7808 7909 7908 8918 8919 9020 9019 7808 7809 7910 7909 8919 8920 9021 9020 7809 7810 7911 7910 8920 8921 9022 9021 7810 7811 7912 7911 8921 8922 9023 9022 7811 7812 7913 7912 8922 8923 9024 9023 7812 7813 7914 7913 8923 8924 9025 9024 7813 7814 7915 7914 8924 8925 9026 9025 7814 7815 7916 7915 8925 8926 9027 9026 7815 7816 7917 7916 8926 8927 9028 9027 7816 7817 7918 7917 8927 8928 9029 9028 7817 7818 7919 7918 8928 8929 9030 9029 7818 7819 7920 7919 8929 8930 9031 9030 7819 7820 7921 7920 8930 8931 9032 9031 7820 7821 7922 7921 8931 8932 9033 9032 7821 7822 7923 7922 8932 8933 9034 9033 7822 7823 7924 7923 8933 8934 9035 9034 7823 7824 7925 7924 8934 8935 9036 9035 7824 7825 7926 7925 8935 8936 9037 9036 7825 7826 7927 7926 8936 8937 9038 9037 7826 7827 7928 7927 8937 8938 9039 9038 7827 7828 7929 7928 8938 8939 9040 9039 7828 7829 7930 7929 8939 8940 9041 9040 7829 7830 7931 7930 8940 8941 9042 9041 7830 7831 7932 7931 8941 8942 9043 9042 7831 7832 7933 7932 8942 8943 9044 9043 7832 7833 7934 7933 8943 8944 9045 9044 7833 7834 7935 7934 8944 8945 9046 9045 7834 7835 7936 7935 8945 8946 9047 9046 7835 7836 7937 7936 8946 8947 9048 9047 7836 7837 7938 7937 8947 8948 9049 9048 7837 7838 7939 7938 8948 8949 9050 9049 7838 7839 7940 7939 8949 8950 9051 9050 7839 7840 7941 7940 8950 8951 9052 9051 7840 7841 7942 7941 8951 8952 9053 9052 7841 7842 7943 7942 8952 8953 9054 9053 7842 7843 7944 7943 8953 8954 9055 9054 7843 7844 7945 7944 8954 8955 9056 9055 7844 7845 7946 7945 8955 8956 9057 9056 7845 7846 7947 7946 8956 8957 9058 9057 7846 7847 7948 7947 8957 8958 9059 9058 7847 7848 7949 7948 8958 8959 9060 9059 7848 7849 7950 7949 8959 8960 9061 9060 7849 7850 7951 7950 8960 8961 9062 9061 7850 7851 7952 7951 8961 8962 9063 9062 7851 7852 7953 7952 8962 8963 9064 9063 7852 7853 7954 7953 8963 8964 9065 9064 7853 7854 7955 7954 8964 8965 9066 9065 7854 7855 7956 7955 8965 8966 9067 9066 7855 7856 7957 7956 8966 8967 9068 9067 7856 7857 7958 7957 8967 8968 9069 9068 7857 7858 7959 7958 8968 8969 9070 9069 7858 7859 7960 7959 8969 8970 9071 9070 7859 7860 7961 7960 8970 8971 9072 9071 7860 7861 7962 7961 8971 8972 9073 9072 7861 7862 7963 7962 8972 8973 9074 9073 7862 7863 7964 7963 8973 8974 9075 9074 7863 7864 7965 7964 8974 8975 9076 9075 7864 7865 7966 7965 8975 8976 9077 9076 7865 7866 7967 7966 8976 8977 9078 9077 7866 7867 7968 7967 8977 8978 9079 9078 7867 7868 7969 7968 8978 8979 9080 9079 7868 7869 7970 7969 8979 8980 9081 9080 7869 7870 7971 7970 8980 8981 9082 9081 7870 7871 7972 7971 8981 8982 9083 9082 7871 7872 7973 7972 8982 8983 9084 9083 7872 7873 7974 7973 8983 8984 9085 9084 7873 7874 7975 7974 8984 8985 9086 9085 7874 7875 7976 7975 8985 8986 9087 9086 7875 7876 7977 7976 8986 8987 9088 9087 7876 7877 7978 7977 8987 8988 9089 9088 7878 7879 7980 7979 8989 8990 9091 9090 7879 7880 7981 7980 8990 8991 9092 9091 7880 7881 7982 7981 8991 8992 9093 9092 7881 7882 7983 7982 8992 8993 9094 9093 7882 7883 7984 7983 8993 8994 9095 9094 7883 7884 7985 7984 8994 8995 9096 9095 7884 7885 7986 7985 8995 8996 9097 9096 7885 7886 7987 7986 8996 8997 9098 9097 7886 7887 7988 7987 8997 8998 9099 9098 7887 7888 7989 7988 8998 8999 9100 9099 7888 7889 7990 7989 8999 9000 9101 9100 7889 7890 7991 7990 9000 9001 9102 9101 7890 7891 7992 7991 9001 9002 9103 9102 7891 7892 7993 7992 9002 9003 9104 9103 7892 7893 7994 7993 9003 9004 9105 9104 7893 7894 7995 7994 9004 9005 9106 9105 7894 7895 7996 7995 9005 9006 9107 9106 7895 7896 7997 7996 9006 9007 9108 9107 7896 7897 7998 7997 9007 9008 9109 9108 7897 7898 7999 7998 9008 9009 9110 9109 7898 7899 8000 7999 9009 9010 9111 9110 7899 7900 8001 8000 9010 9011 9112 9111 7900 7901 8002 8001 9011 9012 9113 9112 7901 7902 8003 8002 9012 9013 9114 9113 7902 7903 8004 8003 9013 9014 9115 9114 7903 7904 8005 8004 9014 9015 9116 9115 7904 7905 8006 8005 9015 9016 9117 9116 7905 7906 8007 8006 9016 9017 9118 9117 7906 7907 8008 8007 9017 9018 9119 9118 7907 7908 8009 8008 9018 9019 9120 9119 7908 7909 8010 8009 9019 9020 9121 9120 7909 7910 8011 8010 9020 9021 9122 9121 7910 7911 8012 8011 9021 9022 9123 9122 7911 7912 8013 8012 9022 9023 9124 9123 7912 7913 8014 8013 9023 9024 9125 9124 7913 7914 8015 8014 9024 9025 9126 9125 7914 7915 8016 8015 9025 9026 9127 9126 7915 7916 8017 8016 9026 9027 9128 9127 7916 7917 8018 8017 9027 9028 9129 9128 7917 7918 8019 8018 9028 9029 9130 9129 7918 7919 8020 8019 9029 9030 9131 9130 7919 7920 8021 8020 9030 9031 9132 9131 7920 7921 8022 8021 9031 9032 9133 9132 7921 7922 8023 8022 9032 9033 9134 9133 7922 7923 8024 8023 9033 9034 9135 9134 7923 7924 8025 8024 9034 9035 9136 9135 7924 7925 8026 8025 9035 9036 9137 9136 7925 7926 8027 8026 9036 9037 9138 9137 7926 7927 8028 8027 9037 9038 9139 9138 7927 7928 8029 8028 9038 9039 9140 9139 7928 7929 8030 8029 9039 9040 9141 9140 7929 7930 8031 8030 9040 9041 9142 9141 7930 7931 8032 8031 9041 9042 9143 9142 7931 7932 8033 8032 9042 9043 9144 9143 7932 7933 8034 8033 9043 9044 9145 9144 7933 7934 8035 8034 9044 9045 9146 9145 7934 7935 8036 8035 9045 9046 9147 9146 7935 7936 8037 8036 9046 9047 9148 9147 7936 7937 8038 8037 9047 9048 9149 9148 7937 7938 8039 8038 9048 9049 9150 9149 7938 7939 8040 8039 9049 9050 9151 9150 7939 7940 8041 8040 9050 9051 9152 9151 7940 7941 8042 8041 9051 9052 9153 9152 7941 7942 8043 8042 9052 9053 9154 9153 7942 7943 8044 8043 9053 9054 9155 9154 7943 7944 8045 8044 9054 9055 9156 9155 7944 7945 8046 8045 9055 9056 9157 9156 7945 7946 8047 8046 9056 9057 9158 9157 7946 7947 8048 8047 9057 9058 9159 9158 7947 7948 8049 8048 9058 9059 9160 9159 7948 7949 8050 8049 9059 9060 9161 9160 7949 7950 8051 8050 9060 9061 9162 9161 7950 7951 8052 8051 9061 9062 9163 9162 7951 7952 8053 8052 9062 9063 9164 9163 7952 7953 8054 8053 9063 9064 9165 9164 7953 7954 8055 8054 9064 9065 9166 9165 7954 7955 8056 8055 9065 9066 9167 9166 7955 7956 8057 8056 9066 9067 9168 9167 7956 7957 8058 8057 9067 9068 9169 9168 7957 7958 8059 8058 9068 9069 9170 9169 7958 7959 8060 8059 9069 9070 9171 9170 7959 7960 8061 8060 9070 9071 9172 9171 7960 7961 8062 8061 9071 9072 9173 9172 7961 7962 8063 8062 9072 9073 9174 9173 7962 7963 8064 8063 9073 9074 9175 9174 7963 7964 8065 8064 9074 9075 9176 9175 7964 7965 8066 8065 9075 9076 9177 9176 7965 7966 8067 8066 9076 9077 9178 9177 7966 7967 8068 8067 9077 9078 9179 9178 7967 7968 8069 8068 9078 9079 9180 9179 7968 7969 8070 8069 9079 9080 9181 9180 7969 7970 8071 8070 9080 9081 9182 9181 7970 7971 8072 8071 9081 9082 9183 9182 7971 7972 8073 8072 9082 9083 9184 9183 7972 7973 8074 8073 9083 9084 9185 9184 7973 7974 8075 8074 9084 9085 9186 9185 7974 7975 8076 8075 9085 9086 9187 9186 7975 7976 8077 8076 9086 9087 9188 9187 7976 7977 8078 8077 9087 9088 9189 9188 7977 7978 8079 8078 9088 9089 9190 9189 7979 7980 8081 8080 9090 9091 9192 9191 7980 7981 8082 8081 9091 9092 9193 9192 7981 7982 8083 8082 9092 9093 9194 9193 7982 7983 8084 8083 9093 9094 9195 9194 7983 7984 8085 8084 9094 9095 9196 9195 7984 7985 8086 8085 9095 9096 9197 9196 7985 7986 8087 8086 9096 9097 9198 9197 7986 7987 8088 8087 9097 9098 9199 9198 7987 7988 8089 8088 9098 9099 9200 9199 7988 7989 8090 8089 9099 9100 9201 9200 7989 7990 8091 8090 9100 9101 9202 9201 7990 7991 8092 8091 9101 9102 9203 9202 7991 7992 8093 8092 9102 9103 9204 9203 7992 7993 8094 8093 9103 9104 9205 9204 7993 7994 8095 8094 9104 9105 9206 9205 7994 7995 8096 8095 9105 9106 9207 9206 7995 7996 8097 8096 9106 9107 9208 9207 7996 7997 8098 8097 9107 9108 9209 9208 7997 7998 8099 8098 9108 9109 9210 9209 7998 7999 8100 8099 9109 9110 9211 9210 7999 8000 8101 8100 9110 9111 9212 9211 8000 8001 8102 8101 9111 9112 9213 9212 8001 8002 8103 8102 9112 9113 9214 9213 8002 8003 8104 8103 9113 9114 9215 9214 8003 8004 8105 8104 9114 9115 9216 9215 8004 8005 8106 8105 9115 9116 9217 9216 8005 8006 8107 8106 9116 9117 9218 9217 8006 8007 8108 8107 9117 9118 9219 9218 8007 8008 8109 8108 9118 9119 9220 9219 8008 8009 8110 8109 9119 9120 9221 9220 8009 8010 8111 8110 9120 9121 9222 9221 8010 8011 8112 8111 9121 9122 9223 9222 8011 8012 8113 8112 9122 9123 9224 9223 8012 8013 8114 8113 9123 9124 9225 9224 8013 8014 8115 8114 9124 9125 9226 9225 8014 8015 8116 8115 9125 9126 9227 9226 8015 8016 8117 8116 9126 9127 9228 9227 8016 8017 8118 8117 9127 9128 9229 9228 8017 8018 8119 8118 9128 9129 9230 9229 8018 8019 8120 8119 9129 9130 9231 9230 8019 8020 8121 8120 9130 9131 9232 9231 8020 8021 8122 8121 9131 9132 9233 9232 8021 8022 8123 8122 9132 9133 9234 9233 8022 8023 8124 8123 9133 9134 9235 9234 8023 8024 8125 8124 9134 9135 9236 9235 8024 8025 8126 8125 9135 9136 9237 9236 8025 8026 8127 8126 9136 9137 9238 9237 8026 8027 8128 8127 9137 9138 9239 9238 8027 8028 8129 8128 9138 9139 9240 9239 8028 8029 8130 8129 9139 9140 9241 9240 8029 8030 8131 8130 9140 9141 9242 9241 8030 8031 8132 8131 9141 9142 9243 9242 8031 8032 8133 8132 9142 9143 9244 9243 8032 8033 8134 8133 9143 9144 9245 9244 8033 8034 8135 8134 9144 9145 9246 9245 8034 8035 8136 8135 9145 9146 9247 9246 8035 8036 8137 8136 9146 9147 9248 9247 8036 8037 8138 8137 9147 9148 9249 9248 8037 8038 8139 8138 9148 9149 9250 9249 8038 8039 8140 8139 9149 9150 9251 9250 8039 8040 8141 8140 9150 9151 9252 9251 8040 8041 8142 8141 9151 9152 9253 9252 8041 8042 8143 8142 9152 9153 9254 9253 8042 8043 8144 8143 9153 9154 9255 9254 8043 8044 8145 8144 9154 9155 9256 9255 8044 8045 8146 8145 9155 9156 9257 9256 8045 8046 8147 8146 9156 9157 9258 9257 8046 8047 8148 8147 9157 9158 9259 9258 8047 8048 8149 8148 9158 9159 9260 9259 8048 8049 8150 8149 9159 9160 9261 9260 8049 8050 8151 8150 9160 9161 9262 9261 8050 8051 8152 8151 9161 9162 9263 9262 8051 8052 8153 8152 9162 9163 9264 9263 8052 8053 8154 8153 9163 9164 9265 9264 8053 8054 8155 8154 9164 9165 9266 9265 8054 8055 8156 8155 9165 9166 9267 9266 8055 8056 8157 8156 9166 9167 9268 9267 8056 8057 8158 8157 9167 9168 9269 9268 8057 8058 8159 8158 9168 9169 9270 9269 8058 8059 8160 8159 9169 9170 9271 9270 8059 8060 8161 8160 9170 9171 9272 9271 8060 8061 8162 8161 9171 9172 9273 9272 8061 8062 8163 8162 9172 9173 9274 9273 8062 8063 8164 8163 9173 9174 9275 9274 8063 8064 8165 8164 9174 9175 9276 9275 8064 8065 8166 8165 9175 9176 9277 9276 8065 8066 8167 8166 9176 9177 9278 9277 8066 8067 8168 8167 9177 9178 9279 9278 8067 8068 8169 8168 9178 9179 9280 9279 8068 8069 8170 8169 9179 9180 9281 9280 8069 8070 8171 8170 9180 9181 9282 9281 8070 8071 8172 8171 9181 9182 9283 9282 8071 8072 8173 8172 9182 9183 9284 9283 8072 8073 8174 8173 9183 9184 9285 9284 8073 8074 8175 8174 9184 9185 9286 9285 8074 8075 8176 8175 9185 9186 9287 9286 8075 8076 8177 8176 9186 9187 9288 9287 8076 8077 8178 8177 9187 9188 9289 9288 8077 8078 8179 8178 9188 9189 9290 9289 8078 8079 8180 8179 9189 9190 9291 9290 8080 8081 8182 8181 9191 9192 9293 9292 8081 8082 8183 8182 9192 9193 9294 9293 8082 8083 8184 8183 9193 9194 9295 9294 8083 8084 8185 8184 9194 9195 9296 9295 8084 8085 8186 8185 9195 9196 9297 9296 8085 8086 8187 8186 9196 9197 9298 9297 8086 8087 8188 8187 9197 9198 9299 9298 8087 8088 8189 8188 9198 9199 9300 9299 8088 8089 8190 8189 9199 9200 9301 9300 8089 8090 8191 8190 9200 9201 9302 9301 8090 8091 8192 8191 9201 9202 9303 9302 8091 8092 8193 8192 9202 9203 9304 9303 8092 8093 8194 8193 9203 9204 9305 9304 8093 8094 8195 8194 9204 9205 9306 9305 8094 8095 8196 8195 9205 9206 9307 9306 8095 8096 8197 8196 9206 9207 9308 9307 8096 8097 8198 8197 9207 9208 9309 9308 8097 8098 8199 8198 9208 9209 9310 9309 8098 8099 8200 8199 9209 9210 9311 9310 8099 8100 8201 8200 9210 9211 9312 9311 8100 8101 8202 8201 9211 9212 9313 9312 8101 8102 8203 8202 9212 9213 9314 9313 8102 8103 8204 8203 9213 9214 9315 9314 8103 8104 8205 8204 9214 9215 9316 9315 8104 8105 8206 8205 9215 9216 9317 9316 8105 8106 8207 8206 9216 9217 9318 9317 8106 8107 8208 8207 9217 9218 9319 9318 8107 8108 8209 8208 9218 9219 9320 9319 8108 8109 8210 8209 9219 9220 9321 9320 8109 8110 8211 8210 9220 9221 9322 9321 8110 8111 8212 8211 9221 9222 9323 9322 8111 8112 8213 8212 9222 9223 9324 9323 8112 8113 8214 8213 9223 9224 9325 9324 8113 8114 8215 8214 9224 9225 9326 9325 8114 8115 8216 8215 9225 9226 9327 9326 8115 8116 8217 8216 9226 9227 9328 9327 8116 8117 8218 8217 9227 9228 9329 9328 8117 8118 8219 8218 9228 9229 9330 9329 8118 8119 8220 8219 9229 9230 9331 9330 8119 8120 8221 8220 9230 9231 9332 9331 8120 8121 8222 8221 9231 9232 9333 9332 8121 8122 8223 8222 9232 9233 9334 9333 8122 8123 8224 8223 9233 9234 9335 9334 8123 8124 8225 8224 9234 9235 9336 9335 8124 8125 8226 8225 9235 9236 9337 9336 8125 8126 8227 8226 9236 9237 9338 9337 8126 8127 8228 8227 9237 9238 9339 9338 8127 8128 8229 8228 9238 9239 9340 9339 8128 8129 8230 8229 9239 9240 9341 9340 8129 8130 8231 8230 9240 9241 9342 9341 8130 8131 8232 8231 9241 9242 9343 9342 8131 8132 8233 8232 9242 9243 9344 9343 8132 8133 8234 8233 9243 9244 9345 9344 8133 8134 8235 8234 9244 9245 9346 9345 8134 8135 8236 8235 9245 9246 9347 9346 8135 8136 8237 8236 9246 9247 9348 9347 8136 8137 8238 8237 9247 9248 9349 9348 8137 8138 8239 8238 9248 9249 9350 9349 8138 8139 8240 8239 9249 9250 9351 9350 8139 8140 8241 8240 9250 9251 9352 9351 8140 8141 8242 8241 9251 9252 9353 9352 8141 8142 8243 8242 9252 9253 9354 9353 8142 8143 8244 8243 9253 9254 9355 9354 8143 8144 8245 8244 9254 9255 9356 9355 8144 8145 8246 8245 9255 9256 9357 9356 8145 8146 8247 8246 9256 9257 9358 9357 8146 8147 8248 8247 9257 9258 9359 9358 8147 8148 8249 8248 9258 9259 9360 9359 8148 8149 8250 8249 9259 9260 9361 9360 8149 8150 8251 8250 9260 9261 9362 9361 8150 8151 8252 8251 9261 9262 9363 9362 8151 8152 8253 8252 9262 9263 9364 9363 8152 8153 8254 8253 9263 9264 9365 9364 8153 8154 8255 8254 9264 9265 9366 9365 8154 8155 8256 8255 9265 9266 9367 9366 8155 8156 8257 8256 9266 9267 9368 9367 8156 8157 8258 8257 9267 9268 9369 9368 8157 8158 8259 8258 9268 9269 9370 9369 8158 8159 8260 8259 9269 9270 9371 9370 8159 8160 8261 8260 9270 9271 9372 9371 8160 8161 8262 8261 9271 9272 9373 9372 8161 8162 8263 8262 9272 9273 9374 9373 8162 8163 8264 8263 9273 9274 9375 9374 8163 8164 8265 8264 9274 9275 9376 9375 8164 8165 8266 8265 9275 9276 9377 9376 8165 8166 8267 8266 9276 9277 9378 9377 8166 8167 8268 8267 9277 9278 9379 9378 8167 8168 8269 8268 9278 9279 9380 9379 8168 8169 8270 8269 9279 9280 9381 9380 8169 8170 8271 8270 9280 9281 9382 9381 8170 8171 8272 8271 9281 9282 9383 9382 8171 8172 8273 8272 9282 9283 9384 9383 8172 8173 8274 8273 9283 9284 9385 9384 8173 8174 8275 8274 9284 9285 9386 9385 8174 8175 8276 8275 9285 9286 9387 9386 8175 8176 8277 8276 9286 9287 9388 9387 8176 8177 8278 8277 9287 9288 9389 9388 8177 8178 8279 8278 9288 9289 9390 9389 8178 8179 8280 8279 9289 9290 9391 9390 8179 8180 8281 8280 9290 9291 9392 9391 8181 8182 8283 8282 9292 9293 9394 9393 8182 8183 8284 8283 9293 9294 9395 9394 8183 8184 8285 8284 9294 9295 9396 9395 8184 8185 8286 8285 9295 9296 9397 9396 8185 8186 8287 8286 9296 9297 9398 9397 8186 8187 8288 8287 9297 9298 9399 9398 8187 8188 8289 8288 9298 9299 9400 9399 8188 8189 8290 8289 9299 9300 9401 9400 8189 8190 8291 8290 9300 9301 9402 9401 8190 8191 8292 8291 9301 9302 9403 9402 8191 8192 8293 8292 9302 9303 9404 9403 8192 8193 8294 8293 9303 9304 9405 9404 8193 8194 8295 8294 9304 9305 9406 9405 8194 8195 8296 8295 9305 9306 9407 9406 8195 8196 8297 8296 9306 9307 9408 9407 8196 8197 8298 8297 9307 9308 9409 9408 8197 8198 8299 8298 9308 9309 9410 9409 8198 8199 8300 8299 9309 9310 9411 9410 8199 8200 8301 8300 9310 9311 9412 9411 8200 8201 8302 8301 9311 9312 9413 9412 8201 8202 8303 8302 9312 9313 9414 9413 8202 8203 8304 8303 9313 9314 9415 9414 8203 8204 8305 8304 9314 9315 9416 9415 8204 8205 8306 8305 9315 9316 9417 9416 8205 8206 8307 8306 9316 9317 9418 9417 8206 8207 8308 8307 9317 9318 9419 9418 8207 8208 8309 8308 9318 9319 9420 9419 8208 8209 8310 8309 9319 9320 9421 9420 8209 8210 8311 8310 9320 9321 9422 9421 8210 8211 8312 8311 9321 9322 9423 9422 8211 8212 8313 8312 9322 9323 9424 9423 8212 8213 8314 8313 9323 9324 9425 9424 8213 8214 8315 8314 9324 9325 9426 9425 8214 8215 8316 8315 9325 9326 9427 9426 8215 8216 8317 8316 9326 9327 9428 9427 8216 8217 8318 8317 9327 9328 9429 9428 8217 8218 8319 8318 9328 9329 9430 9429 8218 8219 8320 8319 9329 9330 9431 9430 8219 8220 8321 8320 9330 9331 9432 9431 8220 8221 8322 8321 9331 9332 9433 9432 8221 8222 8323 8322 9332 9333 9434 9433 8222 8223 8324 8323 9333 9334 9435 9434 8223 8224 8325 8324 9334 9335 9436 9435 8224 8225 8326 8325 9335 9336 9437 9436 8225 8226 8327 8326 9336 9337 9438 9437 8226 8227 8328 8327 9337 9338 9439 9438 8227 8228 8329 8328 9338 9339 9440 9439 8228 8229 8330 8329 9339 9340 9441 9440 8229 8230 8331 8330 9340 9341 9442 9441 8230 8231 8332 8331 9341 9342 9443 9442 8231 8232 8333 8332 9342 9343 9444 9443 8232 8233 8334 8333 9343 9344 9445 9444 8233 8234 8335 8334 9344 9345 9446 9445 8234 8235 8336 8335 9345 9346 9447 9446 8235 8236 8337 8336 9346 9347 9448 9447 8236 8237 8338 8337 9347 9348 9449 9448 8237 8238 8339 8338 9348 9349 9450 9449 8238 8239 8340 8339 9349 9350 9451 9450 8239 8240 8341 8340 9350 9351 9452 9451 8240 8241 8342 8341 9351 9352 9453 9452 8241 8242 8343 8342 9352 9353 9454 9453 8242 8243 8344 8343 9353 9354 9455 9454 8243 8244 8345 8344 9354 9355 9456 9455 8244 8245 8346 8345 9355 9356 9457 9456 8245 8246 8347 8346 9356 9357 9458 9457 8246 8247 8348 8347 9357 9358 9459 9458 8247 8248 8349 8348 9358 9359 9460 9459 8248 8249 8350 8349 9359 9360 9461 9460 8249 8250 8351 8350 9360 9361 9462 9461 8250 8251 8352 8351 9361 9362 9463 9462 8251 8252 8353 8352 9362 9363 9464 9463 8252 8253 8354 8353 9363 9364 9465 9464 8253 8254 8355 8354 9364 9365 9466 9465 8254 8255 8356 8355 9365 9366 9467 9466 8255 8256 8357 8356 9366 9367 9468 9467 8256 8257 8358 8357 9367 9368 9469 9468 8257 8258 8359 8358 9368 9369 9470 9469 8258 8259 8360 8359 9369 9370 9471 9470 8259 8260 8361 8360 9370 9371 9472 9471 8260 8261 8362 8361 9371 9372 9473 9472 8261 8262 8363 8362 9372 9373 9474 9473 8262 8263 8364 8363 9373 9374 9475 9474 8263 8264 8365 8364 9374 9375 9476 9475 8264 8265 8366 8365 9375 9376 9477 9476 8265 8266 8367 8366 9376 9377 9478 9477 8266 8267 8368 8367 9377 9378 9479 9478 8267 8268 8369 8368 9378 9379 9480 9479 8268 8269 8370 8369 9379 9380 9481 9480 8269 8270 8371 8370 9380 9381 9482 9481 8270 8271 8372 8371 9381 9382 9483 9482 8271 8272 8373 8372 9382 9383 9484 9483 8272 8273 8374 8373 9383 9384 9485 9484 8273 8274 8375 8374 9384 9385 9486 9485 8274 8275 8376 8375 9385 9386 9487 9486 8275 8276 8377 8376 9386 9387 9488 9487 8276 8277 8378 8377 9387 9388 9489 9488 8277 8278 8379 8378 9388 9389 9490 9489 8278 8279 8380 8379 9389 9390 9491 9490 8279 8280 8381 8380 9390 9391 9492 9491 8280 8281 8382 8381 9391 9392 9493 9492 8282 8283 8384 8383 9393 9394 9495 9494 8283 8284 8385 8384 9394 9395 9496 9495 8284 8285 8386 8385 9395 9396 9497 9496 8285 8286 8387 8386 9396 9397 9498 9497 8286 8287 8388 8387 9397 9398 9499 9498 8287 8288 8389 8388 9398 9399 9500 9499 8288 8289 8390 8389 9399 9400 9501 9500 8289 8290 8391 8390 9400 9401 9502 9501 8290 8291 8392 8391 9401 9402 9503 9502 8291 8292 8393 8392 9402 9403 9504 9503 8292 8293 8394 8393 9403 9404 9505 9504 8293 8294 8395 8394 9404 9405 9506 9505 8294 8295 8396 8395 9405 9406 9507 9506 8295 8296 8397 8396 9406 9407 9508 9507 8296 8297 8398 8397 9407 9408 9509 9508 8297 8298 8399 8398 9408 9409 9510 9509 8298 8299 8400 8399 9409 9410 9511 9510 8299 8300 8401 8400 9410 9411 9512 9511 8300 8301 8402 8401 9411 9412 9513 9512 8301 8302 8403 8402 9412 9413 9514 9513 8302 8303 8404 8403 9413 9414 9515 9514 8303 8304 8405 8404 9414 9415 9516 9515 8304 8305 8406 8405 9415 9416 9517 9516 8305 8306 8407 8406 9416 9417 9518 9517 8306 8307 8408 8407 9417 9418 9519 9518 8307 8308 8409 8408 9418 9419 9520 9519 8308 8309 8410 8409 9419 9420 9521 9520 8309 8310 8411 8410 9420 9421 9522 9521 8310 8311 8412 8411 9421 9422 9523 9522 8311 8312 8413 8412 9422 9423 9524 9523 8312 8313 8414 8413 9423 9424 9525 9524 8313 8314 8415 8414 9424 9425 9526 9525 8314 8315 8416 8415 9425 9426 9527 9526 8315 8316 8417 8416 9426 9427 9528 9527 8316 8317 8418 8417 9427 9428 9529 9528 8317 8318 8419 8418 9428 9429 9530 9529 8318 8319 8420 8419 9429 9430 9531 9530 8319 8320 8421 8420 9430 9431 9532 9531 8320 8321 8422 8421 9431 9432 9533 9532 8321 8322 8423 8422 9432 9433 9534 9533 8322 8323 8424 8423 9433 9434 9535 9534 8323 8324 8425 8424 9434 9435 9536 9535 8324 8325 8426 8425 9435 9436 9537 9536 8325 8326 8427 8426 9436 9437 9538 9537 8326 8327 8428 8427 9437 9438 9539 9538 8327 8328 8429 8428 9438 9439 9540 9539 8328 8329 8430 8429 9439 9440 9541 9540 8329 8330 8431 8430 9440 9441 9542 9541 8330 8331 8432 8431 9441 9442 9543 9542 8331 8332 8433 8432 9442 9443 9544 9543 8332 8333 8434 8433 9443 9444 9545 9544 8333 8334 8435 8434 9444 9445 9546 9545 8334 8335 8436 8435 9445 9446 9547 9546 8335 8336 8437 8436 9446 9447 9548 9547 8336 8337 8438 8437 9447 9448 9549 9548 8337 8338 8439 8438 9448 9449 9550 9549 8338 8339 8440 8439 9449 9450 9551 9550 8339 8340 8441 8440 9450 9451 9552 9551 8340 8341 8442 8441 9451 9452 9553 9552 8341 8342 8443 8442 9452 9453 9554 9553 8342 8343 8444 8443 9453 9454 9555 9554 8343 8344 8445 8444 9454 9455 9556 9555 8344 8345 8446 8445 9455 9456 9557 9556 8345 8346 8447 8446 9456 9457 9558 9557 8346 8347 8448 8447 9457 9458 9559 9558 8347 8348 8449 8448 9458 9459 9560 9559 8348 8349 8450 8449 9459 9460 9561 9560 8349 8350 8451 8450 9460 9461 9562 9561 8350 8351 8452 8451 9461 9462 9563 9562 8351 8352 8453 8452 9462 9463 9564 9563 8352 8353 8454 8453 9463 9464 9565 9564 8353 8354 8455 8454 9464 9465 9566 9565 8354 8355 8456 8455 9465 9466 9567 9566 8355 8356 8457 8456 9466 9467 9568 9567 8356 8357 8458 8457 9467 9468 9569 9568 8357 8358 8459 8458 9468 9469 9570 9569 8358 8359 8460 8459 9469 9470 9571 9570 8359 8360 8461 8460 9470 9471 9572 9571 8360 8361 8462 8461 9471 9472 9573 9572 8361 8362 8463 8462 9472 9473 9574 9573 8362 8363 8464 8463 9473 9474 9575 9574 8363 8364 8465 8464 9474 9475 9576 9575 8364 8365 8466 8465 9475 9476 9577 9576 8365 8366 8467 8466 9476 9477 9578 9577 8366 8367 8468 8467 9477 9478 9579 9578 8367 8368 8469 8468 9478 9479 9580 9579 8368 8369 8470 8469 9479 9480 9581 9580 8369 8370 8471 8470 9480 9481 9582 9581 8370 8371 8472 8471 9481 9482 9583 9582 8371 8372 8473 8472 9482 9483 9584 9583 8372 8373 8474 8473 9483 9484 9585 9584 8373 8374 8475 8474 9484 9485 9586 9585 8374 8375 8476 8475 9485 9486 9587 9586 8375 8376 8477 8476 9486 9487 9588 9587 8376 8377 8478 8477 9487 9488 9589 9588 8377 8378 8479 8478 9488 9489 9590 9589 8378 8379 8480 8479 9489 9490 9591 9590 8379 8380 8481 8480 9490 9491 9592 9591 8380 8381 8482 8481 9491 9492 9593 9592 8381 8382 8483 8482 9492 9493 9594 9593 8383 8384 8485 8484 9494 9495 9596 9595 8384 8385 8486 8485 9495 9496 9597 9596 8385 8386 8487 8486 9496 9497 9598 9597 8386 8387 8488 8487 9497 9498 9599 9598 8387 8388 8489 8488 9498 9499 9600 9599 8388 8389 8490 8489 9499 9500 9601 9600 8389 8390 8491 8490 9500 9501 9602 9601 8390 8391 8492 8491 9501 9502 9603 9602 8391 8392 8493 8492 9502 9503 9604 9603 8392 8393 8494 8493 9503 9504 9605 9604 8393 8394 8495 8494 9504 9505 9606 9605 8394 8395 8496 8495 9505 9506 9607 9606 8395 8396 8497 8496 9506 9507 9608 9607 8396 8397 8498 8497 9507 9508 9609 9608 8397 8398 8499 8498 9508 9509 9610 9609 8398 8399 8500 8499 9509 9510 9611 9610 8399 8400 8501 8500 9510 9511 9612 9611 8400 8401 8502 8501 9511 9512 9613 9612 8401 8402 8503 8502 9512 9513 9614 9613 8402 8403 8504 8503 9513 9514 9615 9614 8403 8404 8505 8504 9514 9515 9616 9615 8404 8405 8506 8505 9515 9516 9617 9616 8405 8406 8507 8506 9516 9517 9618 9617 8406 8407 8508 8507 9517 9518 9619 9618 8407 8408 8509 8508 9518 9519 9620 9619 8408 8409 8510 8509 9519 9520 9621 9620 8409 8410 8511 8510 9520 9521 9622 9621 8410 8411 8512 8511 9521 9522 9623 9622 8411 8412 8513 8512 9522 9523 9624 9623 8412 8413 8514 8513 9523 9524 9625 9624 8413 8414 8515 8514 9524 9525 9626 9625 8414 8415 8516 8515 9525 9526 9627 9626 8415 8416 8517 8516 9526 9527 9628 9627 8416 8417 8518 8517 9527 9528 9629 9628 8417 8418 8519 8518 9528 9529 9630 9629 8418 8419 8520 8519 9529 9530 9631 9630 8419 8420 8521 8520 9530 9531 9632 9631 8420 8421 8522 8521 9531 9532 9633 9632 8421 8422 8523 8522 9532 9533 9634 9633 8422 8423 8524 8523 9533 9534 9635 9634 8423 8424 8525 8524 9534 9535 9636 9635 8424 8425 8526 8525 9535 9536 9637 9636 8425 8426 8527 8526 9536 9537 9638 9637 8426 8427 8528 8527 9537 9538 9639 9638 8427 8428 8529 8528 9538 9539 9640 9639 8428 8429 8530 8529 9539 9540 9641 9640 8429 8430 8531 8530 9540 9541 9642 9641 8430 8431 8532 8531 9541 9542 9643 9642 8431 8432 8533 8532 9542 9543 9644 9643 8432 8433 8534 8533 9543 9544 9645 9644 8433 8434 8535 8534 9544 9545 9646 9645 8434 8435 8536 8535 9545 9546 9647 9646 8435 8436 8537 8536 9546 9547 9648 9647 8436 8437 8538 8537 9547 9548 9649 9648 8437 8438 8539 8538 9548 9549 9650 9649 8438 8439 8540 8539 9549 9550 9651 9650 8439 8440 8541 8540 9550 9551 9652 9651 8440 8441 8542 8541 9551 9552 9653 9652 8441 8442 8543 8542 9552 9553 9654 9653 8442 8443 8544 8543 9553 9554 9655 9654 8443 8444 8545 8544 9554 9555 9656 9655 8444 8445 8546 8545 9555 9556 9657 9656 8445 8446 8547 8546 9556 9557 9658 9657 8446 8447 8548 8547 9557 9558 9659 9658 8447 8448 8549 8548 9558 9559 9660 9659 8448 8449 8550 8549 9559 9560 9661 9660 8449 8450 8551 8550 9560 9561 9662 9661 8450 8451 8552 8551 9561 9562 9663 9662 8451 8452 8553 8552 9562 9563 9664 9663 8452 8453 8554 8553 9563 9564 9665 9664 8453 8454 8555 8554 9564 9565 9666 9665 8454 8455 8556 8555 9565 9566 9667 9666 8455 8456 8557 8556 9566 9567 9668 9667 8456 8457 8558 8557 9567 9568 9669 9668 8457 8458 8559 8558 9568 9569 9670 9669 8458 8459 8560 8559 9569 9570 9671 9670 8459 8460 8561 8560 9570 9571 9672 9671 8460 8461 8562 8561 9571 9572 9673 9672 8461 8462 8563 8562 9572 9573 9674 9673 8462 8463 8564 8563 9573 9574 9675 9674 8463 8464 8565 8564 9574 9575 9676 9675 8464 8465 8566 8565 9575 9576 9677 9676 8465 8466 8567 8566 9576 9577 9678 9677 8466 8467 8568 8567 9577 9578 9679 9678 8467 8468 8569 8568 9578 9579 9680 9679 8468 8469 8570 8569 9579 9580 9681 9680 8469 8470 8571 8570 9580 9581 9682 9681 8470 8471 8572 8571 9581 9582 9683 9682 8471 8472 8573 8572 9582 9583 9684 9683 8472 8473 8574 8573 9583 9584 9685 9684 8473 8474 8575 8574 9584 9585 9686 9685 8474 8475 8576 8575 9585 9586 9687 9686 8475 8476 8577 8576 9586 9587 9688 9687 8476 8477 8578 8577 9587 9588 9689 9688 8477 8478 8579 8578 9588 9589 9690 9689 8478 8479 8580 8579 9589 9590 9691 9690 8479 8480 8581 8580 9590 9591 9692 9691 8480 8481 8582 8581 9591 9592 9693 9692 8481 8482 8583 8582 9592 9593 9694 9693 8482 8483 8584 8583 9593 9594 9695 9694 8484 8485 8586 8585 9595 9596 9697 9696 8485 8486 8587 8586 9596 9597 9698 9697 8486 8487 8588 8587 9597 9598 9699 9698 8487 8488 8589 8588 9598 9599 9700 9699 8488 8489 8590 8589 9599 9600 9701 9700 8489 8490 8591 8590 9600 9601 9702 9701 8490 8491 8592 8591 9601 9602 9703 9702 8491 8492 8593 8592 9602 9603 9704 9703 8492 8493 8594 8593 9603 9604 9705 9704 8493 8494 8595 8594 9604 9605 9706 9705 8494 8495 8596 8595 9605 9606 9707 9706 8495 8496 8597 8596 9606 9607 9708 9707 8496 8497 8598 8597 9607 9608 9709 9708 8497 8498 8599 8598 9608 9609 9710 9709 8498 8499 8600 8599 9609 9610 9711 9710 8499 8500 8601 8600 9610 9611 9712 9711 8500 8501 8602 8601 9611 9612 9713 9712 8501 8502 8603 8602 9612 9613 9714 9713 8502 8503 8604 8603 9613 9614 9715 9714 8503 8504 8605 8604 9614 9615 9716 9715 8504 8505 8606 8605 9615 9616 9717 9716 8505 8506 8607 8606 9616 9617 9718 9717 8506 8507 8608 8607 9617 9618 9719 9718 8507 8508 8609 8608 9618 9619 9720 9719 8508 8509 8610 8609 9619 9620 9721 9720 8509 8510 8611 8610 9620 9621 9722 9721 8510 8511 8612 8611 9621 9622 9723 9722 8511 8512 8613 8612 9622 9623 9724 9723 8512 8513 8614 8613 9623 9624 9725 9724 8513 8514 8615 8614 9624 9625 9726 9725 8514 8515 8616 8615 9625 9626 9727 9726 8515 8516 8617 8616 9626 9627 9728 9727 8516 8517 8618 8617 9627 9628 9729 9728 8517 8518 8619 8618 9628 9629 9730 9729 8518 8519 8620 8619 9629 9630 9731 9730 8519 8520 8621 8620 9630 9631 9732 9731 8520 8521 8622 8621 9631 9632 9733 9732 8521 8522 8623 8622 9632 9633 9734 9733 8522 8523 8624 8623 9633 9634 9735 9734 8523 8524 8625 8624 9634 9635 9736 9735 8524 8525 8626 8625 9635 9636 9737 9736 8525 8526 8627 8626 9636 9637 9738 9737 8526 8527 8628 8627 9637 9638 9739 9738 8527 8528 8629 8628 9638 9639 9740 9739 8528 8529 8630 8629 9639 9640 9741 9740 8529 8530 8631 8630 9640 9641 9742 9741 8530 8531 8632 8631 9641 9642 9743 9742 8531 8532 8633 8632 9642 9643 9744 9743 8532 8533 8634 8633 9643 9644 9745 9744 8533 8534 8635 8634 9644 9645 9746 9745 8534 8535 8636 8635 9645 9646 9747 9746 8535 8536 8637 8636 9646 9647 9748 9747 8536 8537 8638 8637 9647 9648 9749 9748 8537 8538 8639 8638 9648 9649 9750 9749 8538 8539 8640 8639 9649 9650 9751 9750 8539 8540 8641 8640 9650 9651 9752 9751 8540 8541 8642 8641 9651 9652 9753 9752 8541 8542 8643 8642 9652 9653 9754 9753 8542 8543 8644 8643 9653 9654 9755 9754 8543 8544 8645 8644 9654 9655 9756 9755 8544 8545 8646 8645 9655 9656 9757 9756 8545 8546 8647 8646 9656 9657 9758 9757 8546 8547 8648 8647 9657 9658 9759 9758 8547 8548 8649 8648 9658 9659 9760 9759 8548 8549 8650 8649 9659 9660 9761 9760 8549 8550 8651 8650 9660 9661 9762 9761 8550 8551 8652 8651 9661 9662 9763 9762 8551 8552 8653 8652 9662 9663 9764 9763 8552 8553 8654 8653 9663 9664 9765 9764 8553 8554 8655 8654 9664 9665 9766 9765 8554 8555 8656 8655 9665 9666 9767 9766 8555 8556 8657 8656 9666 9667 9768 9767 8556 8557 8658 8657 9667 9668 9769 9768 8557 8558 8659 8658 9668 9669 9770 9769 8558 8559 8660 8659 9669 9670 9771 9770 8559 8560 8661 8660 9670 9671 9772 9771 8560 8561 8662 8661 9671 9672 9773 9772 8561 8562 8663 8662 9672 9673 9774 9773 8562 8563 8664 8663 9673 9674 9775 9774 8563 8564 8665 8664 9674 9675 9776 9775 8564 8565 8666 8665 9675 9676 9777 9776 8565 8566 8667 8666 9676 9677 9778 9777 8566 8567 8668 8667 9677 9678 9779 9778 8567 8568 8669 8668 9678 9679 9780 9779 8568 8569 8670 8669 9679 9680 9781 9780 8569 8570 8671 8670 9680 9681 9782 9781 8570 8571 8672 8671 9681 9682 9783 9782 8571 8572 8673 8672 9682 9683 9784 9783 8572 8573 8674 8673 9683 9684 9785 9784 8573 8574 8675 8674 9684 9685 9786 9785 8574 8575 8676 8675 9685 9686 9787 9786 8575 8576 8677 8676 9686 9687 9788 9787 8576 8577 8678 8677 9687 9688 9789 9788 8577 8578 8679 8678 9688 9689 9790 9789 8578 8579 8680 8679 9689 9690 9791 9790 8579 8580 8681 8680 9690 9691 9792 9791 8580 8581 8682 8681 9691 9692 9793 9792 8581 8582 8683 8682 9692 9693 9794 9793 8582 8583 8684 8683 9693 9694 9795 9794 8583 8584 8685 8684 9694 9695 9796 9795 8585 8586 8687 8686 9696 9697 9798 9797 8586 8587 8688 8687 9697 9698 9799 9798 8587 8588 8689 8688 9698 9699 9800 9799 8588 8589 8690 8689 9699 9700 9801 9800 8589 8590 8691 8690 9700 9701 9802 9801 8590 8591 8692 8691 9701 9702 9803 9802 8591 8592 8693 8692 9702 9703 9804 9803 8592 8593 8694 8693 9703 9704 9805 9804 8593 8594 8695 8694 9704 9705 9806 9805 8594 8595 8696 8695 9705 9706 9807 9806 8595 8596 8697 8696 9706 9707 9808 9807 8596 8597 8698 8697 9707 9708 9809 9808 8597 8598 8699 8698 9708 9709 9810 9809 8598 8599 8700 8699 9709 9710 9811 9810 8599 8600 8701 8700 9710 9711 9812 9811 8600 8601 8702 8701 9711 9712 9813 9812 8601 8602 8703 8702 9712 9713 9814 9813 8602 8603 8704 8703 9713 9714 9815 9814 8603 8604 8705 8704 9714 9715 9816 9815 8604 8605 8706 8705 9715 9716 9817 9816 8605 8606 8707 8706 9716 9717 9818 9817 8606 8607 8708 8707 9717 9718 9819 9818 8607 8608 8709 8708 9718 9719 9820 9819 8608 8609 8710 8709 9719 9720 9821 9820 8609 8610 8711 8710 9720 9721 9822 9821 8610 8611 8712 8711 9721 9722 9823 9822 8611 8612 8713 8712 9722 9723 9824 9823 8612 8613 8714 8713 9723 9724 9825 9824 8613 8614 8715 8714 9724 9725 9826 9825 8614 8615 8716 8715 9725 9726 9827 9826 8615 8616 8717 8716 9726 9727 9828 9827 8616 8617 8718 8717 9727 9728 9829 9828 8617 8618 8719 8718 9728 9729 9830 9829 8618 8619 8720 8719 9729 9730 9831 9830 8619 8620 8721 8720 9730 9731 9832 9831 8620 8621 8722 8721 9731 9732 9833 9832 8621 8622 8723 8722 9732 9733 9834 9833 8622 8623 8724 8723 9733 9734 9835 9834 8623 8624 8725 8724 9734 9735 9836 9835 8624 8625 8726 8725 9735 9736 9837 9836 8625 8626 8727 8726 9736 9737 9838 9837 8626 8627 8728 8727 9737 9738 9839 9838 8627 8628 8729 8728 9738 9739 9840 9839 8628 8629 8730 8729 9739 9740 9841 9840 8629 8630 8731 8730 9740 9741 9842 9841 8630 8631 8732 8731 9741 9742 9843 9842 8631 8632 8733 8732 9742 9743 9844 9843 8632 8633 8734 8733 9743 9744 9845 9844 8633 8634 8735 8734 9744 9745 9846 9845 8634 8635 8736 8735 9745 9746 9847 9846 8635 8636 8737 8736 9746 9747 9848 9847 8636 8637 8738 8737 9747 9748 9849 9848 8637 8638 8739 8738 9748 9749 9850 9849 8638 8639 8740 8739 9749 9750 9851 9850 8639 8640 8741 8740 9750 9751 9852 9851 8640 8641 8742 8741 9751 9752 9853 9852 8641 8642 8743 8742 9752 9753 9854 9853 8642 8643 8744 8743 9753 9754 9855 9854 8643 8644 8745 8744 9754 9755 9856 9855 8644 8645 8746 8745 9755 9756 9857 9856 8645 8646 8747 8746 9756 9757 9858 9857 8646 8647 8748 8747 9757 9758 9859 9858 8647 8648 8749 8748 9758 9759 9860 9859 8648 8649 8750 8749 9759 9760 9861 9860 8649 8650 8751 8750 9760 9761 9862 9861 8650 8651 8752 8751 9761 9762 9863 9862 8651 8652 8753 8752 9762 9763 9864 9863 8652 8653 8754 8753 9763 9764 9865 9864 8653 8654 8755 8754 9764 9765 9866 9865 8654 8655 8756 8755 9765 9766 9867 9866 8655 8656 8757 8756 9766 9767 9868 9867 8656 8657 8758 8757 9767 9768 9869 9868 8657 8658 8759 8758 9768 9769 9870 9869 8658 8659 8760 8759 9769 9770 9871 9870 8659 8660 8761 8760 9770 9771 9872 9871 8660 8661 8762 8761 9771 9772 9873 9872 8661 8662 8763 8762 9772 9773 9874 9873 8662 8663 8764 8763 9773 9774 9875 9874 8663 8664 8765 8764 9774 9775 9876 9875 8664 8665 8766 8765 9775 9776 9877 9876 8665 8666 8767 8766 9776 9777 9878 9877 8666 8667 8768 8767 9777 9778 9879 9878 8667 8668 8769 8768 9778 9779 9880 9879 8668 8669 8770 8769 9779 9780 9881 9880 8669 8670 8771 8770 9780 9781 9882 9881 8670 8671 8772 8771 9781 9782 9883 9882 8671 8672 8773 8772 9782 9783 9884 9883 8672 8673 8774 8773 9783 9784 9885 9884 8673 8674 8775 8774 9784 9785 9886 9885 8674 8675 8776 8775 9785 9786 9887 9886 8675 8676 8777 8776 9786 9787 9888 9887 8676 8677 8778 8777 9787 9788 9889 9888 8677 8678 8779 8778 9788 9789 9890 9889 8678 8679 8780 8779 9789 9790 9891 9890 8679 8680 8781 8780 9790 9791 9892 9891 8680 8681 8782 8781 9791 9792 9893 9892 8681 8682 8783 8782 9792 9793 9894 9893 8682 8683 8784 8783 9793 9794 9895 9894 8683 8684 8785 8784 9794 9795 9896 9895 8684 8685 8786 8785 9795 9796 9897 9896 8686 8687 8788 8787 9797 9798 9899 9898 8687 8688 8789 8788 9798 9799 9900 9899 8688 8689 8790 8789 9799 9800 9901 9900 8689 8690 8791 8790 9800 9801 9902 9901 8690 8691 8792 8791 9801 9802 9903 9902 8691 8692 8793 8792 9802 9803 9904 9903 8692 8693 8794 8793 9803 9804 9905 9904 8693 8694 8795 8794 9804 9805 9906 9905 8694 8695 8796 8795 9805 9806 9907 9906 8695 8696 8797 8796 9806 9807 9908 9907 8696 8697 8798 8797 9807 9808 9909 9908 8697 8698 8799 8798 9808 9809 9910 9909 8698 8699 8800 8799 9809 9810 9911 9910 8699 8700 8801 8800 9810 9811 9912 9911 8700 8701 8802 8801 9811 9812 9913 9912 8701 8702 8803 8802 9812 9813 9914 9913 8702 8703 8804 8803 9813 9814 9915 9914 8703 8704 8805 8804 9814 9815 9916 9915 8704 8705 8806 8805 9815 9816 9917 9916 8705 8706 8807 8806 9816 9817 9918 9917 8706 8707 8808 8807 9817 9818 9919 9918 8707 8708 8809 8808 9818 9819 9920 9919 8708 8709 8810 8809 9819 9820 9921 9920 8709 8710 8811 8810 9820 9821 9922 9921 8710 8711 8812 8811 9821 9822 9923 9922 8711 8712 8813 8812 9822 9823 9924 9923 8712 8713 8814 8813 9823 9824 9925 9924 8713 8714 8815 8814 9824 9825 9926 9925 8714 8715 8816 8815 9825 9826 9927 9926 8715 8716 8817 8816 9826 9827 9928 9927 8716 8717 8818 8817 9827 9828 9929 9928 8717 8718 8819 8818 9828 9829 9930 9929 8718 8719 8820 8819 9829 9830 9931 9930 8719 8720 8821 8820 9830 9831 9932 9931 8720 8721 8822 8821 9831 9832 9933 9932 8721 8722 8823 8822 9832 9833 9934 9933 8722 8723 8824 8823 9833 9834 9935 9934 8723 8724 8825 8824 9834 9835 9936 9935 8724 8725 8826 8825 9835 9836 9937 9936 8725 8726 8827 8826 9836 9837 9938 9937 8726 8727 8828 8827 9837 9838 9939 9938 8727 8728 8829 8828 9838 9839 9940 9939 8728 8729 8830 8829 9839 9840 9941 9940 8729 8730 8831 8830 9840 9841 9942 9941 8730 8731 8832 8831 9841 9842 9943 9942 8731 8732 8833 8832 9842 9843 9944 9943 8732 8733 8834 8833 9843 9844 9945 9944 8733 8734 8835 8834 9844 9845 9946 9945 8734 8735 8836 8835 9845 9846 9947 9946 8735 8736 8837 8836 9846 9847 9948 9947 8736 8737 8838 8837 9847 9848 9949 9948 8737 8738 8839 8838 9848 9849 9950 9949 8738 8739 8840 8839 9849 9850 9951 9950 8739 8740 8841 8840 9850 9851 9952 9951 8740 8741 8842 8841 9851 9852 9953 9952 8741 8742 8843 8842 9852 9853 9954 9953 8742 8743 8844 8843 9853 9854 9955 9954 8743 8744 8845 8844 9854 9855 9956 9955 8744 8745 8846 8845 9855 9856 9957 9956 8745 8746 8847 8846 9856 9857 9958 9957 8746 8747 8848 8847 9857 9858 9959 9958 8747 8748 8849 8848 9858 9859 9960 9959 8748 8749 8850 8849 9859 9860 9961 9960 8749 8750 8851 8850 9860 9861 9962 9961 8750 8751 8852 8851 9861 9862 9963 9962 8751 8752 8853 8852 9862 9863 9964 9963 8752 8753 8854 8853 9863 9864 9965 9964 8753 8754 8855 8854 9864 9865 9966 9965 8754 8755 8856 8855 9865 9866 9967 9966 8755 8756 8857 8856 9866 9867 9968 9967 8756 8757 8858 8857 9867 9868 9969 9968 8757 8758 8859 8858 9868 9869 9970 9969 8758 8759 8860 8859 9869 9870 9971 9970 8759 8760 8861 8860 9870 9871 9972 9971 8760 8761 8862 8861 9871 9872 9973 9972 8761 8762 8863 8862 9872 9873 9974 9973 8762 8763 8864 8863 9873 9874 9975 9974 8763 8764 8865 8864 9874 9875 9976 9975 8764 8765 8866 8865 9875 9876 9977 9976 8765 8766 8867 8866 9876 9877 9978 9977 8766 8767 8868 8867 9877 9878 9979 9978 8767 8768 8869 8868 9878 9879 9980 9979 8768 8769 8870 8869 9879 9880 9981 9980 8769 8770 8871 8870 9880 9881 9982 9981 8770 8771 8872 8871 9881 9882 9983 9982 8771 8772 8873 8872 9882 9883 9984 9983 8772 8773 8874 8873 9883 9884 9985 9984 8773 8774 8875 8874 9884 9885 9986 9985 8774 8775 8876 8875 9885 9886 9987 9986 8775 8776 8877 8876 9886 9887 9988 9987 8776 8777 8878 8877 9887 9888 9989 9988 8777 8778 8879 8878 9888 9889 9990 9989 8778 8779 8880 8879 9889 9890 9991 9990 8779 8780 8881 8880 9890 9891 9992 9991 8780 8781 8882 8881 9891 9892 9993 9992 8781 8782 8883 8882 9892 9893 9994 9993 8782 8783 8884 8883 9893 9894 9995 9994 8783 8784 8885 8884 9894 9895 9996 9995 8784 8785 8886 8885 9895 9896 9997 9996 8785 8786 8887 8886 9896 9897 9998 9997 8888 8889 8990 8989 9999 10000 10101 10100 8889 8890 8991 8990 10000 10001 10102 10101 8890 8891 8992 8991 10001 10002 10103 10102 8891 8892 8993 8992 10002 10003 10104 10103 8892 8893 8994 8993 10003 10004 10105 10104 8893 8894 8995 8994 10004 10005 10106 10105 8894 8895 8996 8995 10005 10006 10107 10106 8895 8896 8997 8996 10006 10007 10108 10107 8896 8897 8998 8997 10007 10008 10109 10108 8897 8898 8999 8998 10008 10009 10110 10109 8898 8899 9000 8999 10009 10010 10111 10110 8899 8900 9001 9000 10010 10011 10112 10111 8900 8901 9002 9001 10011 10012 10113 10112 8901 8902 9003 9002 10012 10013 10114 10113 8902 8903 9004 9003 10013 10014 10115 10114 8903 8904 9005 9004 10014 10015 10116 10115 8904 8905 9006 9005 10015 10016 10117 10116 8905 8906 9007 9006 10016 10017 10118 10117 8906 8907 9008 9007 10017 10018 10119 10118 8907 8908 9009 9008 10018 10019 10120 10119 8908 8909 9010 9009 10019 10020 10121 10120 8909 8910 9011 9010 10020 10021 10122 10121 8910 8911 9012 9011 10021 10022 10123 10122 8911 8912 9013 9012 10022 10023 10124 10123 8912 8913 9014 9013 10023 10024 10125 10124 8913 8914 9015 9014 10024 10025 10126 10125 8914 8915 9016 9015 10025 10026 10127 10126 8915 8916 9017 9016 10026 10027 10128 10127 8916 8917 9018 9017 10027 10028 10129 10128 8917 8918 9019 9018 10028 10029 10130 10129 8918 8919 9020 9019 10029 10030 10131 10130 8919 8920 9021 9020 10030 10031 10132 10131 8920 8921 9022 9021 10031 10032 10133 10132 8921 8922 9023 9022 10032 10033 10134 10133 8922 8923 9024 9023 10033 10034 10135 10134 8923 8924 9025 9024 10034 10035 10136 10135 8924 8925 9026 9025 10035 10036 10137 10136 8925 8926 9027 9026 10036 10037 10138 10137 8926 8927 9028 9027 10037 10038 10139 10138 8927 8928 9029 9028 10038 10039 10140 10139 8928 8929 9030 9029 10039 10040 10141 10140 8929 8930 9031 9030 10040 10041 10142 10141 8930 8931 9032 9031 10041 10042 10143 10142 8931 8932 9033 9032 10042 10043 10144 10143 8932 8933 9034 9033 10043 10044 10145 10144 8933 8934 9035 9034 10044 10045 10146 10145 8934 8935 9036 9035 10045 10046 10147 10146 8935 8936 9037 9036 10046 10047 10148 10147 8936 8937 9038 9037 10047 10048 10149 10148 8937 8938 9039 9038 10048 10049 10150 10149 8938 8939 9040 9039 10049 10050 10151 10150 8939 8940 9041 9040 10050 10051 10152 10151 8940 8941 9042 9041 10051 10052 10153 10152 8941 8942 9043 9042 10052 10053 10154 10153 8942 8943 9044 9043 10053 10054 10155 10154 8943 8944 9045 9044 10054 10055 10156 10155 8944 8945 9046 9045 10055 10056 10157 10156 8945 8946 9047 9046 10056 10057 10158 10157 8946 8947 9048 9047 10057 10058 10159 10158 8947 8948 9049 9048 10058 10059 10160 10159 8948 8949 9050 9049 10059 10060 10161 10160 8949 8950 9051 9050 10060 10061 10162 10161 8950 8951 9052 9051 10061 10062 10163 10162 8951 8952 9053 9052 10062 10063 10164 10163 8952 8953 9054 9053 10063 10064 10165 10164 8953 8954 9055 9054 10064 10065 10166 10165 8954 8955 9056 9055 10065 10066 10167 10166 8955 8956 9057 9056 10066 10067 10168 10167 8956 8957 9058 9057 10067 10068 10169 10168 8957 8958 9059 9058 10068 10069 10170 10169 8958 8959 9060 9059 10069 10070 10171 10170 8959 8960 9061 9060 10070 10071 10172 10171 8960 8961 9062 9061 10071 10072 10173 10172 8961 8962 9063 9062 10072 10073 10174 10173 8962 8963 9064 9063 10073 10074 10175 10174 8963 8964 9065 9064 10074 10075 10176 10175 8964 8965 9066 9065 10075 10076 10177 10176 8965 8966 9067 9066 10076 10077 10178 10177 8966 8967 9068 9067 10077 10078 10179 10178 8967 8968 9069 9068 10078 10079 10180 10179 8968 8969 9070 9069 10079 10080 10181 10180 8969 8970 9071 9070 10080 10081 10182 10181 8970 8971 9072 9071 10081 10082 10183 10182 8971 8972 9073 9072 10082 10083 10184 10183 8972 8973 9074 9073 10083 10084 10185 10184 8973 8974 9075 9074 10084 10085 10186 10185 8974 8975 9076 9075 10085 10086 10187 10186 8975 8976 9077 9076 10086 10087 10188 10187 8976 8977 9078 9077 10087 10088 10189 10188 8977 8978 9079 9078 10088 10089 10190 10189 8978 8979 9080 9079 10089 10090 10191 10190 8979 8980 9081 9080 10090 10091 10192 10191 8980 8981 9082 9081 10091 10092 10193 10192 8981 8982 9083 9082 10092 10093 10194 10193 8982 8983 9084 9083 10093 10094 10195 10194 8983 8984 9085 9084 10094 10095 10196 10195 8984 8985 9086 9085 10095 10096 10197 10196 8985 8986 9087 9086 10096 10097 10198 10197 8986 8987 9088 9087 10097 10098 10199 10198 8987 8988 9089 9088 10098 10099 10200 10199 8989 8990 9091 9090 10100 10101 10202 10201 8990 8991 9092 9091 10101 10102 10203 10202 8991 8992 9093 9092 10102 10103 10204 10203 8992 8993 9094 9093 10103 10104 10205 10204 8993 8994 9095 9094 10104 10105 10206 10205 8994 8995 9096 9095 10105 10106 10207 10206 8995 8996 9097 9096 10106 10107 10208 10207 8996 8997 9098 9097 10107 10108 10209 10208 8997 8998 9099 9098 10108 10109 10210 10209 8998 8999 9100 9099 10109 10110 10211 10210 8999 9000 9101 9100 10110 10111 10212 10211 9000 9001 9102 9101 10111 10112 10213 10212 9001 9002 9103 9102 10112 10113 10214 10213 9002 9003 9104 9103 10113 10114 10215 10214 9003 9004 9105 9104 10114 10115 10216 10215 9004 9005 9106 9105 10115 10116 10217 10216 9005 9006 9107 9106 10116 10117 10218 10217 9006 9007 9108 9107 10117 10118 10219 10218 9007 9008 9109 9108 10118 10119 10220 10219 9008 9009 9110 9109 10119 10120 10221 10220 9009 9010 9111 9110 10120 10121 10222 10221 9010 9011 9112 9111 10121 10122 10223 10222 9011 9012 9113 9112 10122 10123 10224 10223 9012 9013 9114 9113 10123 10124 10225 10224 9013 9014 9115 9114 10124 10125 10226 10225 9014 9015 9116 9115 10125 10126 10227 10226 9015 9016 9117 9116 10126 10127 10228 10227 9016 9017 9118 9117 10127 10128 10229 10228 9017 9018 9119 9118 10128 10129 10230 10229 9018 9019 9120 9119 10129 10130 10231 10230 9019 9020 9121 9120 10130 10131 10232 10231 9020 9021 9122 9121 10131 10132 10233 10232 9021 9022 9123 9122 10132 10133 10234 10233 9022 9023 9124 9123 10133 10134 10235 10234 9023 9024 9125 9124 10134 10135 10236 10235 9024 9025 9126 9125 10135 10136 10237 10236 9025 9026 9127 9126 10136 10137 10238 10237 9026 9027 9128 9127 10137 10138 10239 10238 9027 9028 9129 9128 10138 10139 10240 10239 9028 9029 9130 9129 10139 10140 10241 10240 9029 9030 9131 9130 10140 10141 10242 10241 9030 9031 9132 9131 10141 10142 10243 10242 9031 9032 9133 9132 10142 10143 10244 10243 9032 9033 9134 9133 10143 10144 10245 10244 9033 9034 9135 9134 10144 10145 10246 10245 9034 9035 9136 9135 10145 10146 10247 10246 9035 9036 9137 9136 10146 10147 10248 10247 9036 9037 9138 9137 10147 10148 10249 10248 9037 9038 9139 9138 10148 10149 10250 10249 9038 9039 9140 9139 10149 10150 10251 10250 9039 9040 9141 9140 10150 10151 10252 10251 9040 9041 9142 9141 10151 10152 10253 10252 9041 9042 9143 9142 10152 10153 10254 10253 9042 9043 9144 9143 10153 10154 10255 10254 9043 9044 9145 9144 10154 10155 10256 10255 9044 9045 9146 9145 10155 10156 10257 10256 9045 9046 9147 9146 10156 10157 10258 10257 9046 9047 9148 9147 10157 10158 10259 10258 9047 9048 9149 9148 10158 10159 10260 10259 9048 9049 9150 9149 10159 10160 10261 10260 9049 9050 9151 9150 10160 10161 10262 10261 9050 9051 9152 9151 10161 10162 10263 10262 9051 9052 9153 9152 10162 10163 10264 10263 9052 9053 9154 9153 10163 10164 10265 10264 9053 9054 9155 9154 10164 10165 10266 10265 9054 9055 9156 9155 10165 10166 10267 10266 9055 9056 9157 9156 10166 10167 10268 10267 9056 9057 9158 9157 10167 10168 10269 10268 9057 9058 9159 9158 10168 10169 10270 10269 9058 9059 9160 9159 10169 10170 10271 10270 9059 9060 9161 9160 10170 10171 10272 10271 9060 9061 9162 9161 10171 10172 10273 10272 9061 9062 9163 9162 10172 10173 10274 10273 9062 9063 9164 9163 10173 10174 10275 10274 9063 9064 9165 9164 10174 10175 10276 10275 9064 9065 9166 9165 10175 10176 10277 10276 9065 9066 9167 9166 10176 10177 10278 10277 9066 9067 9168 9167 10177 10178 10279 10278 9067 9068 9169 9168 10178 10179 10280 10279 9068 9069 9170 9169 10179 10180 10281 10280 9069 9070 9171 9170 10180 10181 10282 10281 9070 9071 9172 9171 10181 10182 10283 10282 9071 9072 9173 9172 10182 10183 10284 10283 9072 9073 9174 9173 10183 10184 10285 10284 9073 9074 9175 9174 10184 10185 10286 10285 9074 9075 9176 9175 10185 10186 10287 10286 9075 9076 9177 9176 10186 10187 10288 10287 9076 9077 9178 9177 10187 10188 10289 10288 9077 9078 9179 9178 10188 10189 10290 10289 9078 9079 9180 9179 10189 10190 10291 10290 9079 9080 9181 9180 10190 10191 10292 10291 9080 9081 9182 9181 10191 10192 10293 10292 9081 9082 9183 9182 10192 10193 10294 10293 9082 9083 9184 9183 10193 10194 10295 10294 9083 9084 9185 9184 10194 10195 10296 10295 9084 9085 9186 9185 10195 10196 10297 10296 9085 9086 9187 9186 10196 10197 10298 10297 9086 9087 9188 9187 10197 10198 10299 10298 9087 9088 9189 9188 10198 10199 10300 10299 9088 9089 9190 9189 10199 10200 10301 10300 9090 9091 9192 9191 10201 10202 10303 10302 9091 9092 9193 9192 10202 10203 10304 10303 9092 9093 9194 9193 10203 10204 10305 10304 9093 9094 9195 9194 10204 10205 10306 10305 9094 9095 9196 9195 10205 10206 10307 10306 9095 9096 9197 9196 10206 10207 10308 10307 9096 9097 9198 9197 10207 10208 10309 10308 9097 9098 9199 9198 10208 10209 10310 10309 9098 9099 9200 9199 10209 10210 10311 10310 9099 9100 9201 9200 10210 10211 10312 10311 9100 9101 9202 9201 10211 10212 10313 10312 9101 9102 9203 9202 10212 10213 10314 10313 9102 9103 9204 9203 10213 10214 10315 10314 9103 9104 9205 9204 10214 10215 10316 10315 9104 9105 9206 9205 10215 10216 10317 10316 9105 9106 9207 9206 10216 10217 10318 10317 9106 9107 9208 9207 10217 10218 10319 10318 9107 9108 9209 9208 10218 10219 10320 10319 9108 9109 9210 9209 10219 10220 10321 10320 9109 9110 9211 9210 10220 10221 10322 10321 9110 9111 9212 9211 10221 10222 10323 10322 9111 9112 9213 9212 10222 10223 10324 10323 9112 9113 9214 9213 10223 10224 10325 10324 9113 9114 9215 9214 10224 10225 10326 10325 9114 9115 9216 9215 10225 10226 10327 10326 9115 9116 9217 9216 10226 10227 10328 10327 9116 9117 9218 9217 10227 10228 10329 10328 9117 9118 9219 9218 10228 10229 10330 10329 9118 9119 9220 9219 10229 10230 10331 10330 9119 9120 9221 9220 10230 10231 10332 10331 9120 9121 9222 9221 10231 10232 10333 10332 9121 9122 9223 9222 10232 10233 10334 10333 9122 9123 9224 9223 10233 10234 10335 10334 9123 9124 9225 9224 10234 10235 10336 10335 9124 9125 9226 9225 10235 10236 10337 10336 9125 9126 9227 9226 10236 10237 10338 10337 9126 9127 9228 9227 10237 10238 10339 10338 9127 9128 9229 9228 10238 10239 10340 10339 9128 9129 9230 9229 10239 10240 10341 10340 9129 9130 9231 9230 10240 10241 10342 10341 9130 9131 9232 9231 10241 10242 10343 10342 9131 9132 9233 9232 10242 10243 10344 10343 9132 9133 9234 9233 10243 10244 10345 10344 9133 9134 9235 9234 10244 10245 10346 10345 9134 9135 9236 9235 10245 10246 10347 10346 9135 9136 9237 9236 10246 10247 10348 10347 9136 9137 9238 9237 10247 10248 10349 10348 9137 9138 9239 9238 10248 10249 10350 10349 9138 9139 9240 9239 10249 10250 10351 10350 9139 9140 9241 9240 10250 10251 10352 10351 9140 9141 9242 9241 10251 10252 10353 10352 9141 9142 9243 9242 10252 10253 10354 10353 9142 9143 9244 9243 10253 10254 10355 10354 9143 9144 9245 9244 10254 10255 10356 10355 9144 9145 9246 9245 10255 10256 10357 10356 9145 9146 9247 9246 10256 10257 10358 10357 9146 9147 9248 9247 10257 10258 10359 10358 9147 9148 9249 9248 10258 10259 10360 10359 9148 9149 9250 9249 10259 10260 10361 10360 9149 9150 9251 9250 10260 10261 10362 10361 9150 9151 9252 9251 10261 10262 10363 10362 9151 9152 9253 9252 10262 10263 10364 10363 9152 9153 9254 9253 10263 10264 10365 10364 9153 9154 9255 9254 10264 10265 10366 10365 9154 9155 9256 9255 10265 10266 10367 10366 9155 9156 9257 9256 10266 10267 10368 10367 9156 9157 9258 9257 10267 10268 10369 10368 9157 9158 9259 9258 10268 10269 10370 10369 9158 9159 9260 9259 10269 10270 10371 10370 9159 9160 9261 9260 10270 10271 10372 10371 9160 9161 9262 9261 10271 10272 10373 10372 9161 9162 9263 9262 10272 10273 10374 10373 9162 9163 9264 9263 10273 10274 10375 10374 9163 9164 9265 9264 10274 10275 10376 10375 9164 9165 9266 9265 10275 10276 10377 10376 9165 9166 9267 9266 10276 10277 10378 10377 9166 9167 9268 9267 10277 10278 10379 10378 9167 9168 9269 9268 10278 10279 10380 10379 9168 9169 9270 9269 10279 10280 10381 10380 9169 9170 9271 9270 10280 10281 10382 10381 9170 9171 9272 9271 10281 10282 10383 10382 9171 9172 9273 9272 10282 10283 10384 10383 9172 9173 9274 9273 10283 10284 10385 10384 9173 9174 9275 9274 10284 10285 10386 10385 9174 9175 9276 9275 10285 10286 10387 10386 9175 9176 9277 9276 10286 10287 10388 10387 9176 9177 9278 9277 10287 10288 10389 10388 9177 9178 9279 9278 10288 10289 10390 10389 9178 9179 9280 9279 10289 10290 10391 10390 9179 9180 9281 9280 10290 10291 10392 10391 9180 9181 9282 9281 10291 10292 10393 10392 9181 9182 9283 9282 10292 10293 10394 10393 9182 9183 9284 9283 10293 10294 10395 10394 9183 9184 9285 9284 10294 10295 10396 10395 9184 9185 9286 9285 10295 10296 10397 10396 9185 9186 9287 9286 10296 10297 10398 10397 9186 9187 9288 9287 10297 10298 10399 10398 9187 9188 9289 9288 10298 10299 10400 10399 9188 9189 9290 9289 10299 10300 10401 10400 9189 9190 9291 9290 10300 10301 10402 10401 9191 9192 9293 9292 10302 10303 10404 10403 9192 9193 9294 9293 10303 10304 10405 10404 9193 9194 9295 9294 10304 10305 10406 10405 9194 9195 9296 9295 10305 10306 10407 10406 9195 9196 9297 9296 10306 10307 10408 10407 9196 9197 9298 9297 10307 10308 10409 10408 9197 9198 9299 9298 10308 10309 10410 10409 9198 9199 9300 9299 10309 10310 10411 10410 9199 9200 9301 9300 10310 10311 10412 10411 9200 9201 9302 9301 10311 10312 10413 10412 9201 9202 9303 9302 10312 10313 10414 10413 9202 9203 9304 9303 10313 10314 10415 10414 9203 9204 9305 9304 10314 10315 10416 10415 9204 9205 9306 9305 10315 10316 10417 10416 9205 9206 9307 9306 10316 10317 10418 10417 9206 9207 9308 9307 10317 10318 10419 10418 9207 9208 9309 9308 10318 10319 10420 10419 9208 9209 9310 9309 10319 10320 10421 10420 9209 9210 9311 9310 10320 10321 10422 10421 9210 9211 9312 9311 10321 10322 10423 10422 9211 9212 9313 9312 10322 10323 10424 10423 9212 9213 9314 9313 10323 10324 10425 10424 9213 9214 9315 9314 10324 10325 10426 10425 9214 9215 9316 9315 10325 10326 10427 10426 9215 9216 9317 9316 10326 10327 10428 10427 9216 9217 9318 9317 10327 10328 10429 10428 9217 9218 9319 9318 10328 10329 10430 10429 9218 9219 9320 9319 10329 10330 10431 10430 9219 9220 9321 9320 10330 10331 10432 10431 9220 9221 9322 9321 10331 10332 10433 10432 9221 9222 9323 9322 10332 10333 10434 10433 9222 9223 9324 9323 10333 10334 10435 10434 9223 9224 9325 9324 10334 10335 10436 10435 9224 9225 9326 9325 10335 10336 10437 10436 9225 9226 9327 9326 10336 10337 10438 10437 9226 9227 9328 9327 10337 10338 10439 10438 9227 9228 9329 9328 10338 10339 10440 10439 9228 9229 9330 9329 10339 10340 10441 10440 9229 9230 9331 9330 10340 10341 10442 10441 9230 9231 9332 9331 10341 10342 10443 10442 9231 9232 9333 9332 10342 10343 10444 10443 9232 9233 9334 9333 10343 10344 10445 10444 9233 9234 9335 9334 10344 10345 10446 10445 9234 9235 9336 9335 10345 10346 10447 10446 9235 9236 9337 9336 10346 10347 10448 10447 9236 9237 9338 9337 10347 10348 10449 10448 9237 9238 9339 9338 10348 10349 10450 10449 9238 9239 9340 9339 10349 10350 10451 10450 9239 9240 9341 9340 10350 10351 10452 10451 9240 9241 9342 9341 10351 10352 10453 10452 9241 9242 9343 9342 10352 10353 10454 10453 9242 9243 9344 9343 10353 10354 10455 10454 9243 9244 9345 9344 10354 10355 10456 10455 9244 9245 9346 9345 10355 10356 10457 10456 9245 9246 9347 9346 10356 10357 10458 10457 9246 9247 9348 9347 10357 10358 10459 10458 9247 9248 9349 9348 10358 10359 10460 10459 9248 9249 9350 9349 10359 10360 10461 10460 9249 9250 9351 9350 10360 10361 10462 10461 9250 9251 9352 9351 10361 10362 10463 10462 9251 9252 9353 9352 10362 10363 10464 10463 9252 9253 9354 9353 10363 10364 10465 10464 9253 9254 9355 9354 10364 10365 10466 10465 9254 9255 9356 9355 10365 10366 10467 10466 9255 9256 9357 9356 10366 10367 10468 10467 9256 9257 9358 9357 10367 10368 10469 10468 9257 9258 9359 9358 10368 10369 10470 10469 9258 9259 9360 9359 10369 10370 10471 10470 9259 9260 9361 9360 10370 10371 10472 10471 9260 9261 9362 9361 10371 10372 10473 10472 9261 9262 9363 9362 10372 10373 10474 10473 9262 9263 9364 9363 10373 10374 10475 10474 9263 9264 9365 9364 10374 10375 10476 10475 9264 9265 9366 9365 10375 10376 10477 10476 9265 9266 9367 9366 10376 10377 10478 10477 9266 9267 9368 9367 10377 10378 10479 10478 9267 9268 9369 9368 10378 10379 10480 10479 9268 9269 9370 9369 10379 10380 10481 10480 9269 9270 9371 9370 10380 10381 10482 10481 9270 9271 9372 9371 10381 10382 10483 10482 9271 9272 9373 9372 10382 10383 10484 10483 9272 9273 9374 9373 10383 10384 10485 10484 9273 9274 9375 9374 10384 10385 10486 10485 9274 9275 9376 9375 10385 10386 10487 10486 9275 9276 9377 9376 10386 10387 10488 10487 9276 9277 9378 9377 10387 10388 10489 10488 9277 9278 9379 9378 10388 10389 10490 10489 9278 9279 9380 9379 10389 10390 10491 10490 9279 9280 9381 9380 10390 10391 10492 10491 9280 9281 9382 9381 10391 10392 10493 10492 9281 9282 9383 9382 10392 10393 10494 10493 9282 9283 9384 9383 10393 10394 10495 10494 9283 9284 9385 9384 10394 10395 10496 10495 9284 9285 9386 9385 10395 10396 10497 10496 9285 9286 9387 9386 10396 10397 10498 10497 9286 9287 9388 9387 10397 10398 10499 10498 9287 9288 9389 9388 10398 10399 10500 10499 9288 9289 9390 9389 10399 10400 10501 10500 9289 9290 9391 9390 10400 10401 10502 10501 9290 9291 9392 9391 10401 10402 10503 10502 9292 9293 9394 9393 10403 10404 10505 10504 9293 9294 9395 9394 10404 10405 10506 10505 9294 9295 9396 9395 10405 10406 10507 10506 9295 9296 9397 9396 10406 10407 10508 10507 9296 9297 9398 9397 10407 10408 10509 10508 9297 9298 9399 9398 10408 10409 10510 10509 9298 9299 9400 9399 10409 10410 10511 10510 9299 9300 9401 9400 10410 10411 10512 10511 9300 9301 9402 9401 10411 10412 10513 10512 9301 9302 9403 9402 10412 10413 10514 10513 9302 9303 9404 9403 10413 10414 10515 10514 9303 9304 9405 9404 10414 10415 10516 10515 9304 9305 9406 9405 10415 10416 10517 10516 9305 9306 9407 9406 10416 10417 10518 10517 9306 9307 9408 9407 10417 10418 10519 10518 9307 9308 9409 9408 10418 10419 10520 10519 9308 9309 9410 9409 10419 10420 10521 10520 9309 9310 9411 9410 10420 10421 10522 10521 9310 9311 9412 9411 10421 10422 10523 10522 9311 9312 9413 9412 10422 10423 10524 10523 9312 9313 9414 9413 10423 10424 10525 10524 9313 9314 9415 9414 10424 10425 10526 10525 9314 9315 9416 9415 10425 10426 10527 10526 9315 9316 9417 9416 10426 10427 10528 10527 9316 9317 9418 9417 10427 10428 10529 10528 9317 9318 9419 9418 10428 10429 10530 10529 9318 9319 9420 9419 10429 10430 10531 10530 9319 9320 9421 9420 10430 10431 10532 10531 9320 9321 9422 9421 10431 10432 10533 10532 9321 9322 9423 9422 10432 10433 10534 10533 9322 9323 9424 9423 10433 10434 10535 10534 9323 9324 9425 9424 10434 10435 10536 10535 9324 9325 9426 9425 10435 10436 10537 10536 9325 9326 9427 9426 10436 10437 10538 10537 9326 9327 9428 9427 10437 10438 10539 10538 9327 9328 9429 9428 10438 10439 10540 10539 9328 9329 9430 9429 10439 10440 10541 10540 9329 9330 9431 9430 10440 10441 10542 10541 9330 9331 9432 9431 10441 10442 10543 10542 9331 9332 9433 9432 10442 10443 10544 10543 9332 9333 9434 9433 10443 10444 10545 10544 9333 9334 9435 9434 10444 10445 10546 10545 9334 9335 9436 9435 10445 10446 10547 10546 9335 9336 9437 9436 10446 10447 10548 10547 9336 9337 9438 9437 10447 10448 10549 10548 9337 9338 9439 9438 10448 10449 10550 10549 9338 9339 9440 9439 10449 10450 10551 10550 9339 9340 9441 9440 10450 10451 10552 10551 9340 9341 9442 9441 10451 10452 10553 10552 9341 9342 9443 9442 10452 10453 10554 10553 9342 9343 9444 9443 10453 10454 10555 10554 9343 9344 9445 9444 10454 10455 10556 10555 9344 9345 9446 9445 10455 10456 10557 10556 9345 9346 9447 9446 10456 10457 10558 10557 9346 9347 9448 9447 10457 10458 10559 10558 9347 9348 9449 9448 10458 10459 10560 10559 9348 9349 9450 9449 10459 10460 10561 10560 9349 9350 9451 9450 10460 10461 10562 10561 9350 9351 9452 9451 10461 10462 10563 10562 9351 9352 9453 9452 10462 10463 10564 10563 9352 9353 9454 9453 10463 10464 10565 10564 9353 9354 9455 9454 10464 10465 10566 10565 9354 9355 9456 9455 10465 10466 10567 10566 9355 9356 9457 9456 10466 10467 10568 10567 9356 9357 9458 9457 10467 10468 10569 10568 9357 9358 9459 9458 10468 10469 10570 10569 9358 9359 9460 9459 10469 10470 10571 10570 9359 9360 9461 9460 10470 10471 10572 10571 9360 9361 9462 9461 10471 10472 10573 10572 9361 9362 9463 9462 10472 10473 10574 10573 9362 9363 9464 9463 10473 10474 10575 10574 9363 9364 9465 9464 10474 10475 10576 10575 9364 9365 9466 9465 10475 10476 10577 10576 9365 9366 9467 9466 10476 10477 10578 10577 9366 9367 9468 9467 10477 10478 10579 10578 9367 9368 9469 9468 10478 10479 10580 10579 9368 9369 9470 9469 10479 10480 10581 10580 9369 9370 9471 9470 10480 10481 10582 10581 9370 9371 9472 9471 10481 10482 10583 10582 9371 9372 9473 9472 10482 10483 10584 10583 9372 9373 9474 9473 10483 10484 10585 10584 9373 9374 9475 9474 10484 10485 10586 10585 9374 9375 9476 9475 10485 10486 10587 10586 9375 9376 9477 9476 10486 10487 10588 10587 9376 9377 9478 9477 10487 10488 10589 10588 9377 9378 9479 9478 10488 10489 10590 10589 9378 9379 9480 9479 10489 10490 10591 10590 9379 9380 9481 9480 10490 10491 10592 10591 9380 9381 9482 9481 10491 10492 10593 10592 9381 9382 9483 9482 10492 10493 10594 10593 9382 9383 9484 9483 10493 10494 10595 10594 9383 9384 9485 9484 10494 10495 10596 10595 9384 9385 9486 9485 10495 10496 10597 10596 9385 9386 9487 9486 10496 10497 10598 10597 9386 9387 9488 9487 10497 10498 10599 10598 9387 9388 9489 9488 10498 10499 10600 10599 9388 9389 9490 9489 10499 10500 10601 10600 9389 9390 9491 9490 10500 10501 10602 10601 9390 9391 9492 9491 10501 10502 10603 10602 9391 9392 9493 9492 10502 10503 10604 10603 9393 9394 9495 9494 10504 10505 10606 10605 9394 9395 9496 9495 10505 10506 10607 10606 9395 9396 9497 9496 10506 10507 10608 10607 9396 9397 9498 9497 10507 10508 10609 10608 9397 9398 9499 9498 10508 10509 10610 10609 9398 9399 9500 9499 10509 10510 10611 10610 9399 9400 9501 9500 10510 10511 10612 10611 9400 9401 9502 9501 10511 10512 10613 10612 9401 9402 9503 9502 10512 10513 10614 10613 9402 9403 9504 9503 10513 10514 10615 10614 9403 9404 9505 9504 10514 10515 10616 10615 9404 9405 9506 9505 10515 10516 10617 10616 9405 9406 9507 9506 10516 10517 10618 10617 9406 9407 9508 9507 10517 10518 10619 10618 9407 9408 9509 9508 10518 10519 10620 10619 9408 9409 9510 9509 10519 10520 10621 10620 9409 9410 9511 9510 10520 10521 10622 10621 9410 9411 9512 9511 10521 10522 10623 10622 9411 9412 9513 9512 10522 10523 10624 10623 9412 9413 9514 9513 10523 10524 10625 10624 9413 9414 9515 9514 10524 10525 10626 10625 9414 9415 9516 9515 10525 10526 10627 10626 9415 9416 9517 9516 10526 10527 10628 10627 9416 9417 9518 9517 10527 10528 10629 10628 9417 9418 9519 9518 10528 10529 10630 10629 9418 9419 9520 9519 10529 10530 10631 10630 9419 9420 9521 9520 10530 10531 10632 10631 9420 9421 9522 9521 10531 10532 10633 10632 9421 9422 9523 9522 10532 10533 10634 10633 9422 9423 9524 9523 10533 10534 10635 10634 9423 9424 9525 9524 10534 10535 10636 10635 9424 9425 9526 9525 10535 10536 10637 10636 9425 9426 9527 9526 10536 10537 10638 10637 9426 9427 9528 9527 10537 10538 10639 10638 9427 9428 9529 9528 10538 10539 10640 10639 9428 9429 9530 9529 10539 10540 10641 10640 9429 9430 9531 9530 10540 10541 10642 10641 9430 9431 9532 9531 10541 10542 10643 10642 9431 9432 9533 9532 10542 10543 10644 10643 9432 9433 9534 9533 10543 10544 10645 10644 9433 9434 9535 9534 10544 10545 10646 10645 9434 9435 9536 9535 10545 10546 10647 10646 9435 9436 9537 9536 10546 10547 10648 10647 9436 9437 9538 9537 10547 10548 10649 10648 9437 9438 9539 9538 10548 10549 10650 10649 9438 9439 9540 9539 10549 10550 10651 10650 9439 9440 9541 9540 10550 10551 10652 10651 9440 9441 9542 9541 10551 10552 10653 10652 9441 9442 9543 9542 10552 10553 10654 10653 9442 9443 9544 9543 10553 10554 10655 10654 9443 9444 9545 9544 10554 10555 10656 10655 9444 9445 9546 9545 10555 10556 10657 10656 9445 9446 9547 9546 10556 10557 10658 10657 9446 9447 9548 9547 10557 10558 10659 10658 9447 9448 9549 9548 10558 10559 10660 10659 9448 9449 9550 9549 10559 10560 10661 10660 9449 9450 9551 9550 10560 10561 10662 10661 9450 9451 9552 9551 10561 10562 10663 10662 9451 9452 9553 9552 10562 10563 10664 10663 9452 9453 9554 9553 10563 10564 10665 10664 9453 9454 9555 9554 10564 10565 10666 10665 9454 9455 9556 9555 10565 10566 10667 10666 9455 9456 9557 9556 10566 10567 10668 10667 9456 9457 9558 9557 10567 10568 10669 10668 9457 9458 9559 9558 10568 10569 10670 10669 9458 9459 9560 9559 10569 10570 10671 10670 9459 9460 9561 9560 10570 10571 10672 10671 9460 9461 9562 9561 10571 10572 10673 10672 9461 9462 9563 9562 10572 10573 10674 10673 9462 9463 9564 9563 10573 10574 10675 10674 9463 9464 9565 9564 10574 10575 10676 10675 9464 9465 9566 9565 10575 10576 10677 10676 9465 9466 9567 9566 10576 10577 10678 10677 9466 9467 9568 9567 10577 10578 10679 10678 9467 9468 9569 9568 10578 10579 10680 10679 9468 9469 9570 9569 10579 10580 10681 10680 9469 9470 9571 9570 10580 10581 10682 10681 9470 9471 9572 9571 10581 10582 10683 10682 9471 9472 9573 9572 10582 10583 10684 10683 9472 9473 9574 9573 10583 10584 10685 10684 9473 9474 9575 9574 10584 10585 10686 10685 9474 9475 9576 9575 10585 10586 10687 10686 9475 9476 9577 9576 10586 10587 10688 10687 9476 9477 9578 9577 10587 10588 10689 10688 9477 9478 9579 9578 10588 10589 10690 10689 9478 9479 9580 9579 10589 10590 10691 10690 9479 9480 9581 9580 10590 10591 10692 10691 9480 9481 9582 9581 10591 10592 10693 10692 9481 9482 9583 9582 10592 10593 10694 10693 9482 9483 9584 9583 10593 10594 10695 10694 9483 9484 9585 9584 10594 10595 10696 10695 9484 9485 9586 9585 10595 10596 10697 10696 9485 9486 9587 9586 10596 10597 10698 10697 9486 9487 9588 9587 10597 10598 10699 10698 9487 9488 9589 9588 10598 10599 10700 10699 9488 9489 9590 9589 10599 10600 10701 10700 9489 9490 9591 9590 10600 10601 10702 10701 9490 9491 9592 9591 10601 10602 10703 10702 9491 9492 9593 9592 10602 10603 10704 10703 9492 9493 9594 9593 10603 10604 10705 10704 9494 9495 9596 9595 10605 10606 10707 10706 9495 9496 9597 9596 10606 10607 10708 10707 9496 9497 9598 9597 10607 10608 10709 10708 9497 9498 9599 9598 10608 10609 10710 10709 9498 9499 9600 9599 10609 10610 10711 10710 9499 9500 9601 9600 10610 10611 10712 10711 9500 9501 9602 9601 10611 10612 10713 10712 9501 9502 9603 9602 10612 10613 10714 10713 9502 9503 9604 9603 10613 10614 10715 10714 9503 9504 9605 9604 10614 10615 10716 10715 9504 9505 9606 9605 10615 10616 10717 10716 9505 9506 9607 9606 10616 10617 10718 10717 9506 9507 9608 9607 10617 10618 10719 10718 9507 9508 9609 9608 10618 10619 10720 10719 9508 9509 9610 9609 10619 10620 10721 10720 9509 9510 9611 9610 10620 10621 10722 10721 9510 9511 9612 9611 10621 10622 10723 10722 9511 9512 9613 9612 10622 10623 10724 10723 9512 9513 9614 9613 10623 10624 10725 10724 9513 9514 9615 9614 10624 10625 10726 10725 9514 9515 9616 9615 10625 10626 10727 10726 9515 9516 9617 9616 10626 10627 10728 10727 9516 9517 9618 9617 10627 10628 10729 10728 9517 9518 9619 9618 10628 10629 10730 10729 9518 9519 9620 9619 10629 10630 10731 10730 9519 9520 9621 9620 10630 10631 10732 10731 9520 9521 9622 9621 10631 10632 10733 10732 9521 9522 9623 9622 10632 10633 10734 10733 9522 9523 9624 9623 10633 10634 10735 10734 9523 9524 9625 9624 10634 10635 10736 10735 9524 9525 9626 9625 10635 10636 10737 10736 9525 9526 9627 9626 10636 10637 10738 10737 9526 9527 9628 9627 10637 10638 10739 10738 9527 9528 9629 9628 10638 10639 10740 10739 9528 9529 9630 9629 10639 10640 10741 10740 9529 9530 9631 9630 10640 10641 10742 10741 9530 9531 9632 9631 10641 10642 10743 10742 9531 9532 9633 9632 10642 10643 10744 10743 9532 9533 9634 9633 10643 10644 10745 10744 9533 9534 9635 9634 10644 10645 10746 10745 9534 9535 9636 9635 10645 10646 10747 10746 9535 9536 9637 9636 10646 10647 10748 10747 9536 9537 9638 9637 10647 10648 10749 10748 9537 9538 9639 9638 10648 10649 10750 10749 9538 9539 9640 9639 10649 10650 10751 10750 9539 9540 9641 9640 10650 10651 10752 10751 9540 9541 9642 9641 10651 10652 10753 10752 9541 9542 9643 9642 10652 10653 10754 10753 9542 9543 9644 9643 10653 10654 10755 10754 9543 9544 9645 9644 10654 10655 10756 10755 9544 9545 9646 9645 10655 10656 10757 10756 9545 9546 9647 9646 10656 10657 10758 10757 9546 9547 9648 9647 10657 10658 10759 10758 9547 9548 9649 9648 10658 10659 10760 10759 9548 9549 9650 9649 10659 10660 10761 10760 9549 9550 9651 9650 10660 10661 10762 10761 9550 9551 9652 9651 10661 10662 10763 10762 9551 9552 9653 9652 10662 10663 10764 10763 9552 9553 9654 9653 10663 10664 10765 10764 9553 9554 9655 9654 10664 10665 10766 10765 9554 9555 9656 9655 10665 10666 10767 10766 9555 9556 9657 9656 10666 10667 10768 10767 9556 9557 9658 9657 10667 10668 10769 10768 9557 9558 9659 9658 10668 10669 10770 10769 9558 9559 9660 9659 10669 10670 10771 10770 9559 9560 9661 9660 10670 10671 10772 10771 9560 9561 9662 9661 10671 10672 10773 10772 9561 9562 9663 9662 10672 10673 10774 10773 9562 9563 9664 9663 10673 10674 10775 10774 9563 9564 9665 9664 10674 10675 10776 10775 9564 9565 9666 9665 10675 10676 10777 10776 9565 9566 9667 9666 10676 10677 10778 10777 9566 9567 9668 9667 10677 10678 10779 10778 9567 9568 9669 9668 10678 10679 10780 10779 9568 9569 9670 9669 10679 10680 10781 10780 9569 9570 9671 9670 10680 10681 10782 10781 9570 9571 9672 9671 10681 10682 10783 10782 9571 9572 9673 9672 10682 10683 10784 10783 9572 9573 9674 9673 10683 10684 10785 10784 9573 9574 9675 9674 10684 10685 10786 10785 9574 9575 9676 9675 10685 10686 10787 10786 9575 9576 9677 9676 10686 10687 10788 10787 9576 9577 9678 9677 10687 10688 10789 10788 9577 9578 9679 9678 10688 10689 10790 10789 9578 9579 9680 9679 10689 10690 10791 10790 9579 9580 9681 9680 10690 10691 10792 10791 9580 9581 9682 9681 10691 10692 10793 10792 9581 9582 9683 9682 10692 10693 10794 10793 9582 9583 9684 9683 10693 10694 10795 10794 9583 9584 9685 9684 10694 10695 10796 10795 9584 9585 9686 9685 10695 10696 10797 10796 9585 9586 9687 9686 10696 10697 10798 10797 9586 9587 9688 9687 10697 10698 10799 10798 9587 9588 9689 9688 10698 10699 10800 10799 9588 9589 9690 9689 10699 10700 10801 10800 9589 9590 9691 9690 10700 10701 10802 10801 9590 9591 9692 9691 10701 10702 10803 10802 9591 9592 9693 9692 10702 10703 10804 10803 9592 9593 9694 9693 10703 10704 10805 10804 9593 9594 9695 9694 10704 10705 10806 10805 9595 9596 9697 9696 10706 10707 10808 10807 9596 9597 9698 9697 10707 10708 10809 10808 9597 9598 9699 9698 10708 10709 10810 10809 9598 9599 9700 9699 10709 10710 10811 10810 9599 9600 9701 9700 10710 10711 10812 10811 9600 9601 9702 9701 10711 10712 10813 10812 9601 9602 9703 9702 10712 10713 10814 10813 9602 9603 9704 9703 10713 10714 10815 10814 9603 9604 9705 9704 10714 10715 10816 10815 9604 9605 9706 9705 10715 10716 10817 10816 9605 9606 9707 9706 10716 10717 10818 10817 9606 9607 9708 9707 10717 10718 10819 10818 9607 9608 9709 9708 10718 10719 10820 10819 9608 9609 9710 9709 10719 10720 10821 10820 9609 9610 9711 9710 10720 10721 10822 10821 9610 9611 9712 9711 10721 10722 10823 10822 9611 9612 9713 9712 10722 10723 10824 10823 9612 9613 9714 9713 10723 10724 10825 10824 9613 9614 9715 9714 10724 10725 10826 10825 9614 9615 9716 9715 10725 10726 10827 10826 9615 9616 9717 9716 10726 10727 10828 10827 9616 9617 9718 9717 10727 10728 10829 10828 9617 9618 9719 9718 10728 10729 10830 10829 9618 9619 9720 9719 10729 10730 10831 10830 9619 9620 9721 9720 10730 10731 10832 10831 9620 9621 9722 9721 10731 10732 10833 10832 9621 9622 9723 9722 10732 10733 10834 10833 9622 9623 9724 9723 10733 10734 10835 10834 9623 9624 9725 9724 10734 10735 10836 10835 9624 9625 9726 9725 10735 10736 10837 10836 9625 9626 9727 9726 10736 10737 10838 10837 9626 9627 9728 9727 10737 10738 10839 10838 9627 9628 9729 9728 10738 10739 10840 10839 9628 9629 9730 9729 10739 10740 10841 10840 9629 9630 9731 9730 10740 10741 10842 10841 9630 9631 9732 9731 10741 10742 10843 10842 9631 9632 9733 9732 10742 10743 10844 10843 9632 9633 9734 9733 10743 10744 10845 10844 9633 9634 9735 9734 10744 10745 10846 10845 9634 9635 9736 9735 10745 10746 10847 10846 9635 9636 9737 9736 10746 10747 10848 10847 9636 9637 9738 9737 10747 10748 10849 10848 9637 9638 9739 9738 10748 10749 10850 10849 9638 9639 9740 9739 10749 10750 10851 10850 9639 9640 9741 9740 10750 10751 10852 10851 9640 9641 9742 9741 10751 10752 10853 10852 9641 9642 9743 9742 10752 10753 10854 10853 9642 9643 9744 9743 10753 10754 10855 10854 9643 9644 9745 9744 10754 10755 10856 10855 9644 9645 9746 9745 10755 10756 10857 10856 9645 9646 9747 9746 10756 10757 10858 10857 9646 9647 9748 9747 10757 10758 10859 10858 9647 9648 9749 9748 10758 10759 10860 10859 9648 9649 9750 9749 10759 10760 10861 10860 9649 9650 9751 9750 10760 10761 10862 10861 9650 9651 9752 9751 10761 10762 10863 10862 9651 9652 9753 9752 10762 10763 10864 10863 9652 9653 9754 9753 10763 10764 10865 10864 9653 9654 9755 9754 10764 10765 10866 10865 9654 9655 9756 9755 10765 10766 10867 10866 9655 9656 9757 9756 10766 10767 10868 10867 9656 9657 9758 9757 10767 10768 10869 10868 9657 9658 9759 9758 10768 10769 10870 10869 9658 9659 9760 9759 10769 10770 10871 10870 9659 9660 9761 9760 10770 10771 10872 10871 9660 9661 9762 9761 10771 10772 10873 10872 9661 9662 9763 9762 10772 10773 10874 10873 9662 9663 9764 9763 10773 10774 10875 10874 9663 9664 9765 9764 10774 10775 10876 10875 9664 9665 9766 9765 10775 10776 10877 10876 9665 9666 9767 9766 10776 10777 10878 10877 9666 9667 9768 9767 10777 10778 10879 10878 9667 9668 9769 9768 10778 10779 10880 10879 9668 9669 9770 9769 10779 10780 10881 10880 9669 9670 9771 9770 10780 10781 10882 10881 9670 9671 9772 9771 10781 10782 10883 10882 9671 9672 9773 9772 10782 10783 10884 10883 9672 9673 9774 9773 10783 10784 10885 10884 9673 9674 9775 9774 10784 10785 10886 10885 9674 9675 9776 9775 10785 10786 10887 10886 9675 9676 9777 9776 10786 10787 10888 10887 9676 9677 9778 9777 10787 10788 10889 10888 9677 9678 9779 9778 10788 10789 10890 10889 9678 9679 9780 9779 10789 10790 10891 10890 9679 9680 9781 9780 10790 10791 10892 10891 9680 9681 9782 9781 10791 10792 10893 10892 9681 9682 9783 9782 10792 10793 10894 10893 9682 9683 9784 9783 10793 10794 10895 10894 9683 9684 9785 9784 10794 10795 10896 10895 9684 9685 9786 9785 10795 10796 10897 10896 9685 9686 9787 9786 10796 10797 10898 10897 9686 9687 9788 9787 10797 10798 10899 10898 9687 9688 9789 9788 10798 10799 10900 10899 9688 9689 9790 9789 10799 10800 10901 10900 9689 9690 9791 9790 10800 10801 10902 10901 9690 9691 9792 9791 10801 10802 10903 10902 9691 9692 9793 9792 10802 10803 10904 10903 9692 9693 9794 9793 10803 10804 10905 10904 9693 9694 9795 9794 10804 10805 10906 10905 9694 9695 9796 9795 10805 10806 10907 10906 9696 9697 9798 9797 10807 10808 10909 10908 9697 9698 9799 9798 10808 10809 10910 10909 9698 9699 9800 9799 10809 10810 10911 10910 9699 9700 9801 9800 10810 10811 10912 10911 9700 9701 9802 9801 10811 10812 10913 10912 9701 9702 9803 9802 10812 10813 10914 10913 9702 9703 9804 9803 10813 10814 10915 10914 9703 9704 9805 9804 10814 10815 10916 10915 9704 9705 9806 9805 10815 10816 10917 10916 9705 9706 9807 9806 10816 10817 10918 10917 9706 9707 9808 9807 10817 10818 10919 10918 9707 9708 9809 9808 10818 10819 10920 10919 9708 9709 9810 9809 10819 10820 10921 10920 9709 9710 9811 9810 10820 10821 10922 10921 9710 9711 9812 9811 10821 10822 10923 10922 9711 9712 9813 9812 10822 10823 10924 10923 9712 9713 9814 9813 10823 10824 10925 10924 9713 9714 9815 9814 10824 10825 10926 10925 9714 9715 9816 9815 10825 10826 10927 10926 9715 9716 9817 9816 10826 10827 10928 10927 9716 9717 9818 9817 10827 10828 10929 10928 9717 9718 9819 9818 10828 10829 10930 10929 9718 9719 9820 9819 10829 10830 10931 10930 9719 9720 9821 9820 10830 10831 10932 10931 9720 9721 9822 9821 10831 10832 10933 10932 9721 9722 9823 9822 10832 10833 10934 10933 9722 9723 9824 9823 10833 10834 10935 10934 9723 9724 9825 9824 10834 10835 10936 10935 9724 9725 9826 9825 10835 10836 10937 10936 9725 9726 9827 9826 10836 10837 10938 10937 9726 9727 9828 9827 10837 10838 10939 10938 9727 9728 9829 9828 10838 10839 10940 10939 9728 9729 9830 9829 10839 10840 10941 10940 9729 9730 9831 9830 10840 10841 10942 10941 9730 9731 9832 9831 10841 10842 10943 10942 9731 9732 9833 9832 10842 10843 10944 10943 9732 9733 9834 9833 10843 10844 10945 10944 9733 9734 9835 9834 10844 10845 10946 10945 9734 9735 9836 9835 10845 10846 10947 10946 9735 9736 9837 9836 10846 10847 10948 10947 9736 9737 9838 9837 10847 10848 10949 10948 9737 9738 9839 9838 10848 10849 10950 10949 9738 9739 9840 9839 10849 10850 10951 10950 9739 9740 9841 9840 10850 10851 10952 10951 9740 9741 9842 9841 10851 10852 10953 10952 9741 9742 9843 9842 10852 10853 10954 10953 9742 9743 9844 9843 10853 10854 10955 10954 9743 9744 9845 9844 10854 10855 10956 10955 9744 9745 9846 9845 10855 10856 10957 10956 9745 9746 9847 9846 10856 10857 10958 10957 9746 9747 9848 9847 10857 10858 10959 10958 9747 9748 9849 9848 10858 10859 10960 10959 9748 9749 9850 9849 10859 10860 10961 10960 9749 9750 9851 9850 10860 10861 10962 10961 9750 9751 9852 9851 10861 10862 10963 10962 9751 9752 9853 9852 10862 10863 10964 10963 9752 9753 9854 9853 10863 10864 10965 10964 9753 9754 9855 9854 10864 10865 10966 10965 9754 9755 9856 9855 10865 10866 10967 10966 9755 9756 9857 9856 10866 10867 10968 10967 9756 9757 9858 9857 10867 10868 10969 10968 9757 9758 9859 9858 10868 10869 10970 10969 9758 9759 9860 9859 10869 10870 10971 10970 9759 9760 9861 9860 10870 10871 10972 10971 9760 9761 9862 9861 10871 10872 10973 10972 9761 9762 9863 9862 10872 10873 10974 10973 9762 9763 9864 9863 10873 10874 10975 10974 9763 9764 9865 9864 10874 10875 10976 10975 9764 9765 9866 9865 10875 10876 10977 10976 9765 9766 9867 9866 10876 10877 10978 10977 9766 9767 9868 9867 10877 10878 10979 10978 9767 9768 9869 9868 10878 10879 10980 10979 9768 9769 9870 9869 10879 10880 10981 10980 9769 9770 9871 9870 10880 10881 10982 10981 9770 9771 9872 9871 10881 10882 10983 10982 9771 9772 9873 9872 10882 10883 10984 10983 9772 9773 9874 9873 10883 10884 10985 10984 9773 9774 9875 9874 10884 10885 10986 10985 9774 9775 9876 9875 10885 10886 10987 10986 9775 9776 9877 9876 10886 10887 10988 10987 9776 9777 9878 9877 10887 10888 10989 10988 9777 9778 9879 9878 10888 10889 10990 10989 9778 9779 9880 9879 10889 10890 10991 10990 9779 9780 9881 9880 10890 10891 10992 10991 9780 9781 9882 9881 10891 10892 10993 10992 9781 9782 9883 9882 10892 10893 10994 10993 9782 9783 9884 9883 10893 10894 10995 10994 9783 9784 9885 9884 10894 10895 10996 10995 9784 9785 9886 9885 10895 10896 10997 10996 9785 9786 9887 9886 10896 10897 10998 10997 9786 9787 9888 9887 10897 10898 10999 10998 9787 9788 9889 9888 10898 10899 11000 10999 9788 9789 9890 9889 10899 10900 11001 11000 9789 9790 9891 9890 10900 10901 11002 11001 9790 9791 9892 9891 10901 10902 11003 11002 9791 9792 9893 9892 10902 10903 11004 11003 9792 9793 9894 9893 10903 10904 11005 11004 9793 9794 9895 9894 10904 10905 11006 11005 9794 9795 9896 9895 10905 10906 11007 11006 9795 9796 9897 9896 10906 10907 11008 11007 9797 9798 9899 9898 10908 10909 11010 11009 9798 9799 9900 9899 10909 10910 11011 11010 9799 9800 9901 9900 10910 10911 11012 11011 9800 9801 9902 9901 10911 10912 11013 11012 9801 9802 9903 9902 10912 10913 11014 11013 9802 9803 9904 9903 10913 10914 11015 11014 9803 9804 9905 9904 10914 10915 11016 11015 9804 9805 9906 9905 10915 10916 11017 11016 9805 9806 9907 9906 10916 10917 11018 11017 9806 9807 9908 9907 10917 10918 11019 11018 9807 9808 9909 9908 10918 10919 11020 11019 9808 9809 9910 9909 10919 10920 11021 11020 9809 9810 9911 9910 10920 10921 11022 11021 9810 9811 9912 9911 10921 10922 11023 11022 9811 9812 9913 9912 10922 10923 11024 11023 9812 9813 9914 9913 10923 10924 11025 11024 9813 9814 9915 9914 10924 10925 11026 11025 9814 9815 9916 9915 10925 10926 11027 11026 9815 9816 9917 9916 10926 10927 11028 11027 9816 9817 9918 9917 10927 10928 11029 11028 9817 9818 9919 9918 10928 10929 11030 11029 9818 9819 9920 9919 10929 10930 11031 11030 9819 9820 9921 9920 10930 10931 11032 11031 9820 9821 9922 9921 10931 10932 11033 11032 9821 9822 9923 9922 10932 10933 11034 11033 9822 9823 9924 9923 10933 10934 11035 11034 9823 9824 9925 9924 10934 10935 11036 11035 9824 9825 9926 9925 10935 10936 11037 11036 9825 9826 9927 9926 10936 10937 11038 11037 9826 9827 9928 9927 10937 10938 11039 11038 9827 9828 9929 9928 10938 10939 11040 11039 9828 9829 9930 9929 10939 10940 11041 11040 9829 9830 9931 9930 10940 10941 11042 11041 9830 9831 9932 9931 10941 10942 11043 11042 9831 9832 9933 9932 10942 10943 11044 11043 9832 9833 9934 9933 10943 10944 11045 11044 9833 9834 9935 9934 10944 10945 11046 11045 9834 9835 9936 9935 10945 10946 11047 11046 9835 9836 9937 9936 10946 10947 11048 11047 9836 9837 9938 9937 10947 10948 11049 11048 9837 9838 9939 9938 10948 10949 11050 11049 9838 9839 9940 9939 10949 10950 11051 11050 9839 9840 9941 9940 10950 10951 11052 11051 9840 9841 9942 9941 10951 10952 11053 11052 9841 9842 9943 9942 10952 10953 11054 11053 9842 9843 9944 9943 10953 10954 11055 11054 9843 9844 9945 9944 10954 10955 11056 11055 9844 9845 9946 9945 10955 10956 11057 11056 9845 9846 9947 9946 10956 10957 11058 11057 9846 9847 9948 9947 10957 10958 11059 11058 9847 9848 9949 9948 10958 10959 11060 11059 9848 9849 9950 9949 10959 10960 11061 11060 9849 9850 9951 9950 10960 10961 11062 11061 9850 9851 9952 9951 10961 10962 11063 11062 9851 9852 9953 9952 10962 10963 11064 11063 9852 9853 9954 9953 10963 10964 11065 11064 9853 9854 9955 9954 10964 10965 11066 11065 9854 9855 9956 9955 10965 10966 11067 11066 9855 9856 9957 9956 10966 10967 11068 11067 9856 9857 9958 9957 10967 10968 11069 11068 9857 9858 9959 9958 10968 10969 11070 11069 9858 9859 9960 9959 10969 10970 11071 11070 9859 9860 9961 9960 10970 10971 11072 11071 9860 9861 9962 9961 10971 10972 11073 11072 9861 9862 9963 9962 10972 10973 11074 11073 9862 9863 9964 9963 10973 10974 11075 11074 9863 9864 9965 9964 10974 10975 11076 11075 9864 9865 9966 9965 10975 10976 11077 11076 9865 9866 9967 9966 10976 10977 11078 11077 9866 9867 9968 9967 10977 10978 11079 11078 9867 9868 9969 9968 10978 10979 11080 11079 9868 9869 9970 9969 10979 10980 11081 11080 9869 9870 9971 9970 10980 10981 11082 11081 9870 9871 9972 9971 10981 10982 11083 11082 9871 9872 9973 9972 10982 10983 11084 11083 9872 9873 9974 9973 10983 10984 11085 11084 9873 9874 9975 9974 10984 10985 11086 11085 9874 9875 9976 9975 10985 10986 11087 11086 9875 9876 9977 9976 10986 10987 11088 11087 9876 9877 9978 9977 10987 10988 11089 11088 9877 9878 9979 9978 10988 10989 11090 11089 9878 9879 9980 9979 10989 10990 11091 11090 9879 9880 9981 9980 10990 10991 11092 11091 9880 9881 9982 9981 10991 10992 11093 11092 9881 9882 9983 9982 10992 10993 11094 11093 9882 9883 9984 9983 10993 10994 11095 11094 9883 9884 9985 9984 10994 10995 11096 11095 9884 9885 9986 9985 10995 10996 11097 11096 9885 9886 9987 9986 10996 10997 11098 11097 9886 9887 9988 9987 10997 10998 11099 11098 9887 9888 9989 9988 10998 10999 11100 11099 9888 9889 9990 9989 10999 11000 11101 11100 9889 9890 9991 9990 11000 11001 11102 11101 9890 9891 9992 9991 11001 11002 11103 11102 9891 9892 9993 9992 11002 11003 11104 11103 9892 9893 9994 9993 11003 11004 11105 11104 9893 9894 9995 9994 11004 11005 11106 11105 9894 9895 9996 9995 11005 11006 11107 11106 9895 9896 9997 9996 11006 11007 11108 11107 9896 9897 9998 9997 11007 11008 11109 11108 9999 10000 10101 10100 11110 11111 11212 11211 10000 10001 10102 10101 11111 11112 11213 11212 10001 10002 10103 10102 11112 11113 11214 11213 10002 10003 10104 10103 11113 11114 11215 11214 10003 10004 10105 10104 11114 11115 11216 11215 10004 10005 10106 10105 11115 11116 11217 11216 10005 10006 10107 10106 11116 11117 11218 11217 10006 10007 10108 10107 11117 11118 11219 11218 10007 10008 10109 10108 11118 11119 11220 11219 10008 10009 10110 10109 11119 11120 11221 11220 10009 10010 10111 10110 11120 11121 11222 11221 10010 10011 10112 10111 11121 11122 11223 11222 10011 10012 10113 10112 11122 11123 11224 11223 10012 10013 10114 10113 11123 11124 11225 11224 10013 10014 10115 10114 11124 11125 11226 11225 10014 10015 10116 10115 11125 11126 11227 11226 10015 10016 10117 10116 11126 11127 11228 11227 10016 10017 10118 10117 11127 11128 11229 11228 10017 10018 10119 10118 11128 11129 11230 11229 10018 10019 10120 10119 11129 11130 11231 11230 10019 10020 10121 10120 11130 11131 11232 11231 10020 10021 10122 10121 11131 11132 11233 11232 10021 10022 10123 10122 11132 11133 11234 11233 10022 10023 10124 10123 11133 11134 11235 11234 10023 10024 10125 10124 11134 11135 11236 11235 10024 10025 10126 10125 11135 11136 11237 11236 10025 10026 10127 10126 11136 11137 11238 11237 10026 10027 10128 10127 11137 11138 11239 11238 10027 10028 10129 10128 11138 11139 11240 11239 10028 10029 10130 10129 11139 11140 11241 11240 10029 10030 10131 10130 11140 11141 11242 11241 10030 10031 10132 10131 11141 11142 11243 11242 10031 10032 10133 10132 11142 11143 11244 11243 10032 10033 10134 10133 11143 11144 11245 11244 10033 10034 10135 10134 11144 11145 11246 11245 10034 10035 10136 10135 11145 11146 11247 11246 10035 10036 10137 10136 11146 11147 11248 11247 10036 10037 10138 10137 11147 11148 11249 11248 10037 10038 10139 10138 11148 11149 11250 11249 10038 10039 10140 10139 11149 11150 11251 11250 10039 10040 10141 10140 11150 11151 11252 11251 10040 10041 10142 10141 11151 11152 11253 11252 10041 10042 10143 10142 11152 11153 11254 11253 10042 10043 10144 10143 11153 11154 11255 11254 10043 10044 10145 10144 11154 11155 11256 11255 10044 10045 10146 10145 11155 11156 11257 11256 10045 10046 10147 10146 11156 11157 11258 11257 10046 10047 10148 10147 11157 11158 11259 11258 10047 10048 10149 10148 11158 11159 11260 11259 10048 10049 10150 10149 11159 11160 11261 11260 10049 10050 10151 10150 11160 11161 11262 11261 10050 10051 10152 10151 11161 11162 11263 11262 10051 10052 10153 10152 11162 11163 11264 11263 10052 10053 10154 10153 11163 11164 11265 11264 10053 10054 10155 10154 11164 11165 11266 11265 10054 10055 10156 10155 11165 11166 11267 11266 10055 10056 10157 10156 11166 11167 11268 11267 10056 10057 10158 10157 11167 11168 11269 11268 10057 10058 10159 10158 11168 11169 11270 11269 10058 10059 10160 10159 11169 11170 11271 11270 10059 10060 10161 10160 11170 11171 11272 11271 10060 10061 10162 10161 11171 11172 11273 11272 10061 10062 10163 10162 11172 11173 11274 11273 10062 10063 10164 10163 11173 11174 11275 11274 10063 10064 10165 10164 11174 11175 11276 11275 10064 10065 10166 10165 11175 11176 11277 11276 10065 10066 10167 10166 11176 11177 11278 11277 10066 10067 10168 10167 11177 11178 11279 11278 10067 10068 10169 10168 11178 11179 11280 11279 10068 10069 10170 10169 11179 11180 11281 11280 10069 10070 10171 10170 11180 11181 11282 11281 10070 10071 10172 10171 11181 11182 11283 11282 10071 10072 10173 10172 11182 11183 11284 11283 10072 10073 10174 10173 11183 11184 11285 11284 10073 10074 10175 10174 11184 11185 11286 11285 10074 10075 10176 10175 11185 11186 11287 11286 10075 10076 10177 10176 11186 11187 11288 11287 10076 10077 10178 10177 11187 11188 11289 11288 10077 10078 10179 10178 11188 11189 11290 11289 10078 10079 10180 10179 11189 11190 11291 11290 10079 10080 10181 10180 11190 11191 11292 11291 10080 10081 10182 10181 11191 11192 11293 11292 10081 10082 10183 10182 11192 11193 11294 11293 10082 10083 10184 10183 11193 11194 11295 11294 10083 10084 10185 10184 11194 11195 11296 11295 10084 10085 10186 10185 11195 11196 11297 11296 10085 10086 10187 10186 11196 11197 11298 11297 10086 10087 10188 10187 11197 11198 11299 11298 10087 10088 10189 10188 11198 11199 11300 11299 10088 10089 10190 10189 11199 11200 11301 11300 10089 10090 10191 10190 11200 11201 11302 11301 10090 10091 10192 10191 11201 11202 11303 11302 10091 10092 10193 10192 11202 11203 11304 11303 10092 10093 10194 10193 11203 11204 11305 11304 10093 10094 10195 10194 11204 11205 11306 11305 10094 10095 10196 10195 11205 11206 11307 11306 10095 10096 10197 10196 11206 11207 11308 11307 10096 10097 10198 10197 11207 11208 11309 11308 10097 10098 10199 10198 11208 11209 11310 11309 10098 10099 10200 10199 11209 11210 11311 11310 10100 10101 10202 10201 11211 11212 11313 11312 10101 10102 10203 10202 11212 11213 11314 11313 10102 10103 10204 10203 11213 11214 11315 11314 10103 10104 10205 10204 11214 11215 11316 11315 10104 10105 10206 10205 11215 11216 11317 11316 10105 10106 10207 10206 11216 11217 11318 11317 10106 10107 10208 10207 11217 11218 11319 11318 10107 10108 10209 10208 11218 11219 11320 11319 10108 10109 10210 10209 11219 11220 11321 11320 10109 10110 10211 10210 11220 11221 11322 11321 10110 10111 10212 10211 11221 11222 11323 11322 10111 10112 10213 10212 11222 11223 11324 11323 10112 10113 10214 10213 11223 11224 11325 11324 10113 10114 10215 10214 11224 11225 11326 11325 10114 10115 10216 10215 11225 11226 11327 11326 10115 10116 10217 10216 11226 11227 11328 11327 10116 10117 10218 10217 11227 11228 11329 11328 10117 10118 10219 10218 11228 11229 11330 11329 10118 10119 10220 10219 11229 11230 11331 11330 10119 10120 10221 10220 11230 11231 11332 11331 10120 10121 10222 10221 11231 11232 11333 11332 10121 10122 10223 10222 11232 11233 11334 11333 10122 10123 10224 10223 11233 11234 11335 11334 10123 10124 10225 10224 11234 11235 11336 11335 10124 10125 10226 10225 11235 11236 11337 11336 10125 10126 10227 10226 11236 11237 11338 11337 10126 10127 10228 10227 11237 11238 11339 11338 10127 10128 10229 10228 11238 11239 11340 11339 10128 10129 10230 10229 11239 11240 11341 11340 10129 10130 10231 10230 11240 11241 11342 11341 10130 10131 10232 10231 11241 11242 11343 11342 10131 10132 10233 10232 11242 11243 11344 11343 10132 10133 10234 10233 11243 11244 11345 11344 10133 10134 10235 10234 11244 11245 11346 11345 10134 10135 10236 10235 11245 11246 11347 11346 10135 10136 10237 10236 11246 11247 11348 11347 10136 10137 10238 10237 11247 11248 11349 11348 10137 10138 10239 10238 11248 11249 11350 11349 10138 10139 10240 10239 11249 11250 11351 11350 10139 10140 10241 10240 11250 11251 11352 11351 10140 10141 10242 10241 11251 11252 11353 11352 10141 10142 10243 10242 11252 11253 11354 11353 10142 10143 10244 10243 11253 11254 11355 11354 10143 10144 10245 10244 11254 11255 11356 11355 10144 10145 10246 10245 11255 11256 11357 11356 10145 10146 10247 10246 11256 11257 11358 11357 10146 10147 10248 10247 11257 11258 11359 11358 10147 10148 10249 10248 11258 11259 11360 11359 10148 10149 10250 10249 11259 11260 11361 11360 10149 10150 10251 10250 11260 11261 11362 11361 10150 10151 10252 10251 11261 11262 11363 11362 10151 10152 10253 10252 11262 11263 11364 11363 10152 10153 10254 10253 11263 11264 11365 11364 10153 10154 10255 10254 11264 11265 11366 11365 10154 10155 10256 10255 11265 11266 11367 11366 10155 10156 10257 10256 11266 11267 11368 11367 10156 10157 10258 10257 11267 11268 11369 11368 10157 10158 10259 10258 11268 11269 11370 11369 10158 10159 10260 10259 11269 11270 11371 11370 10159 10160 10261 10260 11270 11271 11372 11371 10160 10161 10262 10261 11271 11272 11373 11372 10161 10162 10263 10262 11272 11273 11374 11373 10162 10163 10264 10263 11273 11274 11375 11374 10163 10164 10265 10264 11274 11275 11376 11375 10164 10165 10266 10265 11275 11276 11377 11376 10165 10166 10267 10266 11276 11277 11378 11377 10166 10167 10268 10267 11277 11278 11379 11378 10167 10168 10269 10268 11278 11279 11380 11379 10168 10169 10270 10269 11279 11280 11381 11380 10169 10170 10271 10270 11280 11281 11382 11381 10170 10171 10272 10271 11281 11282 11383 11382 10171 10172 10273 10272 11282 11283 11384 11383 10172 10173 10274 10273 11283 11284 11385 11384 10173 10174 10275 10274 11284 11285 11386 11385 10174 10175 10276 10275 11285 11286 11387 11386 10175 10176 10277 10276 11286 11287 11388 11387 10176 10177 10278 10277 11287 11288 11389 11388 10177 10178 10279 10278 11288 11289 11390 11389 10178 10179 10280 10279 11289 11290 11391 11390 10179 10180 10281 10280 11290 11291 11392 11391 10180 10181 10282 10281 11291 11292 11393 11392 10181 10182 10283 10282 11292 11293 11394 11393 10182 10183 10284 10283 11293 11294 11395 11394 10183 10184 10285 10284 11294 11295 11396 11395 10184 10185 10286 10285 11295 11296 11397 11396 10185 10186 10287 10286 11296 11297 11398 11397 10186 10187 10288 10287 11297 11298 11399 11398 10187 10188 10289 10288 11298 11299 11400 11399 10188 10189 10290 10289 11299 11300 11401 11400 10189 10190 10291 10290 11300 11301 11402 11401 10190 10191 10292 10291 11301 11302 11403 11402 10191 10192 10293 10292 11302 11303 11404 11403 10192 10193 10294 10293 11303 11304 11405 11404 10193 10194 10295 10294 11304 11305 11406 11405 10194 10195 10296 10295 11305 11306 11407 11406 10195 10196 10297 10296 11306 11307 11408 11407 10196 10197 10298 10297 11307 11308 11409 11408 10197 10198 10299 10298 11308 11309 11410 11409 10198 10199 10300 10299 11309 11310 11411 11410 10199 10200 10301 10300 11310 11311 11412 11411 10201 10202 10303 10302 11312 11313 11414 11413 10202 10203 10304 10303 11313 11314 11415 11414 10203 10204 10305 10304 11314 11315 11416 11415 10204 10205 10306 10305 11315 11316 11417 11416 10205 10206 10307 10306 11316 11317 11418 11417 10206 10207 10308 10307 11317 11318 11419 11418 10207 10208 10309 10308 11318 11319 11420 11419 10208 10209 10310 10309 11319 11320 11421 11420 10209 10210 10311 10310 11320 11321 11422 11421 10210 10211 10312 10311 11321 11322 11423 11422 10211 10212 10313 10312 11322 11323 11424 11423 10212 10213 10314 10313 11323 11324 11425 11424 10213 10214 10315 10314 11324 11325 11426 11425 10214 10215 10316 10315 11325 11326 11427 11426 10215 10216 10317 10316 11326 11327 11428 11427 10216 10217 10318 10317 11327 11328 11429 11428 10217 10218 10319 10318 11328 11329 11430 11429 10218 10219 10320 10319 11329 11330 11431 11430 10219 10220 10321 10320 11330 11331 11432 11431 10220 10221 10322 10321 11331 11332 11433 11432 10221 10222 10323 10322 11332 11333 11434 11433 10222 10223 10324 10323 11333 11334 11435 11434 10223 10224 10325 10324 11334 11335 11436 11435 10224 10225 10326 10325 11335 11336 11437 11436 10225 10226 10327 10326 11336 11337 11438 11437 10226 10227 10328 10327 11337 11338 11439 11438 10227 10228 10329 10328 11338 11339 11440 11439 10228 10229 10330 10329 11339 11340 11441 11440 10229 10230 10331 10330 11340 11341 11442 11441 10230 10231 10332 10331 11341 11342 11443 11442 10231 10232 10333 10332 11342 11343 11444 11443 10232 10233 10334 10333 11343 11344 11445 11444 10233 10234 10335 10334 11344 11345 11446 11445 10234 10235 10336 10335 11345 11346 11447 11446 10235 10236 10337 10336 11346 11347 11448 11447 10236 10237 10338 10337 11347 11348 11449 11448 10237 10238 10339 10338 11348 11349 11450 11449 10238 10239 10340 10339 11349 11350 11451 11450 10239 10240 10341 10340 11350 11351 11452 11451 10240 10241 10342 10341 11351 11352 11453 11452 10241 10242 10343 10342 11352 11353 11454 11453 10242 10243 10344 10343 11353 11354 11455 11454 10243 10244 10345 10344 11354 11355 11456 11455 10244 10245 10346 10345 11355 11356 11457 11456 10245 10246 10347 10346 11356 11357 11458 11457 10246 10247 10348 10347 11357 11358 11459 11458 10247 10248 10349 10348 11358 11359 11460 11459 10248 10249 10350 10349 11359 11360 11461 11460 10249 10250 10351 10350 11360 11361 11462 11461 10250 10251 10352 10351 11361 11362 11463 11462 10251 10252 10353 10352 11362 11363 11464 11463 10252 10253 10354 10353 11363 11364 11465 11464 10253 10254 10355 10354 11364 11365 11466 11465 10254 10255 10356 10355 11365 11366 11467 11466 10255 10256 10357 10356 11366 11367 11468 11467 10256 10257 10358 10357 11367 11368 11469 11468 10257 10258 10359 10358 11368 11369 11470 11469 10258 10259 10360 10359 11369 11370 11471 11470 10259 10260 10361 10360 11370 11371 11472 11471 10260 10261 10362 10361 11371 11372 11473 11472 10261 10262 10363 10362 11372 11373 11474 11473 10262 10263 10364 10363 11373 11374 11475 11474 10263 10264 10365 10364 11374 11375 11476 11475 10264 10265 10366 10365 11375 11376 11477 11476 10265 10266 10367 10366 11376 11377 11478 11477 10266 10267 10368 10367 11377 11378 11479 11478 10267 10268 10369 10368 11378 11379 11480 11479 10268 10269 10370 10369 11379 11380 11481 11480 10269 10270 10371 10370 11380 11381 11482 11481 10270 10271 10372 10371 11381 11382 11483 11482 10271 10272 10373 10372 11382 11383 11484 11483 10272 10273 10374 10373 11383 11384 11485 11484 10273 10274 10375 10374 11384 11385 11486 11485 10274 10275 10376 10375 11385 11386 11487 11486 10275 10276 10377 10376 11386 11387 11488 11487 10276 10277 10378 10377 11387 11388 11489 11488 10277 10278 10379 10378 11388 11389 11490 11489 10278 10279 10380 10379 11389 11390 11491 11490 10279 10280 10381 10380 11390 11391 11492 11491 10280 10281 10382 10381 11391 11392 11493 11492 10281 10282 10383 10382 11392 11393 11494 11493 10282 10283 10384 10383 11393 11394 11495 11494 10283 10284 10385 10384 11394 11395 11496 11495 10284 10285 10386 10385 11395 11396 11497 11496 10285 10286 10387 10386 11396 11397 11498 11497 10286 10287 10388 10387 11397 11398 11499 11498 10287 10288 10389 10388 11398 11399 11500 11499 10288 10289 10390 10389 11399 11400 11501 11500 10289 10290 10391 10390 11400 11401 11502 11501 10290 10291 10392 10391 11401 11402 11503 11502 10291 10292 10393 10392 11402 11403 11504 11503 10292 10293 10394 10393 11403 11404 11505 11504 10293 10294 10395 10394 11404 11405 11506 11505 10294 10295 10396 10395 11405 11406 11507 11506 10295 10296 10397 10396 11406 11407 11508 11507 10296 10297 10398 10397 11407 11408 11509 11508 10297 10298 10399 10398 11408 11409 11510 11509 10298 10299 10400 10399 11409 11410 11511 11510 10299 10300 10401 10400 11410 11411 11512 11511 10300 10301 10402 10401 11411 11412 11513 11512 10302 10303 10404 10403 11413 11414 11515 11514 10303 10304 10405 10404 11414 11415 11516 11515 10304 10305 10406 10405 11415 11416 11517 11516 10305 10306 10407 10406 11416 11417 11518 11517 10306 10307 10408 10407 11417 11418 11519 11518 10307 10308 10409 10408 11418 11419 11520 11519 10308 10309 10410 10409 11419 11420 11521 11520 10309 10310 10411 10410 11420 11421 11522 11521 10310 10311 10412 10411 11421 11422 11523 11522 10311 10312 10413 10412 11422 11423 11524 11523 10312 10313 10414 10413 11423 11424 11525 11524 10313 10314 10415 10414 11424 11425 11526 11525 10314 10315 10416 10415 11425 11426 11527 11526 10315 10316 10417 10416 11426 11427 11528 11527 10316 10317 10418 10417 11427 11428 11529 11528 10317 10318 10419 10418 11428 11429 11530 11529 10318 10319 10420 10419 11429 11430 11531 11530 10319 10320 10421 10420 11430 11431 11532 11531 10320 10321 10422 10421 11431 11432 11533 11532 10321 10322 10423 10422 11432 11433 11534 11533 10322 10323 10424 10423 11433 11434 11535 11534 10323 10324 10425 10424 11434 11435 11536 11535 10324 10325 10426 10425 11435 11436 11537 11536 10325 10326 10427 10426 11436 11437 11538 11537 10326 10327 10428 10427 11437 11438 11539 11538 10327 10328 10429 10428 11438 11439 11540 11539 10328 10329 10430 10429 11439 11440 11541 11540 10329 10330 10431 10430 11440 11441 11542 11541 10330 10331 10432 10431 11441 11442 11543 11542 10331 10332 10433 10432 11442 11443 11544 11543 10332 10333 10434 10433 11443 11444 11545 11544 10333 10334 10435 10434 11444 11445 11546 11545 10334 10335 10436 10435 11445 11446 11547 11546 10335 10336 10437 10436 11446 11447 11548 11547 10336 10337 10438 10437 11447 11448 11549 11548 10337 10338 10439 10438 11448 11449 11550 11549 10338 10339 10440 10439 11449 11450 11551 11550 10339 10340 10441 10440 11450 11451 11552 11551 10340 10341 10442 10441 11451 11452 11553 11552 10341 10342 10443 10442 11452 11453 11554 11553 10342 10343 10444 10443 11453 11454 11555 11554 10343 10344 10445 10444 11454 11455 11556 11555 10344 10345 10446 10445 11455 11456 11557 11556 10345 10346 10447 10446 11456 11457 11558 11557 10346 10347 10448 10447 11457 11458 11559 11558 10347 10348 10449 10448 11458 11459 11560 11559 10348 10349 10450 10449 11459 11460 11561 11560 10349 10350 10451 10450 11460 11461 11562 11561 10350 10351 10452 10451 11461 11462 11563 11562 10351 10352 10453 10452 11462 11463 11564 11563 10352 10353 10454 10453 11463 11464 11565 11564 10353 10354 10455 10454 11464 11465 11566 11565 10354 10355 10456 10455 11465 11466 11567 11566 10355 10356 10457 10456 11466 11467 11568 11567 10356 10357 10458 10457 11467 11468 11569 11568 10357 10358 10459 10458 11468 11469 11570 11569 10358 10359 10460 10459 11469 11470 11571 11570 10359 10360 10461 10460 11470 11471 11572 11571 10360 10361 10462 10461 11471 11472 11573 11572 10361 10362 10463 10462 11472 11473 11574 11573 10362 10363 10464 10463 11473 11474 11575 11574 10363 10364 10465 10464 11474 11475 11576 11575 10364 10365 10466 10465 11475 11476 11577 11576 10365 10366 10467 10466 11476 11477 11578 11577 10366 10367 10468 10467 11477 11478 11579 11578 10367 10368 10469 10468 11478 11479 11580 11579 10368 10369 10470 10469 11479 11480 11581 11580 10369 10370 10471 10470 11480 11481 11582 11581 10370 10371 10472 10471 11481 11482 11583 11582 10371 10372 10473 10472 11482 11483 11584 11583 10372 10373 10474 10473 11483 11484 11585 11584 10373 10374 10475 10474 11484 11485 11586 11585 10374 10375 10476 10475 11485 11486 11587 11586 10375 10376 10477 10476 11486 11487 11588 11587 10376 10377 10478 10477 11487 11488 11589 11588 10377 10378 10479 10478 11488 11489 11590 11589 10378 10379 10480 10479 11489 11490 11591 11590 10379 10380 10481 10480 11490 11491 11592 11591 10380 10381 10482 10481 11491 11492 11593 11592 10381 10382 10483 10482 11492 11493 11594 11593 10382 10383 10484 10483 11493 11494 11595 11594 10383 10384 10485 10484 11494 11495 11596 11595 10384 10385 10486 10485 11495 11496 11597 11596 10385 10386 10487 10486 11496 11497 11598 11597 10386 10387 10488 10487 11497 11498 11599 11598 10387 10388 10489 10488 11498 11499 11600 11599 10388 10389 10490 10489 11499 11500 11601 11600 10389 10390 10491 10490 11500 11501 11602 11601 10390 10391 10492 10491 11501 11502 11603 11602 10391 10392 10493 10492 11502 11503 11604 11603 10392 10393 10494 10493 11503 11504 11605 11604 10393 10394 10495 10494 11504 11505 11606 11605 10394 10395 10496 10495 11505 11506 11607 11606 10395 10396 10497 10496 11506 11507 11608 11607 10396 10397 10498 10497 11507 11508 11609 11608 10397 10398 10499 10498 11508 11509 11610 11609 10398 10399 10500 10499 11509 11510 11611 11610 10399 10400 10501 10500 11510 11511 11612 11611 10400 10401 10502 10501 11511 11512 11613 11612 10401 10402 10503 10502 11512 11513 11614 11613 10403 10404 10505 10504 11514 11515 11616 11615 10404 10405 10506 10505 11515 11516 11617 11616 10405 10406 10507 10506 11516 11517 11618 11617 10406 10407 10508 10507 11517 11518 11619 11618 10407 10408 10509 10508 11518 11519 11620 11619 10408 10409 10510 10509 11519 11520 11621 11620 10409 10410 10511 10510 11520 11521 11622 11621 10410 10411 10512 10511 11521 11522 11623 11622 10411 10412 10513 10512 11522 11523 11624 11623 10412 10413 10514 10513 11523 11524 11625 11624 10413 10414 10515 10514 11524 11525 11626 11625 10414 10415 10516 10515 11525 11526 11627 11626 10415 10416 10517 10516 11526 11527 11628 11627 10416 10417 10518 10517 11527 11528 11629 11628 10417 10418 10519 10518 11528 11529 11630 11629 10418 10419 10520 10519 11529 11530 11631 11630 10419 10420 10521 10520 11530 11531 11632 11631 10420 10421 10522 10521 11531 11532 11633 11632 10421 10422 10523 10522 11532 11533 11634 11633 10422 10423 10524 10523 11533 11534 11635 11634 10423 10424 10525 10524 11534 11535 11636 11635 10424 10425 10526 10525 11535 11536 11637 11636 10425 10426 10527 10526 11536 11537 11638 11637 10426 10427 10528 10527 11537 11538 11639 11638 10427 10428 10529 10528 11538 11539 11640 11639 10428 10429 10530 10529 11539 11540 11641 11640 10429 10430 10531 10530 11540 11541 11642 11641 10430 10431 10532 10531 11541 11542 11643 11642 10431 10432 10533 10532 11542 11543 11644 11643 10432 10433 10534 10533 11543 11544 11645 11644 10433 10434 10535 10534 11544 11545 11646 11645 10434 10435 10536 10535 11545 11546 11647 11646 10435 10436 10537 10536 11546 11547 11648 11647 10436 10437 10538 10537 11547 11548 11649 11648 10437 10438 10539 10538 11548 11549 11650 11649 10438 10439 10540 10539 11549 11550 11651 11650 10439 10440 10541 10540 11550 11551 11652 11651 10440 10441 10542 10541 11551 11552 11653 11652 10441 10442 10543 10542 11552 11553 11654 11653 10442 10443 10544 10543 11553 11554 11655 11654 10443 10444 10545 10544 11554 11555 11656 11655 10444 10445 10546 10545 11555 11556 11657 11656 10445 10446 10547 10546 11556 11557 11658 11657 10446 10447 10548 10547 11557 11558 11659 11658 10447 10448 10549 10548 11558 11559 11660 11659 10448 10449 10550 10549 11559 11560 11661 11660 10449 10450 10551 10550 11560 11561 11662 11661 10450 10451 10552 10551 11561 11562 11663 11662 10451 10452 10553 10552 11562 11563 11664 11663 10452 10453 10554 10553 11563 11564 11665 11664 10453 10454 10555 10554 11564 11565 11666 11665 10454 10455 10556 10555 11565 11566 11667 11666 10455 10456 10557 10556 11566 11567 11668 11667 10456 10457 10558 10557 11567 11568 11669 11668 10457 10458 10559 10558 11568 11569 11670 11669 10458 10459 10560 10559 11569 11570 11671 11670 10459 10460 10561 10560 11570 11571 11672 11671 10460 10461 10562 10561 11571 11572 11673 11672 10461 10462 10563 10562 11572 11573 11674 11673 10462 10463 10564 10563 11573 11574 11675 11674 10463 10464 10565 10564 11574 11575 11676 11675 10464 10465 10566 10565 11575 11576 11677 11676 10465 10466 10567 10566 11576 11577 11678 11677 10466 10467 10568 10567 11577 11578 11679 11678 10467 10468 10569 10568 11578 11579 11680 11679 10468 10469 10570 10569 11579 11580 11681 11680 10469 10470 10571 10570 11580 11581 11682 11681 10470 10471 10572 10571 11581 11582 11683 11682 10471 10472 10573 10572 11582 11583 11684 11683 10472 10473 10574 10573 11583 11584 11685 11684 10473 10474 10575 10574 11584 11585 11686 11685 10474 10475 10576 10575 11585 11586 11687 11686 10475 10476 10577 10576 11586 11587 11688 11687 10476 10477 10578 10577 11587 11588 11689 11688 10477 10478 10579 10578 11588 11589 11690 11689 10478 10479 10580 10579 11589 11590 11691 11690 10479 10480 10581 10580 11590 11591 11692 11691 10480 10481 10582 10581 11591 11592 11693 11692 10481 10482 10583 10582 11592 11593 11694 11693 10482 10483 10584 10583 11593 11594 11695 11694 10483 10484 10585 10584 11594 11595 11696 11695 10484 10485 10586 10585 11595 11596 11697 11696 10485 10486 10587 10586 11596 11597 11698 11697 10486 10487 10588 10587 11597 11598 11699 11698 10487 10488 10589 10588 11598 11599 11700 11699 10488 10489 10590 10589 11599 11600 11701 11700 10489 10490 10591 10590 11600 11601 11702 11701 10490 10491 10592 10591 11601 11602 11703 11702 10491 10492 10593 10592 11602 11603 11704 11703 10492 10493 10594 10593 11603 11604 11705 11704 10493 10494 10595 10594 11604 11605 11706 11705 10494 10495 10596 10595 11605 11606 11707 11706 10495 10496 10597 10596 11606 11607 11708 11707 10496 10497 10598 10597 11607 11608 11709 11708 10497 10498 10599 10598 11608 11609 11710 11709 10498 10499 10600 10599 11609 11610 11711 11710 10499 10500 10601 10600 11610 11611 11712 11711 10500 10501 10602 10601 11611 11612 11713 11712 10501 10502 10603 10602 11612 11613 11714 11713 10502 10503 10604 10603 11613 11614 11715 11714 10504 10505 10606 10605 11615 11616 11717 11716 10505 10506 10607 10606 11616 11617 11718 11717 10506 10507 10608 10607 11617 11618 11719 11718 10507 10508 10609 10608 11618 11619 11720 11719 10508 10509 10610 10609 11619 11620 11721 11720 10509 10510 10611 10610 11620 11621 11722 11721 10510 10511 10612 10611 11621 11622 11723 11722 10511 10512 10613 10612 11622 11623 11724 11723 10512 10513 10614 10613 11623 11624 11725 11724 10513 10514 10615 10614 11624 11625 11726 11725 10514 10515 10616 10615 11625 11626 11727 11726 10515 10516 10617 10616 11626 11627 11728 11727 10516 10517 10618 10617 11627 11628 11729 11728 10517 10518 10619 10618 11628 11629 11730 11729 10518 10519 10620 10619 11629 11630 11731 11730 10519 10520 10621 10620 11630 11631 11732 11731 10520 10521 10622 10621 11631 11632 11733 11732 10521 10522 10623 10622 11632 11633 11734 11733 10522 10523 10624 10623 11633 11634 11735 11734 10523 10524 10625 10624 11634 11635 11736 11735 10524 10525 10626 10625 11635 11636 11737 11736 10525 10526 10627 10626 11636 11637 11738 11737 10526 10527 10628 10627 11637 11638 11739 11738 10527 10528 10629 10628 11638 11639 11740 11739 10528 10529 10630 10629 11639 11640 11741 11740 10529 10530 10631 10630 11640 11641 11742 11741 10530 10531 10632 10631 11641 11642 11743 11742 10531 10532 10633 10632 11642 11643 11744 11743 10532 10533 10634 10633 11643 11644 11745 11744 10533 10534 10635 10634 11644 11645 11746 11745 10534 10535 10636 10635 11645 11646 11747 11746 10535 10536 10637 10636 11646 11647 11748 11747 10536 10537 10638 10637 11647 11648 11749 11748 10537 10538 10639 10638 11648 11649 11750 11749 10538 10539 10640 10639 11649 11650 11751 11750 10539 10540 10641 10640 11650 11651 11752 11751 10540 10541 10642 10641 11651 11652 11753 11752 10541 10542 10643 10642 11652 11653 11754 11753 10542 10543 10644 10643 11653 11654 11755 11754 10543 10544 10645 10644 11654 11655 11756 11755 10544 10545 10646 10645 11655 11656 11757 11756 10545 10546 10647 10646 11656 11657 11758 11757 10546 10547 10648 10647 11657 11658 11759 11758 10547 10548 10649 10648 11658 11659 11760 11759 10548 10549 10650 10649 11659 11660 11761 11760 10549 10550 10651 10650 11660 11661 11762 11761 10550 10551 10652 10651 11661 11662 11763 11762 10551 10552 10653 10652 11662 11663 11764 11763 10552 10553 10654 10653 11663 11664 11765 11764 10553 10554 10655 10654 11664 11665 11766 11765 10554 10555 10656 10655 11665 11666 11767 11766 10555 10556 10657 10656 11666 11667 11768 11767 10556 10557 10658 10657 11667 11668 11769 11768 10557 10558 10659 10658 11668 11669 11770 11769 10558 10559 10660 10659 11669 11670 11771 11770 10559 10560 10661 10660 11670 11671 11772 11771 10560 10561 10662 10661 11671 11672 11773 11772 10561 10562 10663 10662 11672 11673 11774 11773 10562 10563 10664 10663 11673 11674 11775 11774 10563 10564 10665 10664 11674 11675 11776 11775 10564 10565 10666 10665 11675 11676 11777 11776 10565 10566 10667 10666 11676 11677 11778 11777 10566 10567 10668 10667 11677 11678 11779 11778 10567 10568 10669 10668 11678 11679 11780 11779 10568 10569 10670 10669 11679 11680 11781 11780 10569 10570 10671 10670 11680 11681 11782 11781 10570 10571 10672 10671 11681 11682 11783 11782 10571 10572 10673 10672 11682 11683 11784 11783 10572 10573 10674 10673 11683 11684 11785 11784 10573 10574 10675 10674 11684 11685 11786 11785 10574 10575 10676 10675 11685 11686 11787 11786 10575 10576 10677 10676 11686 11687 11788 11787 10576 10577 10678 10677 11687 11688 11789 11788 10577 10578 10679 10678 11688 11689 11790 11789 10578 10579 10680 10679 11689 11690 11791 11790 10579 10580 10681 10680 11690 11691 11792 11791 10580 10581 10682 10681 11691 11692 11793 11792 10581 10582 10683 10682 11692 11693 11794 11793 10582 10583 10684 10683 11693 11694 11795 11794 10583 10584 10685 10684 11694 11695 11796 11795 10584 10585 10686 10685 11695 11696 11797 11796 10585 10586 10687 10686 11696 11697 11798 11797 10586 10587 10688 10687 11697 11698 11799 11798 10587 10588 10689 10688 11698 11699 11800 11799 10588 10589 10690 10689 11699 11700 11801 11800 10589 10590 10691 10690 11700 11701 11802 11801 10590 10591 10692 10691 11701 11702 11803 11802 10591 10592 10693 10692 11702 11703 11804 11803 10592 10593 10694 10693 11703 11704 11805 11804 10593 10594 10695 10694 11704 11705 11806 11805 10594 10595 10696 10695 11705 11706 11807 11806 10595 10596 10697 10696 11706 11707 11808 11807 10596 10597 10698 10697 11707 11708 11809 11808 10597 10598 10699 10698 11708 11709 11810 11809 10598 10599 10700 10699 11709 11710 11811 11810 10599 10600 10701 10700 11710 11711 11812 11811 10600 10601 10702 10701 11711 11712 11813 11812 10601 10602 10703 10702 11712 11713 11814 11813 10602 10603 10704 10703 11713 11714 11815 11814 10603 10604 10705 10704 11714 11715 11816 11815 10605 10606 10707 10706 11716 11717 11818 11817 10606 10607 10708 10707 11717 11718 11819 11818 10607 10608 10709 10708 11718 11719 11820 11819 10608 10609 10710 10709 11719 11720 11821 11820 10609 10610 10711 10710 11720 11721 11822 11821 10610 10611 10712 10711 11721 11722 11823 11822 10611 10612 10713 10712 11722 11723 11824 11823 10612 10613 10714 10713 11723 11724 11825 11824 10613 10614 10715 10714 11724 11725 11826 11825 10614 10615 10716 10715 11725 11726 11827 11826 10615 10616 10717 10716 11726 11727 11828 11827 10616 10617 10718 10717 11727 11728 11829 11828 10617 10618 10719 10718 11728 11729 11830 11829 10618 10619 10720 10719 11729 11730 11831 11830 10619 10620 10721 10720 11730 11731 11832 11831 10620 10621 10722 10721 11731 11732 11833 11832 10621 10622 10723 10722 11732 11733 11834 11833 10622 10623 10724 10723 11733 11734 11835 11834 10623 10624 10725 10724 11734 11735 11836 11835 10624 10625 10726 10725 11735 11736 11837 11836 10625 10626 10727 10726 11736 11737 11838 11837 10626 10627 10728 10727 11737 11738 11839 11838 10627 10628 10729 10728 11738 11739 11840 11839 10628 10629 10730 10729 11739 11740 11841 11840 10629 10630 10731 10730 11740 11741 11842 11841 10630 10631 10732 10731 11741 11742 11843 11842 10631 10632 10733 10732 11742 11743 11844 11843 10632 10633 10734 10733 11743 11744 11845 11844 10633 10634 10735 10734 11744 11745 11846 11845 10634 10635 10736 10735 11745 11746 11847 11846 10635 10636 10737 10736 11746 11747 11848 11847 10636 10637 10738 10737 11747 11748 11849 11848 10637 10638 10739 10738 11748 11749 11850 11849 10638 10639 10740 10739 11749 11750 11851 11850 10639 10640 10741 10740 11750 11751 11852 11851 10640 10641 10742 10741 11751 11752 11853 11852 10641 10642 10743 10742 11752 11753 11854 11853 10642 10643 10744 10743 11753 11754 11855 11854 10643 10644 10745 10744 11754 11755 11856 11855 10644 10645 10746 10745 11755 11756 11857 11856 10645 10646 10747 10746 11756 11757 11858 11857 10646 10647 10748 10747 11757 11758 11859 11858 10647 10648 10749 10748 11758 11759 11860 11859 10648 10649 10750 10749 11759 11760 11861 11860 10649 10650 10751 10750 11760 11761 11862 11861 10650 10651 10752 10751 11761 11762 11863 11862 10651 10652 10753 10752 11762 11763 11864 11863 10652 10653 10754 10753 11763 11764 11865 11864 10653 10654 10755 10754 11764 11765 11866 11865 10654 10655 10756 10755 11765 11766 11867 11866 10655 10656 10757 10756 11766 11767 11868 11867 10656 10657 10758 10757 11767 11768 11869 11868 10657 10658 10759 10758 11768 11769 11870 11869 10658 10659 10760 10759 11769 11770 11871 11870 10659 10660 10761 10760 11770 11771 11872 11871 10660 10661 10762 10761 11771 11772 11873 11872 10661 10662 10763 10762 11772 11773 11874 11873 10662 10663 10764 10763 11773 11774 11875 11874 10663 10664 10765 10764 11774 11775 11876 11875 10664 10665 10766 10765 11775 11776 11877 11876 10665 10666 10767 10766 11776 11777 11878 11877 10666 10667 10768 10767 11777 11778 11879 11878 10667 10668 10769 10768 11778 11779 11880 11879 10668 10669 10770 10769 11779 11780 11881 11880 10669 10670 10771 10770 11780 11781 11882 11881 10670 10671 10772 10771 11781 11782 11883 11882 10671 10672 10773 10772 11782 11783 11884 11883 10672 10673 10774 10773 11783 11784 11885 11884 10673 10674 10775 10774 11784 11785 11886 11885 10674 10675 10776 10775 11785 11786 11887 11886 10675 10676 10777 10776 11786 11787 11888 11887 10676 10677 10778 10777 11787 11788 11889 11888 10677 10678 10779 10778 11788 11789 11890 11889 10678 10679 10780 10779 11789 11790 11891 11890 10679 10680 10781 10780 11790 11791 11892 11891 10680 10681 10782 10781 11791 11792 11893 11892 10681 10682 10783 10782 11792 11793 11894 11893 10682 10683 10784 10783 11793 11794 11895 11894 10683 10684 10785 10784 11794 11795 11896 11895 10684 10685 10786 10785 11795 11796 11897 11896 10685 10686 10787 10786 11796 11797 11898 11897 10686 10687 10788 10787 11797 11798 11899 11898 10687 10688 10789 10788 11798 11799 11900 11899 10688 10689 10790 10789 11799 11800 11901 11900 10689 10690 10791 10790 11800 11801 11902 11901 10690 10691 10792 10791 11801 11802 11903 11902 10691 10692 10793 10792 11802 11803 11904 11903 10692 10693 10794 10793 11803 11804 11905 11904 10693 10694 10795 10794 11804 11805 11906 11905 10694 10695 10796 10795 11805 11806 11907 11906 10695 10696 10797 10796 11806 11807 11908 11907 10696 10697 10798 10797 11807 11808 11909 11908 10697 10698 10799 10798 11808 11809 11910 11909 10698 10699 10800 10799 11809 11810 11911 11910 10699 10700 10801 10800 11810 11811 11912 11911 10700 10701 10802 10801 11811 11812 11913 11912 10701 10702 10803 10802 11812 11813 11914 11913 10702 10703 10804 10803 11813 11814 11915 11914 10703 10704 10805 10804 11814 11815 11916 11915 10704 10705 10806 10805 11815 11816 11917 11916 10706 10707 10808 10807 11817 11818 11919 11918 10707 10708 10809 10808 11818 11819 11920 11919 10708 10709 10810 10809 11819 11820 11921 11920 10709 10710 10811 10810 11820 11821 11922 11921 10710 10711 10812 10811 11821 11822 11923 11922 10711 10712 10813 10812 11822 11823 11924 11923 10712 10713 10814 10813 11823 11824 11925 11924 10713 10714 10815 10814 11824 11825 11926 11925 10714 10715 10816 10815 11825 11826 11927 11926 10715 10716 10817 10816 11826 11827 11928 11927 10716 10717 10818 10817 11827 11828 11929 11928 10717 10718 10819 10818 11828 11829 11930 11929 10718 10719 10820 10819 11829 11830 11931 11930 10719 10720 10821 10820 11830 11831 11932 11931 10720 10721 10822 10821 11831 11832 11933 11932 10721 10722 10823 10822 11832 11833 11934 11933 10722 10723 10824 10823 11833 11834 11935 11934 10723 10724 10825 10824 11834 11835 11936 11935 10724 10725 10826 10825 11835 11836 11937 11936 10725 10726 10827 10826 11836 11837 11938 11937 10726 10727 10828 10827 11837 11838 11939 11938 10727 10728 10829 10828 11838 11839 11940 11939 10728 10729 10830 10829 11839 11840 11941 11940 10729 10730 10831 10830 11840 11841 11942 11941 10730 10731 10832 10831 11841 11842 11943 11942 10731 10732 10833 10832 11842 11843 11944 11943 10732 10733 10834 10833 11843 11844 11945 11944 10733 10734 10835 10834 11844 11845 11946 11945 10734 10735 10836 10835 11845 11846 11947 11946 10735 10736 10837 10836 11846 11847 11948 11947 10736 10737 10838 10837 11847 11848 11949 11948 10737 10738 10839 10838 11848 11849 11950 11949 10738 10739 10840 10839 11849 11850 11951 11950 10739 10740 10841 10840 11850 11851 11952 11951 10740 10741 10842 10841 11851 11852 11953 11952 10741 10742 10843 10842 11852 11853 11954 11953 10742 10743 10844 10843 11853 11854 11955 11954 10743 10744 10845 10844 11854 11855 11956 11955 10744 10745 10846 10845 11855 11856 11957 11956 10745 10746 10847 10846 11856 11857 11958 11957 10746 10747 10848 10847 11857 11858 11959 11958 10747 10748 10849 10848 11858 11859 11960 11959 10748 10749 10850 10849 11859 11860 11961 11960 10749 10750 10851 10850 11860 11861 11962 11961 10750 10751 10852 10851 11861 11862 11963 11962 10751 10752 10853 10852 11862 11863 11964 11963 10752 10753 10854 10853 11863 11864 11965 11964 10753 10754 10855 10854 11864 11865 11966 11965 10754 10755 10856 10855 11865 11866 11967 11966 10755 10756 10857 10856 11866 11867 11968 11967 10756 10757 10858 10857 11867 11868 11969 11968 10757 10758 10859 10858 11868 11869 11970 11969 10758 10759 10860 10859 11869 11870 11971 11970 10759 10760 10861 10860 11870 11871 11972 11971 10760 10761 10862 10861 11871 11872 11973 11972 10761 10762 10863 10862 11872 11873 11974 11973 10762 10763 10864 10863 11873 11874 11975 11974 10763 10764 10865 10864 11874 11875 11976 11975 10764 10765 10866 10865 11875 11876 11977 11976 10765 10766 10867 10866 11876 11877 11978 11977 10766 10767 10868 10867 11877 11878 11979 11978 10767 10768 10869 10868 11878 11879 11980 11979 10768 10769 10870 10869 11879 11880 11981 11980 10769 10770 10871 10870 11880 11881 11982 11981 10770 10771 10872 10871 11881 11882 11983 11982 10771 10772 10873 10872 11882 11883 11984 11983 10772 10773 10874 10873 11883 11884 11985 11984 10773 10774 10875 10874 11884 11885 11986 11985 10774 10775 10876 10875 11885 11886 11987 11986 10775 10776 10877 10876 11886 11887 11988 11987 10776 10777 10878 10877 11887 11888 11989 11988 10777 10778 10879 10878 11888 11889 11990 11989 10778 10779 10880 10879 11889 11890 11991 11990 10779 10780 10881 10880 11890 11891 11992 11991 10780 10781 10882 10881 11891 11892 11993 11992 10781 10782 10883 10882 11892 11893 11994 11993 10782 10783 10884 10883 11893 11894 11995 11994 10783 10784 10885 10884 11894 11895 11996 11995 10784 10785 10886 10885 11895 11896 11997 11996 10785 10786 10887 10886 11896 11897 11998 11997 10786 10787 10888 10887 11897 11898 11999 11998 10787 10788 10889 10888 11898 11899 12000 11999 10788 10789 10890 10889 11899 11900 12001 12000 10789 10790 10891 10890 11900 11901 12002 12001 10790 10791 10892 10891 11901 11902 12003 12002 10791 10792 10893 10892 11902 11903 12004 12003 10792 10793 10894 10893 11903 11904 12005 12004 10793 10794 10895 10894 11904 11905 12006 12005 10794 10795 10896 10895 11905 11906 12007 12006 10795 10796 10897 10896 11906 11907 12008 12007 10796 10797 10898 10897 11907 11908 12009 12008 10797 10798 10899 10898 11908 11909 12010 12009 10798 10799 10900 10899 11909 11910 12011 12010 10799 10800 10901 10900 11910 11911 12012 12011 10800 10801 10902 10901 11911 11912 12013 12012 10801 10802 10903 10902 11912 11913 12014 12013 10802 10803 10904 10903 11913 11914 12015 12014 10803 10804 10905 10904 11914 11915 12016 12015 10804 10805 10906 10905 11915 11916 12017 12016 10805 10806 10907 10906 11916 11917 12018 12017 10807 10808 10909 10908 11918 11919 12020 12019 10808 10809 10910 10909 11919 11920 12021 12020 10809 10810 10911 10910 11920 11921 12022 12021 10810 10811 10912 10911 11921 11922 12023 12022 10811 10812 10913 10912 11922 11923 12024 12023 10812 10813 10914 10913 11923 11924 12025 12024 10813 10814 10915 10914 11924 11925 12026 12025 10814 10815 10916 10915 11925 11926 12027 12026 10815 10816 10917 10916 11926 11927 12028 12027 10816 10817 10918 10917 11927 11928 12029 12028 10817 10818 10919 10918 11928 11929 12030 12029 10818 10819 10920 10919 11929 11930 12031 12030 10819 10820 10921 10920 11930 11931 12032 12031 10820 10821 10922 10921 11931 11932 12033 12032 10821 10822 10923 10922 11932 11933 12034 12033 10822 10823 10924 10923 11933 11934 12035 12034 10823 10824 10925 10924 11934 11935 12036 12035 10824 10825 10926 10925 11935 11936 12037 12036 10825 10826 10927 10926 11936 11937 12038 12037 10826 10827 10928 10927 11937 11938 12039 12038 10827 10828 10929 10928 11938 11939 12040 12039 10828 10829 10930 10929 11939 11940 12041 12040 10829 10830 10931 10930 11940 11941 12042 12041 10830 10831 10932 10931 11941 11942 12043 12042 10831 10832 10933 10932 11942 11943 12044 12043 10832 10833 10934 10933 11943 11944 12045 12044 10833 10834 10935 10934 11944 11945 12046 12045 10834 10835 10936 10935 11945 11946 12047 12046 10835 10836 10937 10936 11946 11947 12048 12047 10836 10837 10938 10937 11947 11948 12049 12048 10837 10838 10939 10938 11948 11949 12050 12049 10838 10839 10940 10939 11949 11950 12051 12050 10839 10840 10941 10940 11950 11951 12052 12051 10840 10841 10942 10941 11951 11952 12053 12052 10841 10842 10943 10942 11952 11953 12054 12053 10842 10843 10944 10943 11953 11954 12055 12054 10843 10844 10945 10944 11954 11955 12056 12055 10844 10845 10946 10945 11955 11956 12057 12056 10845 10846 10947 10946 11956 11957 12058 12057 10846 10847 10948 10947 11957 11958 12059 12058 10847 10848 10949 10948 11958 11959 12060 12059 10848 10849 10950 10949 11959 11960 12061 12060 10849 10850 10951 10950 11960 11961 12062 12061 10850 10851 10952 10951 11961 11962 12063 12062 10851 10852 10953 10952 11962 11963 12064 12063 10852 10853 10954 10953 11963 11964 12065 12064 10853 10854 10955 10954 11964 11965 12066 12065 10854 10855 10956 10955 11965 11966 12067 12066 10855 10856 10957 10956 11966 11967 12068 12067 10856 10857 10958 10957 11967 11968 12069 12068 10857 10858 10959 10958 11968 11969 12070 12069 10858 10859 10960 10959 11969 11970 12071 12070 10859 10860 10961 10960 11970 11971 12072 12071 10860 10861 10962 10961 11971 11972 12073 12072 10861 10862 10963 10962 11972 11973 12074 12073 10862 10863 10964 10963 11973 11974 12075 12074 10863 10864 10965 10964 11974 11975 12076 12075 10864 10865 10966 10965 11975 11976 12077 12076 10865 10866 10967 10966 11976 11977 12078 12077 10866 10867 10968 10967 11977 11978 12079 12078 10867 10868 10969 10968 11978 11979 12080 12079 10868 10869 10970 10969 11979 11980 12081 12080 10869 10870 10971 10970 11980 11981 12082 12081 10870 10871 10972 10971 11981 11982 12083 12082 10871 10872 10973 10972 11982 11983 12084 12083 10872 10873 10974 10973 11983 11984 12085 12084 10873 10874 10975 10974 11984 11985 12086 12085 10874 10875 10976 10975 11985 11986 12087 12086 10875 10876 10977 10976 11986 11987 12088 12087 10876 10877 10978 10977 11987 11988 12089 12088 10877 10878 10979 10978 11988 11989 12090 12089 10878 10879 10980 10979 11989 11990 12091 12090 10879 10880 10981 10980 11990 11991 12092 12091 10880 10881 10982 10981 11991 11992 12093 12092 10881 10882 10983 10982 11992 11993 12094 12093 10882 10883 10984 10983 11993 11994 12095 12094 10883 10884 10985 10984 11994 11995 12096 12095 10884 10885 10986 10985 11995 11996 12097 12096 10885 10886 10987 10986 11996 11997 12098 12097 10886 10887 10988 10987 11997 11998 12099 12098 10887 10888 10989 10988 11998 11999 12100 12099 10888 10889 10990 10989 11999 12000 12101 12100 10889 10890 10991 10990 12000 12001 12102 12101 10890 10891 10992 10991 12001 12002 12103 12102 10891 10892 10993 10992 12002 12003 12104 12103 10892 10893 10994 10993 12003 12004 12105 12104 10893 10894 10995 10994 12004 12005 12106 12105 10894 10895 10996 10995 12005 12006 12107 12106 10895 10896 10997 10996 12006 12007 12108 12107 10896 10897 10998 10997 12007 12008 12109 12108 10897 10898 10999 10998 12008 12009 12110 12109 10898 10899 11000 10999 12009 12010 12111 12110 10899 10900 11001 11000 12010 12011 12112 12111 10900 10901 11002 11001 12011 12012 12113 12112 10901 10902 11003 11002 12012 12013 12114 12113 10902 10903 11004 11003 12013 12014 12115 12114 10903 10904 11005 11004 12014 12015 12116 12115 10904 10905 11006 11005 12015 12016 12117 12116 10905 10906 11007 11006 12016 12017 12118 12117 10906 10907 11008 11007 12017 12018 12119 12118 10908 10909 11010 11009 12019 12020 12121 12120 10909 10910 11011 11010 12020 12021 12122 12121 10910 10911 11012 11011 12021 12022 12123 12122 10911 10912 11013 11012 12022 12023 12124 12123 10912 10913 11014 11013 12023 12024 12125 12124 10913 10914 11015 11014 12024 12025 12126 12125 10914 10915 11016 11015 12025 12026 12127 12126 10915 10916 11017 11016 12026 12027 12128 12127 10916 10917 11018 11017 12027 12028 12129 12128 10917 10918 11019 11018 12028 12029 12130 12129 10918 10919 11020 11019 12029 12030 12131 12130 10919 10920 11021 11020 12030 12031 12132 12131 10920 10921 11022 11021 12031 12032 12133 12132 10921 10922 11023 11022 12032 12033 12134 12133 10922 10923 11024 11023 12033 12034 12135 12134 10923 10924 11025 11024 12034 12035 12136 12135 10924 10925 11026 11025 12035 12036 12137 12136 10925 10926 11027 11026 12036 12037 12138 12137 10926 10927 11028 11027 12037 12038 12139 12138 10927 10928 11029 11028 12038 12039 12140 12139 10928 10929 11030 11029 12039 12040 12141 12140 10929 10930 11031 11030 12040 12041 12142 12141 10930 10931 11032 11031 12041 12042 12143 12142 10931 10932 11033 11032 12042 12043 12144 12143 10932 10933 11034 11033 12043 12044 12145 12144 10933 10934 11035 11034 12044 12045 12146 12145 10934 10935 11036 11035 12045 12046 12147 12146 10935 10936 11037 11036 12046 12047 12148 12147 10936 10937 11038 11037 12047 12048 12149 12148 10937 10938 11039 11038 12048 12049 12150 12149 10938 10939 11040 11039 12049 12050 12151 12150 10939 10940 11041 11040 12050 12051 12152 12151 10940 10941 11042 11041 12051 12052 12153 12152 10941 10942 11043 11042 12052 12053 12154 12153 10942 10943 11044 11043 12053 12054 12155 12154 10943 10944 11045 11044 12054 12055 12156 12155 10944 10945 11046 11045 12055 12056 12157 12156 10945 10946 11047 11046 12056 12057 12158 12157 10946 10947 11048 11047 12057 12058 12159 12158 10947 10948 11049 11048 12058 12059 12160 12159 10948 10949 11050 11049 12059 12060 12161 12160 10949 10950 11051 11050 12060 12061 12162 12161 10950 10951 11052 11051 12061 12062 12163 12162 10951 10952 11053 11052 12062 12063 12164 12163 10952 10953 11054 11053 12063 12064 12165 12164 10953 10954 11055 11054 12064 12065 12166 12165 10954 10955 11056 11055 12065 12066 12167 12166 10955 10956 11057 11056 12066 12067 12168 12167 10956 10957 11058 11057 12067 12068 12169 12168 10957 10958 11059 11058 12068 12069 12170 12169 10958 10959 11060 11059 12069 12070 12171 12170 10959 10960 11061 11060 12070 12071 12172 12171 10960 10961 11062 11061 12071 12072 12173 12172 10961 10962 11063 11062 12072 12073 12174 12173 10962 10963 11064 11063 12073 12074 12175 12174 10963 10964 11065 11064 12074 12075 12176 12175 10964 10965 11066 11065 12075 12076 12177 12176 10965 10966 11067 11066 12076 12077 12178 12177 10966 10967 11068 11067 12077 12078 12179 12178 10967 10968 11069 11068 12078 12079 12180 12179 10968 10969 11070 11069 12079 12080 12181 12180 10969 10970 11071 11070 12080 12081 12182 12181 10970 10971 11072 11071 12081 12082 12183 12182 10971 10972 11073 11072 12082 12083 12184 12183 10972 10973 11074 11073 12083 12084 12185 12184 10973 10974 11075 11074 12084 12085 12186 12185 10974 10975 11076 11075 12085 12086 12187 12186 10975 10976 11077 11076 12086 12087 12188 12187 10976 10977 11078 11077 12087 12088 12189 12188 10977 10978 11079 11078 12088 12089 12190 12189 10978 10979 11080 11079 12089 12090 12191 12190 10979 10980 11081 11080 12090 12091 12192 12191 10980 10981 11082 11081 12091 12092 12193 12192 10981 10982 11083 11082 12092 12093 12194 12193 10982 10983 11084 11083 12093 12094 12195 12194 10983 10984 11085 11084 12094 12095 12196 12195 10984 10985 11086 11085 12095 12096 12197 12196 10985 10986 11087 11086 12096 12097 12198 12197 10986 10987 11088 11087 12097 12098 12199 12198 10987 10988 11089 11088 12098 12099 12200 12199 10988 10989 11090 11089 12099 12100 12201 12200 10989 10990 11091 11090 12100 12101 12202 12201 10990 10991 11092 11091 12101 12102 12203 12202 10991 10992 11093 11092 12102 12103 12204 12203 10992 10993 11094 11093 12103 12104 12205 12204 10993 10994 11095 11094 12104 12105 12206 12205 10994 10995 11096 11095 12105 12106 12207 12206 10995 10996 11097 11096 12106 12107 12208 12207 10996 10997 11098 11097 12107 12108 12209 12208 10997 10998 11099 11098 12108 12109 12210 12209 10998 10999 11100 11099 12109 12110 12211 12210 10999 11000 11101 11100 12110 12111 12212 12211 11000 11001 11102 11101 12111 12112 12213 12212 11001 11002 11103 11102 12112 12113 12214 12213 11002 11003 11104 11103 12113 12114 12215 12214 11003 11004 11105 11104 12114 12115 12216 12215 11004 11005 11106 11105 12115 12116 12217 12216 11005 11006 11107 11106 12116 12117 12218 12217 11006 11007 11108 11107 12117 12118 12219 12218 11007 11008 11109 11108 12118 12119 12220 12219 </DataArray>
<DataArray type="Int32"                                    Name="offsets"                                                      NumberOfComponents=" 1" format="ascii">
8 16 24 32 40 48 56 64 72 80 88 96 104 112 120 128 136 144 152 160 168 176 184 192 200 208 216 224 232 240 248 256 264 272 280 288 296 304 312 320 328 336 344 352 360 368 376 384 392 400 408 416 424 432 440 448 456 464 472 480 488 496 504 512 520 528 536 544 552 560 568 576 584 592 600 608 616 624 632 640 648 656 664 672 680 688 696 704 712 720 728 736 744 752 760 768 776 784 792 800 808 816 824 832 840 848 856 864 872 880 888 896 904 912 920 928 936 944 952 960 968 976 984 992 1000 1008 1016 1024 1032 1040 1048 1056 1064 1072 1080 1088 1096 1104 1112 1120 1128 1136 1144 1152 1160 1168 1176 1184 1192 1200 1208 1216 1224 1232 1240 1248 1256 1264 1272 1280 1288 1296 1304 1312 1320 1328 1336 1344 1352 1360 1368 1376 1384 1392 1400 1408 1416 1424 1432 1440 1448 1456 1464 1472 1480 1488 1496 1504 1512 1520 1528 1536 1544 1552 1560 1568 1576 1584 1592 1600 1608 1616 1624 1632 1640 1648 1656 1664 1672 1680 1688 1696 1704 1712 1720 1728 1736 1744 1752 1760 1768 1776 1784 1792 1800 1808 1816 1824 1832 1840 1848 1856 1864 1872 1880 1888 1896 1904 1912 1920 1928 1936 1944 1952 1960 1968 1976 1984 1992 2000 2008 2016 2024 2032 2040 2048 2056 2064 2072 2080 2088 2096 2104 2112 2120 2128 2136 2144 2152 2160 2168 2176 2184 2192 2200 2208 2216 2224 2232 2240 2248 2256 2264 2272 2280 2288 2296 2304 2312 2320 2328 2336 2344 2352 2360 2368 2376 2384 2392 2400 2408 2416 2424 2432 2440 2448 2456 2464 2472 2480 2488 2496 2504 2512 2520 2528 2536 2544 2552 2560 2568 2576 2584 2592 2600 2608 2616 2624 2632 2640 2648 2656 2664 2672 2680 2688 2696 2704 2712 2720 2728 2736 2744 2752 2760 2768 2776 2784 2792 2800 2808 2816 2824 2832 2840 2848 2856 2864 2872 2880 2888 2896 2904 2912 2920 2928 2936 2944 2952 2960 2968 2976 2984 2992 3000 3008 3016 3024 3032 3040 3048 3056 3064 3072 3080 3088 3096 3104 3112 3120 3128 3136 3144 3152 3160 3168 3176 3184 3192 3200 3208 3216 3224 3232 3240 3248 3256 3264 3272 3280 3288 3296 3304 3312 3320 3328 3336 3344 3352 3360 3368 3376 3384 3392 3400 3408 3416 3424 3432 3440 3448 3456 3464 3472 3480 3488 3496 3504 3512 3520 3528 3536 3544 3552 3560 3568 3576 3584 3592 3600 3608 3616 3624 3632 3640 3648 3656 3664 3672 3680 3688 3696 3704 3712 3720 3728 3736 3744 3752 3760 3768 3776 3784 3792 3800 3808 3816 3824 3832 3840 3848 3856 3864 3872 3880 3888 3896 3904 3912 3920 3928 3936 3944 3952 3960 3968 3976 3984 3992 4000 4008 4016 4024 4032 4040 4048 4056 4064 4072 4080 4088 4096 4104 4112 4120 4128 4136 4144 4152 4160 4168 4176 4184 4192 4200 4208 4216 4224 4232 4240 4248 4256 4264 4272 4280 4288 4296 4304 4312 4320 4328 4336 4344 4352 4360 4368 4376 4384 4392 4400 4408 4416 4424 4432 4440 4448 4456 4464 4472 4480 4488 4496 4504 4512 4520 4528 4536 4544 4552 4560 4568 4576 4584 4592 4600 4608 4616 4624 4632 4640 4648 4656 4664 4672 4680 4688 4696 4704 4712 4720 4728 4736 4744 4752 4760 4768 4776 4784 4792 4800 4808 4816 4824 4832 4840 4848 4856 4864 4872 4880 4888 4896 4904 4912 4920 4928 4936 4944 4952 4960 4968 4976 4984 4992 5000 5008 5016 5024 5032 5040 5048 5056 5064 5072 5080 5088 5096 5104 5112 5120 5128 5136 5144 5152 5160 5168 5176 5184 5192 5200 5208 5216 5224 5232 5240 5248 5256 5264 5272 5280 5288 5296 5304 5312 5320 5328 5336 5344 5352 5360 5368 5376 5384 5392 5400 5408 5416 5424 5432 5440 5448 5456 5464 5472 5480 5488 5496 5504 5512 5520 5528 5536 5544 5552 5560 5568 5576 5584 5592 5600 5608 5616 5624 5632 5640 5648 5656 5664 5672 5680 5688 5696 5704 5712 5720 5728 5736 5744 5752 5760 5768 5776 5784 5792 5800 5808 5816 5824 5832 5840 5848 5856 5864 5872 5880 5888 5896 5904 5912 5920 5928 5936 5944 5952 5960 5968 5976 5984 5992 6000 6008 6016 6024 6032 6040 6048 6056 6064 6072 6080 6088 6096 6104 6112 6120 6128 6136 6144 6152 6160 6168 6176 6184 6192 6200 6208 6216 6224 6232 6240 6248 6256 6264 6272 6280 6288 6296 6304 6312 6320 6328 6336 6344 6352 6360 6368 6376 6384 6392 6400 6408 6416 6424 6432 6440 6448 6456 6464 6472 6480 6488 6496 6504 6512 6520 6528 6536 6544 6552 6560 6568 6576 6584 6592 6600 6608 6616 6624 6632 6640 6648 6656 6664 6672 6680 6688 6696 6704 6712 6720 6728 6736 6744 6752 6760 6768 6776 6784 6792 6800 6808 6816 6824 6832 6840 6848 6856 6864 6872 6880 6888 6896 6904 6912 6920 6928 6936 6944 6952 6960 6968 6976 6984 6992 7000 7008 7016 7024 7032 7040 7048 7056 7064 7072 7080 7088 7096 7104 7112 7120 7128 7136 7144 7152 7160 7168 7176 7184 7192 7200 7208 7216 7224 7232 7240 7248 7256 7264 7272 7280 7288 7296 7304 7312 7320 7328 7336 7344 7352 7360 7368 7376 7384 7392 7400 7408 7416 7424 7432 7440 7448 7456 7464 7472 7480 7488 7496 7504 7512 7520 7528 7536 7544 7552 7560 7568 7576 7584 7592 7600 7608 7616 7624 7632 7640 7648 7656 7664 7672 7680 7688 7696 7704 7712 7720 7728 7736 7744 7752 7760 7768 7776 7784 7792 7800 7808 7816 7824 7832 7840 7848 7856 7864 7872 7880 7888 7896 7904 7912 7920 7928 7936 7944 7952 7960 7968 7976 7984 7992 8000 8008 8016 8024 8032 8040 8048 8056 8064 8072 8080 8088 8096 8104 8112 8120 8128 8136 8144 8152 8160 8168 8176 8184 8192 8200 8208 8216 8224 8232 8240 8248 8256 8264 8272 8280 8288 8296 8304 8312 8320 8328 8336 8344 8352 8360 8368 8376 8384 8392 8400 8408 8416 8424 8432 8440 8448 8456 8464 8472 8480 8488 8496 8504 8512 8520 8528 8536 8544 8552 8560 8568 8576 8584 8592 8600 8608 8616 8624 8632 8640 8648 8656 8664 8672 8680 8688 8696 8704 8712 8720 8728 8736 8744 8752 8760 8768 8776 8784 8792 8800 8808 8816 8824 8832 8840 8848 8856 8864 8872 8880 8888 8896 8904 8912 8920 8928 8936 8944 8952 8960 8968 8976 8984 8992 9000 9008 9016 9024 9032 9040 9048 9056 9064 9072 9080 9088 9096 9104 9112 9120 9128 9136 9144 9152 9160 9168 9176 9184 9192 9200 9208 9216 9224 9232 9240 9248 9256 9264 9272 9280 9288 9296 9304 9312 9320 9328 9336 9344 9352 9360 9368 9376 9384 9392 9400 9408 9416 9424 9432 9440 9448 9456 9464 9472 9480 9488 9496 9504 9512 9520 9528 9536 9544 9552 9560 9568 9576 9584 9592 9600 9608 9616 9624 9632 9640 9648 9656 9664 9672 9680 9688 9696 9704 9712 9720 9728 9736 9744 9752 9760 9768 9776 9784 9792 9800 9808 9816 9824 9832 9840 9848 9856 9864 9872 9880 9888 9896 9904 9912 9920 9928 9936 9944 9952 9960 9968 9976 9984 9992 10000 10008 10016 10024 10032 10040 10048 10056 10064 10072 10080 10088 10096 10104 10112 10120 10128 10136 10144 10152 10160 10168 10176 10184 10192 10200 10208 10216 10224 10232 10240 10248 10256 10264 10272 10280 10288 10296 10304 10312 10320 10328 10336 10344 10352 10360 10368 10376 10384 10392 10400 10408 10416 10424 10432 10440 10448 10456 10464 10472 10480 10488 10496 10504 10512 10520 10528 10536 10544 10552 10560 10568 10576 10584 10592 10600 10608 10616 10624 10632 10640 10648 10656 10664 10672 10680 10688 10696 10704 10712 10720 10728 10736 10744 10752 10760 10768 10776 10784 10792 10800 10808 10816 10824 10832 10840 10848 10856 10864 10872 10880 10888 10896 10904 10912 10920 10928 10936 10944 10952 10960 10968 10976 10984 10992 11000 11008 11016 11024 11032 11040 11048 11056 11064 11072 11080 11088 11096 11104 11112 11120 11128 11136 11144 11152 11160 11168 11176 11184 11192 11200 11208 11216 11224 11232 11240 11248 11256 11264 11272 11280 11288 11296 11304 11312 11320 11328 11336 11344 11352 11360 11368 11376 11384 11392 11400 11408 11416 11424 11432 11440 11448 11456 11464 11472 11480 11488 11496 11504 11512 11520 11528 11536 11544 11552 11560 11568 11576 11584 11592 11600 11608 11616 11624 11632 11640 11648 11656 11664 11672 11680 11688 11696 11704 11712 11720 11728 11736 11744 11752 11760 11768 11776 11784 11792 11800 11808 11816 11824 11832 11840 11848 11856 11864 11872 11880 11888 11896 11904 11912 11920 11928 11936 11944 11952 11960 11968 11976 11984 11992 12000 12008 12016 12024 12032 12040 12048 12056 12064 12072 12080 12088 12096 12104 12112 12120 12128 12136 12144 12152 12160 12168 12176 12184 12192 12200 12208 12216 12224 12232 12240 12248 12256 12264 12272 12280 12288 12296 12304 12312 12320 12328 12336 12344 12352 12360 12368 12376 12384 12392 12400 12408 12416 12424 12432 12440 12448 12456 12464 12472 12480 12488 12496 12504 12512 12520 12528 12536 12544 12552 12560 12568 12576 12584 12592 12600 12608 12616 12624 12632 12640 12648 12656 12664 12672 12680 12688 12696 12704 12712 12720 12728 12736 12744 12752 12760 12768 12776 12784 12792 12800 12808 12816 12824 12832 12840 12848 12856 12864 12872 12880 12888 12896 12904 12912 12920 12928 12936 12944 12952 12960 12968 12976 12984 12992 13000 13008 13016 13024 13032 13040 13048 13056 13064 13072 13080 13088 13096 13104 13112 13120 13128 13136 13144 13152 13160 13168 13176 13184 13192 13200 13208 13216 13224 13232 13240 13248 13256 13264 13272 13280 13288 13296 13304 13312 13320 13328 13336 13344 13352 13360 13368 13376 13384 13392 13400 13408 13416 13424 13432 13440 13448 13456 13464 13472 13480 13488 13496 13504 13512 13520 13528 13536 13544 13552 13560 13568 13576 13584 13592 13600 13608 13616 13624 13632 13640 13648 13656 13664 13672 13680 13688 13696 13704 13712 13720 13728 13736 13744 13752 13760 13768 13776 13784 13792 13800 13808 13816 13824 13832 13840 13848 13856 13864 13872 13880 13888 13896 13904 13912 13920 13928 13936 13944 13952 13960 13968 13976 13984 13992 14000 14008 14016 14024 14032 14040 14048 14056 14064 14072 14080 14088 14096 14104 14112 14120 14128 14136 14144 14152 14160 14168 14176 14184 14192 14200 14208 14216 14224 14232 14240 14248 14256 14264 14272 14280 14288 14296 14304 14312 14320 14328 14336 14344 14352 14360 14368 14376 14384 14392 14400 14408 14416 14424 14432 14440 14448 14456 14464 14472 14480 14488 14496 14504 14512 14520 14528 14536 14544 14552 14560 14568 14576 14584 14592 14600 14608 14616 14624 14632 14640 14648 14656 14664 14672 14680 14688 14696 14704 14712 14720 14728 14736 14744 14752 14760 14768 14776 14784 14792 14800 14808 14816 14824 14832 14840 14848 14856 14864 14872 14880 14888 14896 14904 14912 14920 14928 14936 14944 14952 14960 14968 14976 14984 14992 15000 15008 15016 15024 15032 15040 15048 15056 15064 15072 15080 15088 15096 15104 15112 15120 15128 15136 15144 15152 15160 15168 15176 15184 15192 15200 15208 15216 15224 15232 15240 15248 15256 15264 15272 15280 15288 15296 15304 15312 15320 15328 15336 15344 15352 15360 15368 15376 15384 15392 15400 15408 15416 15424 15432 15440 15448 15456 15464 15472 15480 15488 15496 15504 15512 15520 15528 15536 15544 15552 15560 15568 15576 15584 15592 15600 15608 15616 15624 15632 15640 15648 15656 15664 15672 15680 15688 15696 15704 15712 15720 15728 15736 15744 15752 15760 15768 15776 15784 15792 15800 15808 15816 15824 15832 15840 15848 15856 15864 15872 15880 15888 15896 15904 15912 15920 15928 15936 15944 15952 15960 15968 15976 15984 15992 16000 16008 16016 16024 16032 16040 16048 16056 16064 16072 16080 16088 16096 16104 16112 16120 16128 16136 16144 16152 16160 16168 16176 16184 16192 16200 16208 16216 16224 16232 16240 16248 16256 16264 16272 16280 16288 16296 16304 16312 16320 16328 16336 16344 16352 16360 16368 16376 16384 16392 16400 16408 16416 16424 16432 16440 16448 16456 16464 16472 16480 16488 16496 16504 16512 16520 16528 16536 16544 16552 16560 16568 16576 16584 16592 16600 16608 16616 16624 16632 16640 16648 16656 16664 16672 16680 16688 16696 16704 16712 16720 16728 16736 16744 16752 16760 16768 16776 16784 16792 16800 16808 16816 16824 16832 16840 16848 16856 16864 16872 16880 16888 16896 16904 16912 16920 16928 16936 16944 16952 16960 16968 16976 16984 16992 17000 17008 17016 17024 17032 17040 17048 17056 17064 17072 17080 17088 17096 17104 17112 17120 17128 17136 17144 17152 17160 17168 17176 17184 17192 17200 17208 17216 17224 17232 17240 17248 17256 17264 17272 17280 17288 17296 17304 17312 17320 17328 17336 17344 17352 17360 17368 17376 17384 17392 17400 17408 17416 17424 17432 17440 17448 17456 17464 17472 17480 17488 17496 17504 17512 17520 17528 17536 17544 17552 17560 17568 17576 17584 17592 17600 17608 17616 17624 17632 17640 17648 17656 17664 17672 17680 17688 17696 17704 17712 17720 17728 17736 17744 17752 17760 17768 17776 17784 17792 17800 17808 17816 17824 17832 17840 17848 17856 17864 17872 17880 17888 17896 17904 17912 17920 17928 17936 17944 17952 17960 17968 17976 17984 17992 18000 18008 18016 18024 18032 18040 18048 18056 18064 18072 18080 18088 18096 18104 18112 18120 18128 18136 18144 18152 18160 18168 18176 18184 18192 18200 18208 18216 18224 18232 18240 18248 18256 18264 18272 18280 18288 18296 18304 18312 18320 18328 18336 18344 18352 18360 18368 18376 18384 18392 18400 18408 18416 18424 18432 18440 18448 18456 18464 18472 18480 18488 18496 18504 18512 18520 18528 18536 18544 18552 18560 18568 18576 18584 18592 18600 18608 18616 18624 18632 18640 18648 18656 18664 18672 18680 18688 18696 18704 18712 18720 18728 18736 18744 18752 18760 18768 18776 18784 18792 18800 18808 18816 18824 18832 18840 18848 18856 18864 18872 18880 18888 18896 18904 18912 18920 18928 18936 18944 18952 18960 18968 18976 18984 18992 19000 19008 19016 19024 19032 19040 19048 19056 19064 19072 19080 19088 19096 19104 19112 19120 19128 19136 19144 19152 19160 19168 19176 19184 19192 19200 19208 19216 19224 19232 19240 19248 19256 19264 19272 19280 19288 19296 19304 19312 19320 19328 19336 19344 19352 19360 19368 19376 19384 19392 19400 19408 19416 19424 19432 19440 19448 19456 19464 19472 19480 19488 19496 19504 19512 19520 19528 19536 19544 19552 19560 19568 19576 19584 19592 19600 19608 19616 19624 19632 19640 19648 19656 19664 19672 19680 19688 19696 19704 19712 19720 19728 19736 19744 19752 19760 19768 19776 19784 19792 19800 19808 19816 19824 19832 19840 19848 19856 19864 19872 19880 19888 19896 19904 19912 19920 19928 19936 19944 19952 19960 19968 19976 19984 19992 20000 20008 20016 20024 20032 20040 20048 20056 20064 20072 20080 20088 20096 20104 20112 20120 20128 20136 20144 20152 20160 20168 20176 20184 20192 20200 20208 20216 20224 20232 20240 20248 20256 20264 20272 20280 20288 20296 20304 20312 20320 20328 20336 20344 20352 20360 20368 20376 20384 20392 20400 20408 20416 20424 20432 20440 20448 20456 20464 20472 20480 20488 20496 20504 20512 20520 20528 20536 20544 20552 20560 20568 20576 20584 20592 20600 20608 20616 20624 20632 20640 20648 20656 20664 20672 20680 20688 20696 20704 20712 20720 20728 20736 20744 20752 20760 20768 20776 20784 20792 20800 20808 20816 20824 20832 20840 20848 20856 20864 20872 20880 20888 20896 20904 20912 20920 20928 20936 20944 20952 20960 20968 20976 20984 20992 21000 21008 21016 21024 21032 21040 21048 21056 21064 21072 21080 21088 21096 21104 21112 21120 21128 21136 21144 21152 21160 21168 21176 21184 21192 21200 21208 21216 21224 21232 21240 21248 21256 21264 21272 21280 21288 21296 21304 21312 21320 21328 21336 21344 21352 21360 21368 21376 21384 21392 21400 21408 21416 21424 21432 21440 21448 21456 21464 21472 21480 21488 21496 21504 21512 21520 21528 21536 21544 21552 21560 21568 21576 21584 21592 21600 21608 21616 21624 21632 21640 21648 21656 21664 21672 21680 21688 21696 21704 21712 21720 21728 21736 21744 21752 21760 21768 21776 21784 21792 21800 21808 21816 21824 21832 21840 21848 21856 21864 21872 21880 21888 21896 21904 21912 21920 21928 21936 21944 21952 21960 21968 21976 21984 21992 22000 22008 22016 22024 22032 22040 22048 22056 22064 22072 22080 22088 22096 22104 22112 22120 22128 22136 22144 22152 22160 22168 22176 22184 22192 22200 22208 22216 22224 22232 22240 22248 22256 22264 22272 22280 22288 22296 22304 22312 22320 22328 22336 22344 22352 22360 22368 22376 22384 22392 22400 22408 22416 22424 22432 22440 22448 22456 22464 22472 22480 22488 22496 22504 22512 22520 22528 22536 22544 22552 22560 22568 22576 22584 22592 22600 22608 22616 22624 22632 22640 22648 22656 22664 22672 22680 22688 22696 22704 22712 22720 22728 22736 22744 22752 22760 22768 22776 22784 22792 22800 22808 22816 22824 22832 22840 22848 22856 22864 22872 22880 22888 22896 22904 22912 22920 22928 22936 22944 22952 22960 22968 22976 22984 22992 23000 23008 23016 23024 23032 23040 23048 23056 23064 23072 23080 23088 23096 23104 23112 23120 23128 23136 23144 23152 23160 23168 23176 23184 23192 23200 23208 23216 23224 23232 23240 23248 23256 23264 23272 23280 23288 23296 23304 23312 23320 23328 23336 23344 23352 23360 23368 23376 23384 23392 23400 23408 23416 23424 23432 23440 23448 23456 23464 23472 23480 23488 23496 23504 23512 23520 23528 23536 23544 23552 23560 23568 23576 23584 23592 23600 23608 23616 23624 23632 23640 23648 23656 23664 23672 23680 23688 23696 23704 23712 23720 23728 23736 23744 23752 23760 23768 23776 23784 23792 23800 23808 23816 23824 23832 23840 23848 23856 23864 23872 23880 23888 23896 23904 23912 23920 23928 23936 23944 23952 23960 23968 23976 23984 23992 24000 24008 24016 24024 24032 24040 24048 24056 24064 24072 24080 24088 24096 24104 24112 24120 24128 24136 24144 24152 24160 24168 24176 24184 24192 24200 24208 24216 24224 24232 24240 24248 24256 24264 24272 24280 24288 24296 24304 24312 24320 24328 24336 24344 24352 24360 24368 24376 24384 24392 24400 24408 24416 24424 24432 24440 24448 24456 24464 24472 24480 24488 24496 24504 24512 24520 24528 24536 24544 24552 24560 24568 24576 24584 24592 24600 24608 24616 24624 24632 24640 24648 24656 24664 24672 24680 24688 24696 24704 24712 24720 24728 24736 24744 24752 24760 24768 24776 24784 24792 24800 24808 24816 24824 24832 24840 24848 24856 24864 24872 24880 24888 24896 24904 24912 24920 24928 24936 24944 24952 24960 24968 24976 24984 24992 25000 25008 25016 25024 25032 25040 25048 25056 25064 25072 25080 25088 25096 25104 25112 25120 25128 25136 25144 25152 25160 25168 25176 25184 25192 25200 25208 25216 25224 25232 25240 25248 25256 25264 25272 25280 25288 25296 25304 25312 25320 25328 25336 25344 25352 25360 25368 25376 25384 25392 25400 25408 25416 25424 25432 25440 25448 25456 25464 25472 25480 25488 25496 25504 25512 25520 25528 25536 25544 25552 25560 25568 25576 25584 25592 25600 25608 25616 25624 25632 25640 25648 25656 25664 25672 25680 25688 25696 25704 25712 25720 25728 25736 25744 25752 25760 25768 25776 25784 25792 25800 25808 25816 25824 25832 25840 25848 25856 25864 25872 25880 25888 25896 25904 25912 25920 25928 25936 25944 25952 25960 25968 25976 25984 25992 26000 26008 26016 26024 26032 26040 26048 26056 26064 26072 26080 26088 26096 26104 26112 26120 26128 26136 26144 26152 26160 26168 26176 26184 26192 26200 26208 26216 26224 26232 26240 26248 26256 26264 26272 26280 26288 26296 26304 26312 26320 26328 26336 26344 26352 26360 26368 26376 26384 26392 26400 26408 26416 26424 26432 26440 26448 26456 26464 26472 26480 26488 26496 26504 26512 26520 26528 26536 26544 26552 26560 26568 26576 26584 26592 26600 26608 26616 26624 26632 26640 26648 26656 26664 26672 26680 26688 26696 26704 26712 26720 26728 26736 26744 26752 26760 26768 26776 26784 26792 26800 26808 26816 26824 26832 26840 26848 26856 26864 26872 26880 26888 26896 26904 26912 26920 26928 26936 26944 26952 26960 26968 26976 26984 26992 27000 27008 27016 27024 27032 27040 27048 27056 27064 27072 27080 27088 27096 27104 27112 27120 27128 27136 27144 27152 27160 27168 27176 27184 27192 27200 27208 27216 27224 27232 27240 27248 27256 27264 27272 27280 27288 27296 27304 27312 27320 27328 27336 27344 27352 27360 27368 27376 27384 27392 27400 27408 27416 27424 27432 27440 27448 27456 27464 27472 27480 27488 27496 27504 27512 27520 27528 27536 27544 27552 27560 27568 27576 27584 27592 27600 27608 27616 27624 27632 27640 27648 27656 27664 27672 27680 27688 27696 27704 27712 27720 27728 27736 27744 27752 27760 27768 27776 27784 27792 27800 27808 27816 27824 27832 27840 27848 27856 27864 27872 27880 27888 27896 27904 27912 27920 27928 27936 27944 27952 27960 27968 27976 27984 27992 28000 28008 28016 28024 28032 28040 28048 28056 28064 28072 28080 28088 28096 28104 28112 28120 28128 28136 28144 28152 28160 28168 28176 28184 28192 28200 28208 28216 28224 28232 28240 28248 28256 28264 28272 28280 28288 28296 28304 28312 28320 28328 28336 28344 28352 28360 28368 28376 28384 28392 28400 28408 28416 28424 28432 28440 28448 28456 28464 28472 28480 28488 28496 28504 28512 28520 28528 28536 28544 28552 28560 28568 28576 28584 28592 28600 28608 28616 28624 28632 28640 28648 28656 28664 28672 28680 28688 28696 28704 28712 28720 28728 28736 28744 28752 28760 28768 28776 28784 28792 28800 28808 28816 28824 28832 28840 28848 28856 28864 28872 28880 28888 28896 28904 28912 28920 28928 28936 28944 28952 28960 28968 28976 28984 28992 29000 29008 29016 29024 29032 29040 29048 29056 29064 29072 29080 29088 29096 29104 29112 29120 29128 29136 29144 29152 29160 29168 29176 29184 29192 29200 29208 29216 29224 29232 29240 29248 29256 29264 29272 29280 29288 29296 29304 29312 29320 29328 29336 29344 29352 29360 29368 29376 29384 29392 29400 29408 29416 29424 29432 29440 29448 29456 29464 29472 29480 29488 29496 29504 29512 29520 29528 29536 29544 29552 29560 29568 29576 29584 29592 29600 29608 29616 29624 29632 29640 29648 29656 29664 29672 29680 29688 29696 29704 29712 29720 29728 29736 29744 29752 29760 29768 29776 29784 29792 29800 29808 29816 29824 29832 29840 29848 29856 29864 29872 29880 29888 29896 29904 29912 29920 29928 29936 29944 29952 29960 29968 29976 29984 29992 30000 30008 30016 30024 30032 30040 30048 30056 30064 30072 30080 30088 30096 30104 30112 30120 30128 30136 30144 30152 30160 30168 30176 30184 30192 30200 30208 30216 30224 30232 30240 30248 30256 30264 30272 30280 30288 30296 30304 30312 30320 30328 30336 30344 30352 30360 30368 30376 30384 30392 30400 30408 30416 30424 30432 30440 30448 30456 30464 30472 30480 30488 30496 30504 30512 30520 30528 30536 30544 30552 30560 30568 30576 30584 30592 30600 30608 30616 30624 30632 30640 30648 30656 30664 30672 30680 30688 30696 30704 30712 30720 30728 30736 30744 30752 30760 30768 30776 30784 30792 30800 30808 30816 30824 30832 30840 30848 30856 30864 30872 30880 30888 30896 30904 30912 30920 30928 30936 30944 30952 30960 30968 30976 30984 30992 31000 31008 31016 31024 31032 31040 31048 31056 31064 31072 31080 31088 31096 31104 31112 31120 31128 31136 31144 31152 31160 31168 31176 31184 31192 31200 31208 31216 31224 31232 31240 31248 31256 31264 31272 31280 31288 31296 31304 31312 31320 31328 31336 31344 31352 31360 31368 31376 31384 31392 31400 31408 31416 31424 31432 31440 31448 31456 31464 31472 31480 31488 31496 31504 31512 31520 31528 31536 31544 31552 31560 31568 31576 31584 31592 31600 31608 31616 31624 31632 31640 31648 31656 31664 31672 31680 31688 31696 31704 31712 31720 31728 31736 31744 31752 31760 31768 31776 31784 31792 31800 31808 31816 31824 31832 31840 31848 31856 31864 31872 31880 31888 31896 31904 31912 31920 31928 31936 31944 31952 31960 31968 31976 31984 31992 32000 32008 32016 32024 32032 32040 32048 32056 32064 32072 32080 32088 32096 32104 32112 32120 32128 32136 32144 32152 32160 32168 32176 32184 32192 32200 32208 32216 32224 32232 32240 32248 32256 32264 32272 32280 32288 32296 32304 32312 32320 32328 32336 32344 32352 32360 32368 32376 32384 32392 32400 32408 32416 32424 32432 32440 32448 32456 32464 32472 32480 32488 32496 32504 32512 32520 32528 32536 32544 32552 32560 32568 32576 32584 32592 32600 32608 32616 32624 32632 32640 32648 32656 32664 32672 32680 32688 32696 32704 32712 32720 32728 32736 32744 32752 32760 32768 32776 32784 32792 32800 32808 32816 32824 32832 32840 32848 32856 32864 32872 32880 32888 32896 32904 32912 32920 32928 32936 32944 32952 32960 32968 32976 32984 32992 33000 33008 33016 33024 33032 33040 33048 33056 33064 33072 33080 33088 33096 33104 33112 33120 33128 33136 33144 33152 33160 33168 33176 33184 33192 33200 33208 33216 33224 33232 33240 33248 33256 33264 33272 33280 33288 33296 33304 33312 33320 33328 33336 33344 33352 33360 33368 33376 33384 33392 33400 33408 33416 33424 33432 33440 33448 33456 33464 33472 33480 33488 33496 33504 33512 33520 33528 33536 33544 33552 33560 33568 33576 33584 33592 33600 33608 33616 33624 33632 33640 33648 33656 33664 33672 33680 33688 33696 33704 33712 33720 33728 33736 33744 33752 33760 33768 33776 33784 33792 33800 33808 33816 33824 33832 33840 33848 33856 33864 33872 33880 33888 33896 33904 33912 33920 33928 33936 33944 33952 33960 33968 33976 33984 33992 34000 34008 34016 34024 34032 34040 34048 34056 34064 34072 34080 34088 34096 34104 34112 34120 34128 34136 34144 34152 34160 34168 34176 34184 34192 34200 34208 34216 34224 34232 34240 34248 34256 34264 34272 34280 34288 34296 34304 34312 34320 34328 34336 34344 34352 34360 34368 34376 34384 34392 34400 34408 34416 34424 34432 34440 34448 34456 34464 34472 34480 34488 34496 34504 34512 34520 34528 34536 34544 34552 34560 34568 34576 34584 34592 34600 34608 34616 34624 34632 34640 34648 34656 34664 34672 34680 34688 34696 34704 34712 34720 34728 34736 34744 34752 34760 34768 34776 34784 34792 34800 34808 34816 34824 34832 34840 34848 34856 34864 34872 34880 34888 34896 34904 34912 34920 34928 34936 34944 34952 34960 34968 34976 34984 34992 35000 35008 35016 35024 35032 35040 35048 35056 35064 35072 35080 35088 35096 35104 35112 35120 35128 35136 35144 35152 35160 35168 35176 35184 35192 35200 35208 35216 35224 35232 35240 35248 35256 35264 35272 35280 35288 35296 35304 35312 35320 35328 35336 35344 35352 35360 35368 35376 35384 35392 35400 35408 35416 35424 35432 35440 35448 35456 35464 35472 35480 35488 35496 35504 35512 35520 35528 35536 35544 35552 35560 35568 35576 35584 35592 35600 35608 35616 35624 35632 35640 35648 35656 35664 35672 35680 35688 35696 35704 35712 35720 35728 35736 35744 35752 35760 35768 35776 35784 35792 35800 35808 35816 35824 35832 35840 35848 35856 35864 35872 35880 35888 35896 35904 35912 35920 35928 35936 35944 35952 35960 35968 35976 35984 35992 36000 36008 36016 36024 36032 36040 36048 36056 36064 36072 36080 36088 36096 36104 36112 36120 36128 36136 36144 36152 36160 36168 36176 36184 36192 36200 36208 36216 36224 36232 36240 36248 36256 36264 36272 36280 36288 36296 36304 36312 36320 36328 36336 36344 36352 36360 36368 36376 36384 36392 36400 36408 36416 36424 36432 36440 36448 36456 36464 36472 36480 36488 36496 36504 36512 36520 36528 36536 36544 36552 36560 36568 36576 36584 36592 36600 36608 36616 36624 36632 36640 36648 36656 36664 36672 36680 36688 36696 36704 36712 36720 36728 36736 36744 36752 36760 36768 36776 36784 36792 36800 36808 36816 36824 36832 36840 36848 36856 36864 36872 36880 36888 36896 36904 36912 36920 36928 36936 36944 36952 36960 36968 36976 36984 36992 37000 37008 37016 37024 37032 37040 37048 37056 37064 37072 37080 37088 37096 37104 37112 37120 37128 37136 37144 37152 37160 37168 37176 37184 37192 37200 37208 37216 37224 37232 37240 37248 37256 37264 37272 37280 37288 37296 37304 37312 37320 37328 37336 37344 37352 37360 37368 37376 37384 37392 37400 37408 37416 37424 37432 37440 37448 37456 37464 37472 37480 37488 37496 37504 37512 37520 37528 37536 37544 37552 37560 37568 37576 37584 37592 37600 37608 37616 37624 37632 37640 37648 37656 37664 37672 37680 37688 37696 37704 37712 37720 37728 37736 37744 37752 37760 37768 37776 37784 37792 37800 37808 37816 37824 37832 37840 37848 37856 37864 37872 37880 37888 37896 37904 37912 37920 37928 37936 37944 37952 37960 37968 37976 37984 37992 38000 38008 38016 38024 38032 38040 38048 38056 38064 38072 38080 38088 38096 38104 38112 38120 38128 38136 38144 38152 38160 38168 38176 38184 38192 38200 38208 38216 38224 38232 38240 38248 38256 38264 38272 38280 38288 38296 38304 38312 38320 38328 38336 38344 38352 38360 38368 38376 38384 38392 38400 38408 38416 38424 38432 38440 38448 38456 38464 38472 38480 38488 38496 38504 38512 38520 38528 38536 38544 38552 38560 38568 38576 38584 38592 38600 38608 38616 38624 38632 38640 38648 38656 38664 38672 38680 38688 38696 38704 38712 38720 38728 38736 38744 38752 38760 38768 38776 38784 38792 38800 38808 38816 38824 38832 38840 38848 38856 38864 38872 38880 38888 38896 38904 38912 38920 38928 38936 38944 38952 38960 38968 38976 38984 38992 39000 39008 39016 39024 39032 39040 39048 39056 39064 39072 39080 39088 39096 39104 39112 39120 39128 39136 39144 39152 39160 39168 39176 39184 39192 39200 39208 39216 39224 39232 39240 39248 39256 39264 39272 39280 39288 39296 39304 39312 39320 39328 39336 39344 39352 39360 39368 39376 39384 39392 39400 39408 39416 39424 39432 39440 39448 39456 39464 39472 39480 39488 39496 39504 39512 39520 39528 39536 39544 39552 39560 39568 39576 39584 39592 39600 39608 39616 39624 39632 39640 39648 39656 39664 39672 39680 39688 39696 39704 39712 39720 39728 39736 39744 39752 39760 39768 39776 39784 39792 39800 39808 39816 39824 39832 39840 39848 39856 39864 39872 39880 39888 39896 39904 39912 39920 39928 39936 39944 39952 39960 39968 39976 39984 39992 40000 40008 40016 40024 40032 40040 40048 40056 40064 40072 40080 40088 40096 40104 40112 40120 40128 40136 40144 40152 40160 40168 40176 40184 40192 40200 40208 40216 40224 40232 40240 40248 40256 40264 40272 40280 40288 40296 40304 40312 40320 40328 40336 40344 40352 40360 40368 40376 40384 40392 40400 40408 40416 40424 40432 40440 40448 40456 40464 40472 40480 40488 40496 40504 40512 40520 40528 40536 40544 40552 40560 40568 40576 40584 40592 40600 40608 40616 40624 40632 40640 40648 40656 40664 40672 40680 40688 40696 40704 40712 40720 40728 40736 40744 40752 40760 40768 40776 40784 40792 40800 40808 40816 40824 40832 40840 40848 40856 40864 40872 40880 40888 40896 40904 40912 40920 40928 40936 40944 40952 40960 40968 40976 40984 40992 41000 41008 41016 41024 41032 41040 41048 41056 41064 41072 41080 41088 41096 41104 41112 41120 41128 41136 41144 41152 41160 41168 41176 41184 41192 41200 41208 41216 41224 41232 41240 41248 41256 41264 41272 41280 41288 41296 41304 41312 41320 41328 41336 41344 41352 41360 41368 41376 41384 41392 41400 41408 41416 41424 41432 41440 41448 41456 41464 41472 41480 41488 41496 41504 41512 41520 41528 41536 41544 41552 41560 41568 41576 41584 41592 41600 41608 41616 41624 41632 41640 41648 41656 41664 41672 41680 41688 41696 41704 41712 41720 41728 41736 41744 41752 41760 41768 41776 41784 41792 41800 41808 41816 41824 41832 41840 41848 41856 41864 41872 41880 41888 41896 41904 41912 41920 41928 41936 41944 41952 41960 41968 41976 41984 41992 42000 42008 42016 42024 42032 42040 42048 42056 42064 42072 42080 42088 42096 42104 42112 42120 42128 42136 42144 42152 42160 42168 42176 42184 42192 42200 42208 42216 42224 42232 42240 42248 42256 42264 42272 42280 42288 42296 42304 42312 42320 42328 42336 42344 42352 42360 42368 42376 42384 42392 42400 42408 42416 42424 42432 42440 42448 42456 42464 42472 42480 42488 42496 42504 42512 42520 42528 42536 42544 42552 42560 42568 42576 42584 42592 42600 42608 42616 42624 42632 42640 42648 42656 42664 42672 42680 42688 42696 42704 42712 42720 42728 42736 42744 42752 42760 42768 42776 42784 42792 42800 42808 42816 42824 42832 42840 42848 42856 42864 42872 42880 42888 42896 42904 42912 42920 42928 42936 42944 42952 42960 42968 42976 42984 42992 43000 43008 43016 43024 43032 43040 43048 43056 43064 43072 43080 43088 43096 43104 43112 43120 43128 43136 43144 43152 43160 43168 43176 43184 43192 43200 43208 43216 43224 43232 43240 43248 43256 43264 43272 43280 43288 43296 43304 43312 43320 43328 43336 43344 43352 43360 43368 43376 43384 43392 43400 43408 43416 43424 43432 43440 43448 43456 43464 43472 43480 43488 43496 43504 43512 43520 43528 43536 43544 43552 43560 43568 43576 43584 43592 43600 43608 43616 43624 43632 43640 43648 43656 43664 43672 43680 43688 43696 43704 43712 43720 43728 43736 43744 43752 43760 43768 43776 43784 43792 43800 43808 43816 43824 43832 43840 43848 43856 43864 43872 43880 43888 43896 43904 43912 43920 43928 43936 43944 43952 43960 43968 43976 43984 43992 44000 44008 44016 44024 44032 44040 44048 44056 44064 44072 44080 44088 44096 44104 44112 44120 44128 44136 44144 44152 44160 44168 44176 44184 44192 44200 44208 44216 44224 44232 44240 44248 44256 44264 44272 44280 44288 44296 44304 44312 44320 44328 44336 44344 44352 44360 44368 44376 44384 44392 44400 44408 44416 44424 44432 44440 44448 44456 44464 44472 44480 44488 44496 44504 44512 44520 44528 44536 44544 44552 44560 44568 44576 44584 44592 44600 44608 44616 44624 44632 44640 44648 44656 44664 44672 44680 44688 44696 44704 44712 44720 44728 44736 44744 44752 44760 44768 44776 44784 44792 44800 44808 44816 44824 44832 44840 44848 44856 44864 44872 44880 44888 44896 44904 44912 44920 44928 44936 44944 44952 44960 44968 44976 44984 44992 45000 45008 45016 45024 45032 45040 45048 45056 45064 45072 45080 45088 45096 45104 45112 45120 45128 45136 45144 45152 45160 45168 45176 45184 45192 45200 45208 45216 45224 45232 45240 45248 45256 45264 45272 45280 45288 45296 45304 45312 45320 45328 45336 45344 45352 45360 45368 45376 45384 45392 45400 45408 45416 45424 45432 45440 45448 45456 45464 45472 45480 45488 45496 45504 45512 45520 45528 45536 45544 45552 45560 45568 45576 45584 45592 45600 45608 45616 45624 45632 45640 45648 45656 45664 45672 45680 45688 45696 45704 45712 45720 45728 45736 45744 45752 45760 45768 45776 45784 45792 45800 45808 45816 45824 45832 45840 45848 45856 45864 45872 45880 45888 45896 45904 45912 45920 45928 45936 45944 45952 45960 45968 45976 45984 45992 46000 46008 46016 46024 46032 46040 46048 46056 46064 46072 46080 46088 46096 46104 46112 46120 46128 46136 46144 46152 46160 46168 46176 46184 46192 46200 46208 46216 46224 46232 46240 46248 46256 46264 46272 46280 46288 46296 46304 46312 46320 46328 46336 46344 46352 46360 46368 46376 46384 46392 46400 46408 46416 46424 46432 46440 46448 46456 46464 46472 46480 46488 46496 46504 46512 46520 46528 46536 46544 46552 46560 46568 46576 46584 46592 46600 46608 46616 46624 46632 46640 46648 46656 46664 46672 46680 46688 46696 46704 46712 46720 46728 46736 46744 46752 46760 46768 46776 46784 46792 46800 46808 46816 46824 46832 46840 46848 46856 46864 46872 46880 46888 46896 46904 46912 46920 46928 46936 46944 46952 46960 46968 46976 46984 46992 47000 47008 47016 47024 47032 47040 47048 47056 47064 47072 47080 47088 47096 47104 47112 47120 47128 47136 47144 47152 47160 47168 47176 47184 47192 47200 47208 47216 47224 47232 47240 47248 47256 47264 47272 47280 47288 47296 47304 47312 47320 47328 47336 47344 47352 47360 47368 47376 47384 47392 47400 47408 47416 47424 47432 47440 47448 47456 47464 47472 47480 47488 47496 47504 47512 47520 47528 47536 47544 47552 47560 47568 47576 47584 47592 47600 47608 47616 47624 47632 47640 47648 47656 47664 47672 47680 47688 47696 47704 47712 47720 47728 47736 47744 47752 47760 47768 47776 47784 47792 47800 47808 47816 47824 47832 47840 47848 47856 47864 47872 47880 47888 47896 47904 47912 47920 47928 47936 47944 47952 47960 47968 47976 47984 47992 48000 48008 48016 48024 48032 48040 48048 48056 48064 48072 48080 48088 48096 48104 48112 48120 48128 48136 48144 48152 48160 48168 48176 48184 48192 48200 48208 48216 48224 48232 48240 48248 48256 48264 48272 48280 48288 48296 48304 48312 48320 48328 48336 48344 48352 48360 48368 48376 48384 48392 48400 48408 48416 48424 48432 48440 48448 48456 48464 48472 48480 48488 48496 48504 48512 48520 48528 48536 48544 48552 48560 48568 48576 48584 48592 48600 48608 48616 48624 48632 48640 48648 48656 48664 48672 48680 48688 48696 48704 48712 48720 48728 48736 48744 48752 48760 48768 48776 48784 48792 48800 48808 48816 48824 48832 48840 48848 48856 48864 48872 48880 48888 48896 48904 48912 48920 48928 48936 48944 48952 48960 48968 48976 48984 48992 49000 49008 49016 49024 49032 49040 49048 49056 49064 49072 49080 49088 49096 49104 49112 49120 49128 49136 49144 49152 49160 49168 49176 49184 49192 49200 49208 49216 49224 49232 49240 49248 49256 49264 49272 49280 49288 49296 49304 49312 49320 49328 49336 49344 49352 49360 49368 49376 49384 49392 49400 49408 49416 49424 49432 49440 49448 49456 49464 49472 49480 49488 49496 49504 49512 49520 49528 49536 49544 49552 49560 49568 49576 49584 49592 49600 49608 49616 49624 49632 49640 49648 49656 49664 49672 49680 49688 49696 49704 49712 49720 49728 49736 49744 49752 49760 49768 49776 49784 49792 49800 49808 49816 49824 49832 49840 49848 49856 49864 49872 49880 49888 49896 49904 49912 49920 49928 49936 49944 49952 49960 49968 49976 49984 49992 50000 50008 50016 50024 50032 50040 50048 50056 50064 50072 50080 50088 50096 50104 50112 50120 50128 50136 50144 50152 50160 50168 50176 50184 50192 50200 50208 50216 50224 50232 50240 50248 50256 50264 50272 50280 50288 50296 50304 50312 50320 50328 50336 50344 50352 50360 50368 50376 50384 50392 50400 50408 50416 50424 50432 50440 50448 50456 50464 50472 50480 50488 50496 50504 50512 50520 50528 50536 50544 50552 50560 50568 50576 50584 50592 50600 50608 50616 50624 50632 50640 50648 50656 50664 50672 50680 50688 50696 50704 50712 50720 50728 50736 50744 50752 50760 50768 50776 50784 50792 50800 50808 50816 50824 50832 50840 50848 50856 50864 50872 50880 50888 50896 50904 50912 50920 50928 50936 50944 50952 50960 50968 50976 50984 50992 51000 51008 51016 51024 51032 51040 51048 51056 51064 51072 51080 51088 51096 51104 51112 51120 51128 51136 51144 51152 51160 51168 51176 51184 51192 51200 51208 51216 51224 51232 51240 51248 51256 51264 51272 51280 51288 51296 51304 51312 51320 51328 51336 51344 51352 51360 51368 51376 51384 51392 51400 51408 51416 51424 51432 51440 51448 51456 51464 51472 51480 51488 51496 51504 51512 51520 51528 51536 51544 51552 51560 51568 51576 51584 51592 51600 51608 51616 51624 51632 51640 51648 51656 51664 51672 51680 51688 51696 51704 51712 51720 51728 51736 51744 51752 51760 51768 51776 51784 51792 51800 51808 51816 51824 51832 51840 51848 51856 51864 51872 51880 51888 51896 51904 51912 51920 51928 51936 51944 51952 51960 51968 51976 51984 51992 52000 52008 52016 52024 52032 52040 52048 52056 52064 52072 52080 52088 52096 52104 52112 52120 52128 52136 52144 52152 52160 52168 52176 52184 52192 52200 52208 52216 52224 52232 52240 52248 52256 52264 52272 52280 52288 52296 52304 52312 52320 52328 52336 52344 52352 52360 52368 52376 52384 52392 52400 52408 52416 52424 52432 52440 52448 52456 52464 52472 52480 52488 52496 52504 52512 52520 52528 52536 52544 52552 52560 52568 52576 52584 52592 52600 52608 52616 52624 52632 52640 52648 52656 52664 52672 52680 52688 52696 52704 52712 52720 52728 52736 52744 52752 52760 52768 52776 52784 52792 52800 52808 52816 52824 52832 52840 52848 52856 52864 52872 52880 52888 52896 52904 52912 52920 52928 52936 52944 52952 52960 52968 52976 52984 52992 53000 53008 53016 53024 53032 53040 53048 53056 53064 53072 53080 53088 53096 53104 53112 53120 53128 53136 53144 53152 53160 53168 53176 53184 53192 53200 53208 53216 53224 53232 53240 53248 53256 53264 53272 53280 53288 53296 53304 53312 53320 53328 53336 53344 53352 53360 53368 53376 53384 53392 53400 53408 53416 53424 53432 53440 53448 53456 53464 53472 53480 53488 53496 53504 53512 53520 53528 53536 53544 53552 53560 53568 53576 53584 53592 53600 53608 53616 53624 53632 53640 53648 53656 53664 53672 53680 53688 53696 53704 53712 53720 53728 53736 53744 53752 53760 53768 53776 53784 53792 53800 53808 53816 53824 53832 53840 53848 53856 53864 53872 53880 53888 53896 53904 53912 53920 53928 53936 53944 53952 53960 53968 53976 53984 53992 54000 54008 54016 54024 54032 54040 54048 54056 54064 54072 54080 54088 54096 54104 54112 54120 54128 54136 54144 54152 54160 54168 54176 54184 54192 54200 54208 54216 54224 54232 54240 54248 54256 54264 54272 54280 54288 54296 54304 54312 54320 54328 54336 54344 54352 54360 54368 54376 54384 54392 54400 54408 54416 54424 54432 54440 54448 54456 54464 54472 54480 54488 54496 54504 54512 54520 54528 54536 54544 54552 54560 54568 54576 54584 54592 54600 54608 54616 54624 54632 54640 54648 54656 54664 54672 54680 54688 54696 54704 54712 54720 54728 54736 54744 54752 54760 54768 54776 54784 54792 54800 54808 54816 54824 54832 54840 54848 54856 54864 54872 54880 54888 54896 54904 54912 54920 54928 54936 54944 54952 54960 54968 54976 54984 54992 55000 55008 55016 55024 55032 55040 55048 55056 55064 55072 55080 55088 55096 55104 55112 55120 55128 55136 55144 55152 55160 55168 55176 55184 55192 55200 55208 55216 55224 55232 55240 55248 55256 55264 55272 55280 55288 55296 55304 55312 55320 55328 55336 55344 55352 55360 55368 55376 55384 55392 55400 55408 55416 55424 55432 55440 55448 55456 55464 55472 55480 55488 55496 55504 55512 55520 55528 55536 55544 55552 55560 55568 55576 55584 55592 55600 55608 55616 55624 55632 55640 55648 55656 55664 55672 55680 55688 55696 55704 55712 55720 55728 55736 55744 55752 55760 55768 55776 55784 55792 55800 55808 55816 55824 55832 55840 55848 55856 55864 55872 55880 55888 55896 55904 55912 55920 55928 55936 55944 55952 55960 55968 55976 55984 55992 56000 56008 56016 56024 56032 56040 56048 56056 56064 56072 56080 56088 56096 56104 56112 56120 56128 56136 56144 56152 56160 56168 56176 56184 56192 56200 56208 56216 56224 56232 56240 56248 56256 56264 56272 56280 56288 56296 56304 56312 56320 56328 56336 56344 56352 56360 56368 56376 56384 56392 56400 56408 56416 56424 56432 56440 56448 56456 56464 56472 56480 56488 56496 56504 56512 56520 56528 56536 56544 56552 56560 56568 56576 56584 56592 56600 56608 56616 56624 56632 56640 56648 56656 56664 56672 56680 56688 56696 56704 56712 56720 56728 56736 56744 56752 56760 56768 56776 56784 56792 56800 56808 56816 56824 56832 56840 56848 56856 56864 56872 56880 56888 56896 56904 56912 56920 56928 56936 56944 56952 56960 56968 56976 56984 56992 57000 57008 57016 57024 57032 57040 57048 57056 57064 57072 57080 57088 57096 57104 57112 57120 57128 57136 57144 57152 57160 57168 57176 57184 57192 57200 57208 57216 57224 57232 57240 57248 57256 57264 57272 57280 57288 57296 57304 57312 57320 57328 57336 57344 57352 57360 57368 57376 57384 57392 57400 57408 57416 57424 57432 57440 57448 57456 57464 57472 57480 57488 57496 57504 57512 57520 57528 57536 57544 57552 57560 57568 57576 57584 57592 57600 57608 57616 57624 57632 57640 57648 57656 57664 57672 57680 57688 57696 57704 57712 57720 57728 57736 57744 57752 57760 57768 57776 57784 57792 57800 57808 57816 57824 57832 57840 57848 57856 57864 57872 57880 57888 57896 57904 57912 57920 57928 57936 57944 57952 57960 57968 57976 57984 57992 58000 58008 58016 58024 58032 58040 58048 58056 58064 58072 58080 58088 58096 58104 58112 58120 58128 58136 58144 58152 58160 58168 58176 58184 58192 58200 58208 58216 58224 58232 58240 58248 58256 58264 58272 58280 58288 58296 58304 58312 58320 58328 58336 58344 58352 58360 58368 58376 58384 58392 58400 58408 58416 58424 58432 58440 58448 58456 58464 58472 58480 58488 58496 58504 58512 58520 58528 58536 58544 58552 58560 58568 58576 58584 58592 58600 58608 58616 58624 58632 58640 58648 58656 58664 58672 58680 58688 58696 58704 58712 58720 58728 58736 58744 58752 58760 58768 58776 58784 58792 58800 58808 58816 58824 58832 58840 58848 58856 58864 58872 58880 58888 58896 58904 58912 58920 58928 58936 58944 58952 58960 58968 58976 58984 58992 59000 59008 59016 59024 59032 59040 59048 59056 59064 59072 59080 59088 59096 59104 59112 59120 59128 59136 59144 59152 59160 59168 59176 59184 59192 59200 59208 59216 59224 59232 59240 59248 59256 59264 59272 59280 59288 59296 59304 59312 59320 59328 59336 59344 59352 59360 59368 59376 59384 59392 59400 59408 59416 59424 59432 59440 59448 59456 59464 59472 59480 59488 59496 59504 59512 59520 59528 59536 59544 59552 59560 59568 59576 59584 59592 59600 59608 59616 59624 59632 59640 59648 59656 59664 59672 59680 59688 59696 59704 59712 59720 59728 59736 59744 59752 59760 59768 59776 59784 59792 59800 59808 59816 59824 59832 59840 59848 59856 59864 59872 59880 59888 59896 59904 59912 59920 59928 59936 59944 59952 59960 59968 59976 59984 59992 60000 60008 60016 60024 60032 60040 60048 60056 60064 60072 60080 60088 60096 60104 60112 60120 60128 60136 60144 60152 60160 60168 60176 60184 60192 60200 60208 60216 60224 60232 60240 60248 60256 60264 60272 60280 60288 60296 60304 60312 60320 60328 60336 60344 60352 60360 60368 60376 60384 60392 60400 60408 60416 60424 60432 60440 60448 60456 60464 60472 60480 60488 60496 60504 60512 60520 60528 60536 60544 60552 60560 60568 60576 60584 60592 60600 60608 60616 60624 60632 60640 60648 60656 60664 60672 60680 60688 60696 60704 60712 60720 60728 60736 60744 60752 60760 60768 60776 60784 60792 60800 60808 60816 60824 60832 60840 60848 60856 60864 60872 60880 60888 60896 60904 60912 60920 60928 60936 60944 60952 60960 60968 60976 60984 60992 61000 61008 61016 61024 61032 61040 61048 61056 61064 61072 61080 61088 61096 61104 61112 61120 61128 61136 61144 61152 61160 61168 61176 61184 61192 61200 61208 61216 61224 61232 61240 61248 61256 61264 61272 61280 61288 61296 61304 61312 61320 61328 61336 61344 61352 61360 61368 61376 61384 61392 61400 61408 61416 61424 61432 61440 61448 61456 61464 61472 61480 61488 61496 61504 61512 61520 61528 61536 61544 61552 61560 61568 61576 61584 61592 61600 61608 61616 61624 61632 61640 61648 61656 61664 61672 61680 61688 61696 61704 61712 61720 61728 61736 61744 61752 61760 61768 61776 61784 61792 61800 61808 61816 61824 61832 61840 61848 61856 61864 61872 61880 61888 61896 61904 61912 61920 61928 61936 61944 61952 61960 61968 61976 61984 61992 62000 62008 62016 62024 62032 62040 62048 62056 62064 62072 62080 62088 62096 62104 62112 62120 62128 62136 62144 62152 62160 62168 62176 62184 62192 62200 62208 62216 62224 62232 62240 62248 62256 62264 62272 62280 62288 62296 62304 62312 62320 62328 62336 62344 62352 62360 62368 62376 62384 62392 62400 62408 62416 62424 62432 62440 62448 62456 62464 62472 62480 62488 62496 62504 62512 62520 62528 62536 62544 62552 62560 62568 62576 62584 62592 62600 62608 62616 62624 62632 62640 62648 62656 62664 62672 62680 62688 62696 62704 62712 62720 62728 62736 62744 62752 62760 62768 62776 62784 62792 62800 62808 62816 62824 62832 62840 62848 62856 62864 62872 62880 62888 62896 62904 62912 62920 62928 62936 62944 62952 62960 62968 62976 62984 62992 63000 63008 63016 63024 63032 63040 63048 63056 63064 63072 63080 63088 63096 63104 63112 63120 63128 63136 63144 63152 63160 63168 63176 63184 63192 63200 63208 63216 63224 63232 63240 63248 63256 63264 63272 63280 63288 63296 63304 63312 63320 63328 63336 63344 63352 63360 63368 63376 63384 63392 63400 63408 63416 63424 63432 63440 63448 63456 63464 63472 63480 63488 63496 63504 63512 63520 63528 63536 63544 63552 63560 63568 63576 63584 63592 63600 63608 63616 63624 63632 63640 63648 63656 63664 63672 63680 63688 63696 63704 63712 63720 63728 63736 63744 63752 63760 63768 63776 63784 63792 63800 63808 63816 63824 63832 63840 63848 63856 63864 63872 63880 63888 63896 63904 63912 63920 63928 63936 63944 63952 63960 63968 63976 63984 63992 64000 64008 64016 64024 64032 64040 64048 64056 64064 64072 64080 64088 64096 64104 64112 64120 64128 64136 64144 64152 64160 64168 64176 64184 64192 64200 64208 64216 64224 64232 64240 64248 64256 64264 64272 64280 64288 64296 64304 64312 64320 64328 64336 64344 64352 64360 64368 64376 64384 64392 64400 64408 64416 64424 64432 64440 64448 64456 64464 64472 64480 64488 64496 64504 64512 64520 64528 64536 64544 64552 64560 64568 64576 64584 64592 64600 64608 64616 64624 64632 64640 64648 64656 64664 64672 64680 64688 64696 64704 64712 64720 64728 64736 64744 64752 64760 64768 64776 64784 64792 64800 64808 64816 64824 64832 64840 64848 64856 64864 64872 64880 64888 64896 64904 64912 64920 64928 64936 64944 64952 64960 64968 64976 64984 64992 65000 65008 65016 65024 65032 65040 65048 65056 65064 65072 65080 65088 65096 65104 65112 65120 65128 65136 65144 65152 65160 65168 65176 65184 65192 65200 65208 65216 65224 65232 65240 65248 65256 65264 65272 65280 65288 65296 65304 65312 65320 65328 65336 65344 65352 65360 65368 65376 65384 65392 65400 65408 65416 65424 65432 65440 65448 65456 65464 65472 65480 65488 65496 65504 65512 65520 65528 65536 65544 65552 65560 65568 65576 65584 65592 65600 65608 65616 65624 65632 65640 65648 65656 65664 65672 65680 65688 65696 65704 65712 65720 65728 65736 65744 65752 65760 65768 65776 65784 65792 65800 65808 65816 65824 65832 65840 65848 65856 65864 65872 65880 65888 65896 65904 65912 65920 65928 65936 65944 65952 65960 65968 65976 65984 65992 66000 66008 66016 66024 66032 66040 66048 66056 66064 66072 66080 66088 66096 66104 66112 66120 66128 66136 66144 66152 66160 66168 66176 66184 66192 66200 66208 66216 66224 66232 66240 66248 66256 66264 66272 66280 66288 66296 66304 66312 66320 66328 66336 66344 66352 66360 66368 66376 66384 66392 66400 66408 66416 66424 66432 66440 66448 66456 66464 66472 66480 66488 66496 66504 66512 66520 66528 66536 66544 66552 66560 66568 66576 66584 66592 66600 66608 66616 66624 66632 66640 66648 66656 66664 66672 66680 66688 66696 66704 66712 66720 66728 66736 66744 66752 66760 66768 66776 66784 66792 66800 66808 66816 66824 66832 66840 66848 66856 66864 66872 66880 66888 66896 66904 66912 66920 66928 66936 66944 66952 66960 66968 66976 66984 66992 67000 67008 67016 67024 67032 67040 67048 67056 67064 67072 67080 67088 67096 67104 67112 67120 67128 67136 67144 67152 67160 67168 67176 67184 67192 67200 67208 67216 67224 67232 67240 67248 67256 67264 67272 67280 67288 67296 67304 67312 67320 67328 67336 67344 67352 67360 67368 67376 67384 67392 67400 67408 67416 67424 67432 67440 67448 67456 67464 67472 67480 67488 67496 67504 67512 67520 67528 67536 67544 67552 67560 67568 67576 67584 67592 67600 67608 67616 67624 67632 67640 67648 67656 67664 67672 67680 67688 67696 67704 67712 67720 67728 67736 67744 67752 67760 67768 67776 67784 67792 67800 67808 67816 67824 67832 67840 67848 67856 67864 67872 67880 67888 67896 67904 67912 67920 67928 67936 67944 67952 67960 67968 67976 67984 67992 68000 68008 68016 68024 68032 68040 68048 68056 68064 68072 68080 68088 68096 68104 68112 68120 68128 68136 68144 68152 68160 68168 68176 68184 68192 68200 68208 68216 68224 68232 68240 68248 68256 68264 68272 68280 68288 68296 68304 68312 68320 68328 68336 68344 68352 68360 68368 68376 68384 68392 68400 68408 68416 68424 68432 68440 68448 68456 68464 68472 68480 68488 68496 68504 68512 68520 68528 68536 68544 68552 68560 68568 68576 68584 68592 68600 68608 68616 68624 68632 68640 68648 68656 68664 68672 68680 68688 68696 68704 68712 68720 68728 68736 68744 68752 68760 68768 68776 68784 68792 68800 68808 68816 68824 68832 68840 68848 68856 68864 68872 68880 68888 68896 68904 68912 68920 68928 68936 68944 68952 68960 68968 68976 68984 68992 69000 69008 69016 69024 69032 69040 69048 69056 69064 69072 69080 69088 69096 69104 69112 69120 69128 69136 69144 69152 69160 69168 69176 69184 69192 69200 69208 69216 69224 69232 69240 69248 69256 69264 69272 69280 69288 69296 69304 69312 69320 69328 69336 69344 69352 69360 69368 69376 69384 69392 69400 69408 69416 69424 69432 69440 69448 69456 69464 69472 69480 69488 69496 69504 69512 69520 69528 69536 69544 69552 69560 69568 69576 69584 69592 69600 69608 69616 69624 69632 69640 69648 69656 69664 69672 69680 69688 69696 69704 69712 69720 69728 69736 69744 69752 69760 69768 69776 69784 69792 69800 69808 69816 69824 69832 69840 69848 69856 69864 69872 69880 69888 69896 69904 69912 69920 69928 69936 69944 69952 69960 69968 69976 69984 69992 70000 70008 70016 70024 70032 70040 70048 70056 70064 70072 70080 70088 70096 70104 70112 70120 70128 70136 70144 70152 70160 70168 70176 70184 70192 70200 70208 70216 70224 70232 70240 70248 70256 70264 70272 70280 70288 70296 70304 70312 70320 70328 70336 70344 70352 70360 70368 70376 70384 70392 70400 70408 70416 70424 70432 70440 70448 70456 70464 70472 70480 70488 70496 70504 70512 70520 70528 70536 70544 70552 70560 70568 70576 70584 70592 70600 70608 70616 70624 70632 70640 70648 70656 70664 70672 70680 70688 70696 70704 70712 70720 70728 70736 70744 70752 70760 70768 70776 70784 70792 70800 70808 70816 70824 70832 70840 70848 70856 70864 70872 70880 70888 70896 70904 70912 70920 70928 70936 70944 70952 70960 70968 70976 70984 70992 71000 71008 71016 71024 71032 71040 71048 71056 71064 71072 71080 71088 71096 71104 71112 71120 71128 71136 71144 71152 71160 71168 71176 71184 71192 71200 71208 71216 71224 71232 71240 71248 71256 71264 71272 71280 71288 71296 71304 71312 71320 71328 71336 71344 71352 71360 71368 71376 71384 71392 71400 71408 71416 71424 71432 71440 71448 71456 71464 71472 71480 71488 71496 71504 71512 71520 71528 71536 71544 71552 71560 71568 71576 71584 71592 71600 71608 71616 71624 71632 71640 71648 71656 71664 71672 71680 71688 71696 71704 71712 71720 71728 71736 71744 71752 71760 71768 71776 71784 71792 71800 71808 71816 71824 71832 71840 71848 71856 71864 71872 71880 71888 71896 71904 71912 71920 71928 71936 71944 71952 71960 71968 71976 71984 71992 72000 72008 72016 72024 72032 72040 72048 72056 72064 72072 72080 72088 72096 72104 72112 72120 72128 72136 72144 72152 72160 72168 72176 72184 72192 72200 72208 72216 72224 72232 72240 72248 72256 72264 72272 72280 72288 72296 72304 72312 72320 72328 72336 72344 72352 72360 72368 72376 72384 72392 72400 72408 72416 72424 72432 72440 72448 72456 72464 72472 72480 72488 72496 72504 72512 72520 72528 72536 72544 72552 72560 72568 72576 72584 72592 72600 72608 72616 72624 72632 72640 72648 72656 72664 72672 72680 72688 72696 72704 72712 72720 72728 72736 72744 72752 72760 72768 72776 72784 72792 72800 72808 72816 72824 72832 72840 72848 72856 72864 72872 72880 72888 72896 72904 72912 72920 72928 72936 72944 72952 72960 72968 72976 72984 72992 73000 73008 73016 73024 73032 73040 73048 73056 73064 73072 73080 73088 73096 73104 73112 73120 73128 73136 73144 73152 73160 73168 73176 73184 73192 73200 73208 73216 73224 73232 73240 73248 73256 73264 73272 73280 73288 73296 73304 73312 73320 73328 73336 73344 73352 73360 73368 73376 73384 73392 73400 73408 73416 73424 73432 73440 73448 73456 73464 73472 73480 73488 73496 73504 73512 73520 73528 73536 73544 73552 73560 73568 73576 73584 73592 73600 73608 73616 73624 73632 73640 73648 73656 73664 73672 73680 73688 73696 73704 73712 73720 73728 73736 73744 73752 73760 73768 73776 73784 73792 73800 73808 73816 73824 73832 73840 73848 73856 73864 73872 73880 73888 73896 73904 73912 73920 73928 73936 73944 73952 73960 73968 73976 73984 73992 74000 74008 74016 74024 74032 74040 74048 74056 74064 74072 74080 74088 74096 74104 74112 74120 74128 74136 74144 74152 74160 74168 74176 74184 74192 74200 74208 74216 74224 74232 74240 74248 74256 74264 74272 74280 74288 74296 74304 74312 74320 74328 74336 74344 74352 74360 74368 74376 74384 74392 74400 74408 74416 74424 74432 74440 74448 74456 74464 74472 74480 74488 74496 74504 74512 74520 74528 74536 74544 74552 74560 74568 74576 74584 74592 74600 74608 74616 74624 74632 74640 74648 74656 74664 74672 74680 74688 74696 74704 74712 74720 74728 74736 74744 74752 74760 74768 74776 74784 74792 74800 74808 74816 74824 74832 74840 74848 74856 74864 74872 74880 74888 74896 74904 74912 74920 74928 74936 74944 74952 74960 74968 74976 74984 74992 75000 75008 75016 75024 75032 75040 75048 75056 75064 75072 75080 75088 75096 75104 75112 75120 75128 75136 75144 75152 75160 75168 75176 75184 75192 75200 75208 75216 75224 75232 75240 75248 75256 75264 75272 75280 75288 75296 75304 75312 75320 75328 75336 75344 75352 75360 75368 75376 75384 75392 75400 75408 75416 75424 75432 75440 75448 75456 75464 75472 75480 75488 75496 75504 75512 75520 75528 75536 75544 75552 75560 75568 75576 75584 75592 75600 75608 75616 75624 75632 75640 75648 75656 75664 75672 75680 75688 75696 75704 75712 75720 75728 75736 75744 75752 75760 75768 75776 75784 75792 75800 75808 75816 75824 75832 75840 75848 75856 75864 75872 75880 75888 75896 75904 75912 75920 75928 75936 75944 75952 75960 75968 75976 75984 75992 76000 76008 76016 76024 76032 76040 76048 76056 76064 76072 76080 76088 76096 76104 76112 76120 76128 76136 76144 76152 76160 76168 76176 76184 76192 76200 76208 76216 76224 76232 76240 76248 76256 76264 76272 76280 76288 76296 76304 76312 76320 76328 76336 76344 76352 76360 76368 76376 76384 76392 76400 76408 76416 76424 76432 76440 76448 76456 76464 76472 76480 76488 76496 76504 76512 76520 76528 76536 76544 76552 76560 76568 76576 76584 76592 76600 76608 76616 76624 76632 76640 76648 76656 76664 76672 76680 76688 76696 76704 76712 76720 76728 76736 76744 76752 76760 76768 76776 76784 76792 76800 76808 76816 76824 76832 76840 76848 76856 76864 76872 76880 76888 76896 76904 76912 76920 76928 76936 76944 76952 76960 76968 76976 76984 76992 77000 77008 77016 77024 77032 77040 77048 77056 77064 77072 77080 77088 77096 77104 77112 77120 77128 77136 77144 77152 77160 77168 77176 77184 77192 77200 77208 77216 77224 77232 77240 77248 77256 77264 77272 77280 77288 77296 77304 77312 77320 77328 77336 77344 77352 77360 77368 77376 77384 77392 77400 77408 77416 77424 77432 77440 77448 77456 77464 77472 77480 77488 77496 77504 77512 77520 77528 77536 77544 77552 77560 77568 77576 77584 77592 77600 77608 77616 77624 77632 77640 77648 77656 77664 77672 77680 77688 77696 77704 77712 77720 77728 77736 77744 77752 77760 77768 77776 77784 77792 77800 77808 77816 77824 77832 77840 77848 77856 77864 77872 77880 77888 77896 77904 77912 77920 77928 77936 77944 77952 77960 77968 77976 77984 77992 78000 78008 78016 78024 78032 78040 78048 78056 78064 78072 78080 78088 78096 78104 78112 78120 78128 78136 78144 78152 78160 78168 78176 78184 78192 78200 78208 78216 78224 78232 78240 78248 78256 78264 78272 78280 78288 78296 78304 78312 78320 78328 78336 78344 78352 78360 78368 78376 78384 78392 78400 78408 78416 78424 78432 78440 78448 78456 78464 78472 78480 78488 78496 78504 78512 78520 78528 78536 78544 78552 78560 78568 78576 78584 78592 78600 78608 78616 78624 78632 78640 78648 78656 78664 78672 78680 78688 78696 78704 78712 78720 78728 78736 78744 78752 78760 78768 78776 78784 78792 78800 78808 78816 78824 78832 78840 78848 78856 78864 78872 78880 78888 78896 78904 78912 78920 78928 78936 78944 78952 78960 78968 78976 78984 78992 79000 79008 79016 79024 79032 79040 79048 79056 79064 79072 79080 79088 79096 79104 79112 79120 79128 79136 79144 79152 79160 79168 79176 79184 79192 79200 79208 79216 79224 79232 79240 79248 79256 79264 79272 79280 79288 79296 79304 79312 79320 79328 79336 79344 79352 79360 79368 79376 79384 79392 79400 79408 79416 79424 79432 79440 79448 79456 79464 79472 79480 79488 79496 79504 79512 79520 79528 79536 79544 79552 79560 79568 79576 79584 79592 79600 79608 79616 79624 79632 79640 79648 79656 79664 79672 79680 79688 79696 79704 79712 79720 79728 79736 79744 79752 79760 79768 79776 79784 79792 79800 79808 79816 79824 79832 79840 79848 79856 79864 79872 79880 79888 79896 79904 79912 79920 79928 79936 79944 79952 79960 79968 79976 79984 79992 80000 </DataArray>
<DataArray type="UInt8"                                    Name="types"                                                      NumberOfComponents=" 1" format="ascii">
12 12 12 12 12 12 12 12 12 12 12 12 12 12 12 12 12 12 12 12 12 12 12 12 12 12 12 12 12 12 12 12 12 12 12 12 12 12 12 12 12 12 12 12 12 12 12 12 12 12 12 12 12 12 12 12 12 12 12 12 12 12 12 12 12 12 12 12 12 12 12 12 12 12 12 12 12 12 12 12 12 12 12 12 12 12 12 12 12 12 12 12 12 12 12 12 12 12 12 12 12 12 12 12 12 12 12 12 12 12 12 12 12 12 12 12 12 12 12 12 12 12 12 12 12 12 12 12 12 12 12 12 12 12 12 12 12 12 12 12 12 12 12 12 12 12 12 12 12 12 12 12 12 12 12 12 12 12 12 12 12 12 12 12 12 12 12 12 12 12 12 12 12 12 12 12 12 12 12 12 12 12 12 12 12 12 12 12 12 12 12 12 12 12 12 12 12 12 12 12 12 12 12 12 12 12 12 12 12 12 12 12 12 12 12 12 12 12 12 12 12 12 12 12 12 12 12 12 12 12 12 12 12 12 12 12 12 12 12 12 12 12 12 12 12 12 12 12 12 12 12 12 12 12 12 12 12 12 12 12 12 12 12 12 12 12 12 12 12 12 12 12 12 12 12 12 12 12 12 12 12 12 12 12 12 12 12 12 12 12 12 12 12 12 12 12 12 12 12 12 12 12 12 12 12 12 12 12 12 12 12 12 12 12 12 12 12 12 12 12 12 12 12 12 12 12 12 12 12 12 12 12 12 12 12 12 12 12 12 12 12 12 12 12 12 12 12 12 12 12 12 12 12 12 12 12 12 12 12 12 12 12 12 12 12 12 12 12 12 12 12 12 12 12 12 12 12 12 12 12 12 12 12 12 12 12 12 12 12 12 12 12 12 12 12 12 12 12 12 12 12 12 12 12 12 12 12 12 12 12 12 12 12 12 12 12 12 12 12 12 12 12 12 12 12 12 12 12 12 12 12 12 12 12 12 12 12 12 12 12 12 12 12 12 12 12 12 12 12 12 12 12 12 12 12 12 12 12 12 12 12 12 12 12 12 12 12 12 12 12 12 12 12 12 12 12 12 12 12 12 12 12 12 12 12 12 12 12 12 12 12 12 12 12 12 12 12 12 12 12 12 12 12 12 12 12 12 12 12 12 12 12 12 12 12 12 12 12 12 12 12 12 12 12 12 12 12 12 12 12 12 12 12 12 12 12 12 12 12 12 12 12 12 12 12 12 12 12 12 12 12 12 12 12 12 12 12 12 12 12 12 12 12 12 12 12 12 12 12 12 12 12 12 12 12 12 12 12 12 12 12 12 12 12 12 12 12 12 12 12 12 12 12 12 12 12 12 12 12 12 12 12 12 12 12 12 12 12 12 12 12 12 12 12 12 12 12 12 12 12 12 12 12 12 12 12 12 12 12 12 12 12 12 12 12 12 12 12 12 12 12 12 12 12 12 12 12 12 12 12 12 12 12 12 12 12 12 12 12 12 12 12 12 12 12 12 12 12 12 12 12 12 12 12 12 12 12 12 12 12 12 12 12 12 12 12 12 12 12 12 12 12 12 12 12 12 12 12 12 12 12 12 12 12 12 12 12 12 12 12 12 12 12 12 12 12 12 12 12 12 12 12 12 12 12 12 12 12 12 12 12 12 12 12 12 12 12 12 12 12 12 12 12 12 12 12 12 12 12 12 12 12 12 12 12 12 12 12 12 12 12 12 12 12 12 12 12 12 12 12 12 12 12 12 12 12 12 12 12 12 12 12 12 12 12 12 12 12 12 12 12 12 12 12 12 12 12 12 12 12 12 12 12 12 12 12 12 12 12 12 12 12 12 12 12 12 12 12 12 12 12 12 12 12 12 12 12 12 12 12 12 12 12 12 12 12 12 12 12 12 12 12 12 12 12 12 12 12 12 12 12 12 12 12 12 12 12 12 12 12 12 12 12 12 12 12 12 12 12 12 12 12 12 12 12 12 12 12 12 12 12 12 12 12 12 12 12 12 12 12 12 12 12 12 12 12 12 12 12 12 12 12 12 12 12 12 12 12 12 12 12 12 12 12 12 12 12 12 12 12 12 12 12 12 12 12 12 12 12 12 12 12 12 12 12 12 12 12 12 12 12 12 12 12 12 12 12 12 12 12 12 12 12 12 12 12 12 12 12 12 12 12 12 12 12 12 12 12 12 12 12 12 12 12 12 12 12 12 12 12 12 12 12 12 12 12 12 12 12 12 12 12 12 12 12 12 12 12 12 12 12 12 12 12 12 12 12 12 12 12 12 12 12 12 12 12 12 12 12 12 12 12 12 12 12 12 12 12 12 12 12 12 12 12 12 12 12 12 12 12 12 12 12 12 12 12 12 12 12 12 12 12 12 12 12 12 12 12 12 12 12 12 12 12 12 12 12 12 12 12 12 12 12 12 12 12 12 12 12 12 12 12 12 12 12 12 12 12 12 12 12 12 12 12 12 12 12 12 12 12 12 12 12 12 12 12 12 12 12 12 12 12 12 12 12 12 12 12 12 12 12 12 12 12 12 12 12 12 12 12 12 12 12 12 12 12 12 12 12 12 12 12 12 12 12 12 12 12 12 12 12 12 12 12 12 12 12 12 12 12 12 12 12 12 12 12 12 12 12 12 12 12 12 12 12 12 12 12 12 12 12 12 12 12 12 12 12 12 12 12 12 12 12 12 12 12 12 12 12 12 12 12 12 12 12 12 12 12 12 12 12 12 12 12 12 12 12 12 12 12 12 12 12 12 12 12 12 12 12 12 12 12 12 12 12 12 12 12 12 12 12 12 12 12 12 12 12 12 12 12 12 12 12 12 12 12 12 12 12 12 12 12 12 12 12 12 12 12 12 12 12 12 12 12 12 12 12 12 12 12 12 12 12 12 12 12 12 12 12 12 12 12 12 12 12 12 12 12 12 12 12 12 12 12 12 12 12 12 12 12 12 12 12 12 12 12 12 12 12 12 12 12 12 12 12 12 12 12 12 12 12 12 12 12 12 12 12 12 12 12 12 12 12 12 12 12 12 12 12 12 12 12 12 12 12 12 12 12 12 12 12 12 12 12 12 12 12 12 12 12 12 12 12 12 12 12 12 12 12 12 12 12 12 12 12 12 12 12 12 12 12 12 12 12 12 12 12 12 12 12 12 12 12 12 12 12 12 12 12 12 12 12 12 12 12 12 12 12 12 12 12 12 12 12 12 12 12 12 12 12 12 12 12 12 12 12 12 12 12 12 12 12 12 12 12 12 12 12 12 12 12 12 12 12 12 12 12 12 12 12 12 12 12 12 12 12 12 12 12 12 12 12 12 12 12 12 12 12 12 12 12 12 12 12 12 12 12 12 12 12 12 12 12 12 12 12 12 12 12 12 12 12 12 12 12 12 12 12 12 12 12 12 12 12 12 12 12 12 12 12 12 12 12 12 12 12 12 12 12 12 12 12 12 12 12 12 12 12 12 12 12 12 12 12 12 12 12 12 12 12 12 12 12 12 12 12 12 12 12 12 12 12 12 12 12 12 12 12 12 12 12 12 12 12 12 12 12 12 12 12 12 12 12 12 12 12 12 12 12 12 12 12 12 12 12 12 12 12 12 12 12 12 12 12 12 12 12 12 12 12 12 12 12 12 12 12 12 12 12 12 12 12 12 12 12 12 12 12 12 12 12 12 12 12 12 12 12 12 12 12 12 12 12 12 12 12 12 12 12 12 12 12 12 12 12 12 12 12 12 12 12 12 12 12 12 12 12 12 12 12 12 12 12 12 12 12 12 12 12 12 12 12 12 12 12 12 12 12 12 12 12 12 12 12 12 12 12 12 12 12 12 12 12 12 12 12 12 12 12 12 12 12 12 12 12 12 12 12 12 12 12 12 12 12 12 12 12 12 12 12 12 12 12 12 12 12 12 12 12 12 12 12 12 12 12 12 12 12 12 12 12 12 12 12 12 12 12 12 12 12 12 12 12 12 12 12 12 12 12 12 12 12 12 12 12 12 12 12 12 12 12 12 12 12 12 12 12 12 12 12 12 12 12 12 12 12 12 12 12 12 12 12 12 12 12 12 12 12 12 12 12 12 12 12 12 12 12 12 12 12 12 12 12 12 12 12 12 12 12 12 12 12 12 12 12 12 12 12 12 12 12 12 12 12 12 12 12 12 12 12 12 12 12 12 12 12 12 12 12 12 12 12 12 12 12 12 12 12 12 12 12 12 12 12 12 12 12 12 12 12 12 12 12 12 12 12 12 12 12 12 12 12 12 12 12 12 12 12 12 12 12 12 12 12 12 12 12 12 12 12 12 12 12 12 12 12 12 12 12 12 12 12 12 12 12 12 12 12 12 12 12 12 12 12 12 12 12 12 12 12 12 12 12 12 12 12 12 12 12 12 12 12 12 12 12 12 12 12 12 12 12 12 12 12 12 12 12 12 12 12 12 12 12 12 12 12 12 12 12 12 12 12 12 12 12 12 12 12 12 12 12 12 12 12 12 12 12 12 12 12 12 12 12 12 12 12 12 12 12 12 12 12 12 12 12 12 12 12 12 12 12 12 12 12 12 12 12 12 12 12 12 12 12 12 12 12 12 12 12 12 12 12 12 12 12 12 12 12 12 12 12 12 12 12 12 12 12 12 12 12 12 12 12 12 12 12 12 12 12 12 12 12 12 12 12 12 12 12 12 12 12 12 12 12 12 12 12 12 12 12 12 12 12 12 12 12 12 12 12 12 12 12 12 12 12 12 12 12 12 12 12 12 12 12 12 12 12 12 12 12 12 12 12 12 12 12 12 12 12 12 12 12 12 12 12 12 12 12 12 12 12 12 12 12 12 12 12 12 12 12 12 12 12 12 12 12 12 12 12 12 12 12 12 12 12 12 12 12 12 12 12 12 12 12 12 12 12 12 12 12 12 12 12 12 12 12 12 12 12 12 12 12 12 12 12 12 12 12 12 12 12 12 12 12 12 12 12 12 12 12 12 12 12 12 12 12 12 12 12 12 12 12 12 12 12 12 12 12 12 12 12 12 12 12 12 12 12 12 12 12 12 12 12 12 12 12 12 12 12 12 12 12 12 12 12 12 12 12 12 12 12 12 12 12 12 12 12 12 12 12 12 12 12 12 12 12 12 12 12 12 12 12 12 12 12 12 12 12 12 12 12 12 12 12 12 12 12 12 12 12 12 12 12 12 12 12 12 12 12 12 12 12 12 12 12 12 12 12 12 12 12 12 12 12 12 12 12 12 12 12 12 12 12 12 12 12 12 12 12 12 12 12 12 12 12 12 12 12 12 12 12 12 12 12 12 12 12 12 12 12 12 12 12 12 12 12 12 12 12 12 12 12 12 12 12 12 12 12 12 12 12 12 12 12 12 12 12 12 12 12 12 12 12 12 12 12 12 12 12 12 12 12 12 12 12 12 12 12 12 12 12 12 12 12 12 12 12 12 12 12 12 12 12 12 12 12 12 12 12 12 12 12 12 12 12 12 12 12 12 12 12 12 12 12 12 12 12 12 12 12 12 12 12 12 12 12 12 12 12 12 12 12 12 12 12 12 12 12 12 12 12 12 12 12 12 12 12 12 12 12 12 12 12 12 12 12 12 12 12 12 12 12 12 12 12 12 12 12 12 12 12 12 12 12 12 12 12 12 12 12 12 12 12 12 12 12 12 12 12 12 12 12 12 12 12 12 12 12 12 12 12 12 12 12 12 12 12 12 12 12 12 12 12 12 12 12 12 12 12 12 12 12 12 12 12 12 12 12 12 12 12 12 12 12 12 12 12 12 12 12 12 12 12 12 12 12 12 12 12 12 12 12 12 12 12 12 12 12 12 12 12 12 12 12 12 12 12 12 12 12 12 12 12 12 12 12 12 12 12 12 12 12 12 12 12 12 12 12 12 12 12 12 12 12 12 12 12 12 12 12 12 12 12 12 12 12 12 12 12 12 12 12 12 12 12 12 12 12 12 12 12 12 12 12 12 12 12 12 12 12 12 12 12 12 12 12 12 12 12 12 12 12 12 12 12 12 12 12 12 12 12 12 12 12 12 12 12 12 12 12 12 12 12 12 12 12 12 12 12 12 12 12 12 12 12 12 12 12 12 12 12 12 12 12 12 12 12 12 12 12 12 12 12 12 12 12 12 12 12 12 12 12 12 12 12 12 12 12 12 12 12 12 12 12 12 12 12 12 12 12 12 12 12 12 12 12 12 12 12 12 12 12 12 12 12 12 12 12 12 12 12 12 12 12 12 12 12 12 12 12 12 12 12 12 12 12 12 12 12 12 12 12 12 12 12 12 12 12 12 12 12 12 12 12 12 12 12 12 12 12 12 12 12 12 12 12 12 12 12 12 12 12 12 12 12 12 12 12 12 12 12 12 12 12 12 12 12 12 12 12 12 12 12 12 12 12 12 12 12 12 12 12 12 12 12 12 12 12 12 12 12 12 12 12 12 12 12 12 12 12 12 12 12 12 12 12 12 12 12 12 12 12 12 12 12 12 12 12 12 12 12 12 12 12 12 12 12 12 12 12 12 12 12 12 12 12 12 12 12 12 12 12 12 12 12 12 12 12 12 12 12 12 12 12 12 12 12 12 12 12 12 12 12 12 12 12 12 12 12 12 12 12 12 12 12 12 12 12 12 12 12 12 12 12 12 12 12 12 12 12 12 12 12 12 12 12 12 12 12 12 12 12 12 12 12 12 12 12 12 12 12 12 12 12 12 12 12 12 12 12 12 12 12 12 12 12 12 12 12 12 12 12 12 12 12 12 12 12 12 12 12 12 12 12 12 12 12 12 12 12 12 12 12 12 12 12 12 12 12 12 12 12 12 12 12 12 12 12 12 12 12 12 12 12 12 12 12 12 12 12 12 12 12 12 12 12 12 12 12 12 12 12 12 12 12 12 12 12 12 12 12 12 12 12 12 12 12 12 12 12 12 12 12 12 12 12 12 12 12 12 12 12 12 12 12 12 12 12 12 12 12 12 12 12 12 12 12 12 12 12 12 12 12 12 12 12 12 12 12 12 12 12 12 12 12 12 12 12 12 12 12 12 12 12 12 12 12 12 12 12 12 12 12 12 12 12 12 12 12 12 12 12 12 12 12 12 12 12 12 12 12 12 12 12 12 12 12 12 12 12 12 12 12 12 12 12 12 12 12 12 12 12 12 12 12 12 12 12 12 12 12 12 12 12 12 12 12 12 12 12 12 12 12 12 12 12 12 12 12 12 12 12 12 12 12 12 12 12 12 12 12 12 12 12 12 12 12 12 12 12 12 12 12 12 12 12 12 12 12 12 12 12 12 12 12 12 12 12 12 12 12 12 12 12 12 12 12 12 12 12 12 12 12 12 12 12 12 12 12 12 12 12 12 12 12 12 12 12 12 12 12 12 12 12 12 12 12 12 12 12 12 12 12 12 12 12 12 12 12 12 12 12 12 12 12 12 12 12 12 12 12 12 12 12 12 12 12 12 12 12 12 12 12 12 12 12 12 12 12 12 12 12 12 12 12 12 12 12 12 12 12 12 12 12 12 12 12 12 12 12 12 12 12 12 12 12 12 12 12 12 12 12 12 12 12 12 12 12 12 12 12 12 12 12 12 12 12 12 12 12 12 12 12 12 12 12 12 12 12 12 12 12 12 12 12 12 12 12 12 12 12 12 12 12 12 12 12 12 12 12 12 12 12 12 12 12 12 12 12 12 12 12 12 12 12 12 12 12 12 12 12 12 12 12 12 12 12 12 12 12 12 12 12 12 12 12 12 12 12 12 12 12 12 12 12 12 12 12 12 12 12 12 12 12 12 12 12 12 12 12 12 12 12 12 12 12 12 12 12 12 12 12 12 12 12 12 12 12 12 12 12 12 12 12 12 12 12 12 12 12 12 12 12 12 12 12 12 12 12 12 12 12 12 12 12 12 12 12 12 12 12 12 12 12 12 12 12 12 12 12 12 12 12 12 12 12 12 12 12 12 12 12 12 12 12 12 12 12 12 12 12 12 12 12 12 12 12 12 12 12 12 12 12 12 12 12 12 12 12 12 12 12 12 12 12 12 12 12 12 12 12 12 12 12 12 12 12 12 12 12 12 12 12 12 12 12 12 12 12 12 12 12 12 12 12 12 12 12 12 12 12 12 12 12 12 12 12 12 12 12 12 12 12 12 12 12 12 12 12 12 12 12 12 12 12 12 12 12 12 12 12 12 12 12 12 12 12 12 12 12 12 12 12 12 12 12 12 12 12 12 12 12 12 12 12 12 12 12 12 12 12 12 12 12 12 12 12 12 12 12 12 12 12 12 12 12 12 12 12 12 12 12 12 12 12 12 12 12 12 12 12 12 12 12 12 12 12 12 12 12 12 12 12 12 12 12 12 12 12 12 12 12 12 12 12 12 12 12 12 12 12 12 12 12 12 12 12 12 12 12 12 12 12 12 12 12 12 12 12 12 12 12 12 12 12 12 12 12 12 12 12 12 12 12 12 12 12 12 12 12 12 12 12 12 12 12 12 12 12 12 12 12 12 12 12 12 12 12 12 12 12 12 12 12 12 12 12 12 12 12 12 12 12 12 12 12 12 12 12 12 12 12 12 12 12 12 12 12 12 12 12 12 12 12 12 12 12 12 12 12 12 12 12 12 12 12 12 12 12 12 12 12 12 12 12 12 12 12 12 12 12 12 12 12 12 12 12 12 12 12 12 12 12 12 12 12 12 12 12 12 12 12 12 12 12 12 12 12 12 12 12 12 12 12 12 12 12 12 12 12 12 12 12 12 12 12 12 12 12 12 12 12 12 12 12 12 12 12 12 12 12 12 12 12 12 12 12 12 12 12 12 12 12 12 12 12 12 12 12 12 12 12 12 12 12 12 12 12 12 12 12 12 12 12 12 12 12 12 12 12 12 12 12 12 12 12 12 12 12 12 12 12 12 12 12 12 12 12 12 12 12 12 12 12 12 12 12 12 12 12 12 12 12 12 12 12 12 12 12 12 12 12 12 12 12 12 12 12 12 12 12 12 12 12 12 12 12 12 12 12 12 12 12 12 12 12 12 12 12 12 12 12 12 12 12 12 12 12 12 12 12 12 12 12 12 12 12 12 12 12 12 12 12 12 12 12 12 12 12 12 12 12 12 12 12 12 12 12 12 12 12 12 12 12 12 12 12 12 12 12 12 12 12 12 12 12 12 12 12 12 12 12 12 12 12 12 12 12 12 12 12 12 12 12 12 12 12 12 12 12 12 12 12 12 12 12 12 12 12 12 12 12 12 12 12 12 12 12 12 12 12 12 12 12 12 12 12 12 12 12 12 12 12 12 12 12 12 12 12 12 12 12 12 12 12 12 12 12 12 12 12 12 12 12 12 12 12 12 12 12 12 12 12 12 12 12 12 12 12 12 12 12 12 12 12 12 12 12 12 12 12 12 12 12 12 12 12 12 12 12 12 12 12 12 12 12 12 12 12 12 12 12 12 12 12 12 12 12 12 12 12 12 12 12 12 12 12 12 12 12 12 12 12 12 12 12 12 12 12 12 12 12 12 12 12 12 12 12 12 12 12 12 12 12 12 12 12 12 12 12 12 12 12 12 12 12 12 12 12 12 12 12 12 12 12 12 12 12 12 12 12 12 12 12 12 12 12 12 12 12 12 12 12 12 12 12 12 12 12 12 12 12 12 12 12 12 12 12 12 12 12 12 12 12 12 12 12 12 12 12 12 12 12 12 12 12 12 12 12 12 12 12 12 12 12 12 12 12 12 12 12 12 12 12 12 12 12 12 12 12 12 12 12 12 12 12 12 12 12 12 12 12 12 12 12 12 12 12 12 12 12 12 12 12 12 12 12 12 12 12 12 12 12 12 12 12 12 12 12 12 12 12 12 12 12 12 12 12 12 12 12 12 12 12 12 12 12 12 12 12 12 12 12 12 12 12 12 12 12 12 12 12 12 12 12 12 12 12 12 12 12 12 12 12 12 12 12 12 12 12 12 12 12 12 12 12 12 12 12 12 12 12 12 12 12 12 12 12 12 12 12 12 12 12 12 12 12 12 12 12 12 12 12 12 12 12 12 12 12 12 12 12 12 12 12 12 12 12 12 12 12 12 12 12 12 12 12 12 12 12 12 12 12 12 12 12 12 12 12 12 12 12 12 12 12 12 12 12 12 12 12 12 12 12 12 12 12 12 12 12 12 12 12 12 12 12 12 12 12 12 12 12 12 12 12 12 12 12 12 12 12 12 12 12 12 12 12 12 12 12 12 12 12 12 12 12 12 12 12 12 12 12 12 12 12 12 12 12 12 12 12 12 12 12 12 12 12 12 12 12 12 12 12 12 12 12 12 12 12 12 12 12 12 12 12 12 12 12 12 12 12 12 12 12 12 12 12 12 12 12 12 12 12 12 12 12 12 12 12 12 12 12 12 12 12 12 12 12 12 12 12 12 12 12 12 12 12 12 12 12 12 12 12 12 12 12 12 12 12 12 12 12 12 12 12 12 12 12 12 12 12 12 12 12 12 12 12 12 12 12 12 12 12 12 12 12 12 12 12 12 12 12 12 12 12 12 12 12 12 12 12 12 12 12 12 12 12 12 12 12 12 12 12 12 12 12 12 12 12 12 12 12 12 12 12 12 12 12 12 12 12 12 12 12 12 12 12 12 12 12 12 12 12 12 12 12 12 12 12 12 12 12 12 12 12 12 12 12 12 12 12 12 12 12 12 12 12 12 12 12 12 12 12 12 12 12 12 12 12 12 12 12 12 12 12 12 12 12 12 12 12 12 12 12 12 12 12 12 12 12 12 12 12 12 12 12 12 12 12 12 12 12 12 12 12 12 12 12 12 12 12 12 12 12 12 12 12 12 12 12 12 12 12 12 12 12 12 12 12 12 12 12 12 12 12 12 12 12 12 12 12 12 12 12 12 12 12 12 12 12 12 12 12 12 12 12 12 12 12 12 12 12 12 12 12 12 12 12 12 12 12 12 12 12 12 12 12 12 12 12 12 12 12 12 12 12 12 12 12 12 12 12 12 12 12 12 12 12 12 12 12 12 12 12 12 12 12 12 12 12 12 12 12 12 12 12 12 12 12 12 12 12 12 12 12 12 12 12 12 12 12 12 12 12 12 12 12 12 12 12 12 12 12 12 12 12 12 12 12 12 12 12 12 12 12 12 12 12 12 12 12 12 12 12 12 12 12 12 12 12 12 12 12 12 12 12 12 12 12 12 12 12 12 12 12 12 12 12 12 12 12 12 12 12 12 12 12 12 12 12 12 12 12 12 12 12 12 12 12 12 12 12 12 12 12 12 12 12 12 12 12 12 12 12 12 12 12 12 12 12 12 12 12 12 12 12 12 12 12 12 12 12 12 12 12 12 12 12 12 12 12 12 12 12 12 12 12 12 12 12 12 12 12 12 12 12 12 12 12 12 12 12 12 12 12 12 12 12 12 12 12 12 12 12 12 12 12 12 12 12 12 12 12 12 12 12 12 12 12 12 12 12 12 12 12 12 12 12 12 12 12 12 12 12 12 12 12 12 12 12 12 12 12 12 12 12 12 12 12 12 12 12 12 12 12 12 12 12 12 12 12 12 12 12 12 12 12 12 12 12 12 12 12 12 12 12 12 12 12 12 12 12 12 12 12 12 12 12 12 12 12 12 12 12 12 12 12 12 12 12 12 12 12 12 12 12 12 12 12 12 12 12 12 12 12 12 12 12 12 12 12 12 12 12 12 12 12 12 12 12 12 12 12 12 12 12 12 12 12 12 12 12 12 12 12 12 12 12 12 12 12 12 12 12 12 12 12 12 12 12 12 12 12 12 12 12 12 12 12 12 12 12 12 12 12 12 12 12 12 12 12 12 12 12 12 12 12 12 12 12 12 12 12 12 12 12 12 12 12 12 12 12 12 12 12 12 12 12 12 12 12 12 12 12 12 12 12 12 12 12 12 12 12 12 12 12 12 12 12 12 12 12 12 12 12 12 12 12 12 12 12 12 12 12 12 12 12 12 12 12 12 12 12 12 12 12 12 12 12 12 12 12 12 12 12 12 12 12 12 12 12 12 12 12 12 12 12 12 12 12 12 12 12 12 12 12 12 12 12 12 12 12 12 12 12 12 12 12 12 12 12 12 12 12 12 12 12 12 12 12 12 12 12 12 12 12 12 12 12 12 12 12 12 12 12 12 12 12 12 12 12 12 12 12 12 12 12 12 12 12 12 12 12 12 12 12 12 12 12 12 12 12 12 12 12 12 12 12 12 12 12 12 12 12 12 12 12 12 12 12 12 12 12 12 12 12 12 12 12 12 12 12 12 12 12 12 12 12 12 12 12 12 12 12 12 12 12 12 12 12 12 12 12 12 12 12 12 12 12 12 12 12 12 12 12 12 12 12 12 12 12 12 12 12 12 12 12 12 12 12 12 12 12 12 12 12 12 12 12 12 12 12 12 12 12 12 12 12 12 12 12 12 12 12 12 12 12 12 12 12 12 12 12 12 12 12 12 12 12 12 12 12 12 12 12 12 12 12 12 12 12 12 12 12 12 12 12 12 12 12 12 12 12 12 12 12 12 12 12 12 12 12 12 12 12 12 12 12 12 12 12 12 12 12 12 12 12 12 12 12 12 12 12 12 12 12 12 12 12 12 12 12 12 12 12 12 12 12 12 12 12 12 12 12 12 12 12 12 12 12 12 12 12 12 12 12 12 12 12 12 12 12 12 12 12 12 12 12 12 12 12 12 12 12 12 12 12 12 12 12 12 12 12 12 12 12 12 12 12 12 12 12 12 12 12 12 12 12 12 12 12 12 12 12 12 12 12 12 12 12 12 12 12 12 12 12 12 12 12 12 12 12 12 12 12 12 12 12 12 12 12 12 12 12 12 12 12 12 12 12 12 12 12 12 12 12 12 12 12 12 12 12 12 12 12 12 12 12 12 12 12 12 12 12 12 12 12 12 12 12 12 12 12 12 12 12 12 12 12 12 12 12 12 12 12 12 12 12 12 12 12 12 12 12 12 12 12 12 12 12 12 12 12 12 12 12 12 12 12 12 12 12 12 12 12 12 12 12 12 12 12 12 12 12 12 12 12 12 12 12 12 12 12 12 12 12 12 12 12 12 12 12 12 12 12 12 12 12 12 12 12 12 12 12 12 12 12 12 12 12 12 12 12 12 12 12 12 12 12 12 12 12 12 12 12 12 12 12 12 12 12 12 12 12 12 12 12 12 12 12 12 12 12 12 12 12 12 12 12 12 12 12 12 12 12 12 12 12 12 12 12 12 12 12 12 12 12 12 12 12 12 12 12 12 12 12 12 12 12 12 12 12 12 12 12 12 12 12 12 12 12 12 12 12 12 12 12 12 12 12 12 12 12 12 12 12 12 12 12 12 12 12 12 12 12 12 12 12 12 12 12 12 12 12 12 12 12 12 12 12 12 12 12 12 12 12 12 12 12 12 12 12 12 12 12 12 12 12 12 12 12 12 12 12 12 12 12 12 12 12 12 12 12 12 12 12 12 12 12 12 12 12 12 12 12 12 12 12 12 12 12 12 12 12 12 12 12 12 12 12 12 12 12 12 12 12 12 12 12 12 12 12 12 12 12 12 12 12 12 12 12 12 12 12 12 12 12 12 12 12 12 12 12 12 12 12 12 12 12 12 12 12 12 12 12 12 12 12 12 12 12 12 12 12 12 12 12 12 12 12 12 12 12 12 12 12 12 12 12 12 12 12 12 12 12 12 12 12 12 12 12 12 12 12 12 12 12 12 12 12 12 12 12 12 12 12 12 12 12 12 12 12 12 12 12 12 12 12 12 12 12 12 12 12 12 12 12 12 12 12 12 12 12 12 12 12 12 12 12 12 12 12 12 12 12 12 12 12 12 12 12 12 12 12 12 12 12 12 12 12 12 12 12 12 12 12 12 12 12 12 12 12 12 12 12 12 12 12 12 12 12 12 12 12 12 12 12 12 12 12 12 12 12 12 12 12 12 12 12 12 12 12 12 12 12 12 12 12 12 12 12 12 12 12 12 12 12 12 12 12 12 12 12 12 12 12 12 12 12 12 12 12 12 12 12 12 12 12 12 12 12 12 12 12 12 12 12 12 12 12 12 12 12 12 12 12 12 12 12 12 12 12 12 12 12 12 12 12 12 12 12 12 12 12 12 12 12 12 12 12 12 12 12 12 12 12 12 12 12 12 12 12 12 12 12 12 12 12 12 12 12 12 12 12 12 12 12 12 12 12 12 12 12 12 12 12 12 12 12 12 12 12 12 12 12 12 12 12 12 12 12 12 12 12 12 12 12 12 12 12 12 12 12 12 12 12 12 12 12 12 12 12 12 12 12 12 12 12 12 12 12 12 12 12 12 12 12 12 12 12 12 12 12 12 12 12 12 12 12 12 12 12 12 12 12 12 12 12 12 12 12 12 12 12 12 12 12 12 12 12 12 12 12 12 12 12 12 12 12 12 12 12 12 12 12 12 12 12 12 12 12 12 12 12 12 12 12 12 12 12 12 12 12 12 12 12 12 12 12 12 12 12 12 12 12 12 12 12 12 12 12 12 12 12 12 12 12 12 12 12 12 12 12 12 12 12 12 12 12 12 12 12 12 12 12 12 12 12 12 12 12 12 12 12 12 12 12 12 12 12 12 12 12 12 12 12 12 12 12 12 12 12 12 12 12 12 12 12 12 12 12 12 12 12 12 12 12 12 12 12 12 12 12 12 12 12 12 12 12 12 12 12 12 12 12 12 12 12 12 12 12 12 12 12 12 12 12 12 12 12 12 12 12 12 12 12 12 12 12 12 12 12 12 12 12 12 12 12 12 12 12 12 12 12 12 12 12 12 12 12 12 12 12 12 12 12 12 12 12 12 12 12 12 12 12 12 12 12 12 12 12 12 12 12 12 12 12 12 12 12 12 12 12 12 12 12 12 12 12 12 12 12 12 12 12 12 12 12 12 12 12 12 12 12 12 12 12 12 12 12 12 12 12 12 12 12 12 12 12 12 12 12 12 12 12 12 12 12 12 12 12 12 12 12 12 12 12 12 12 12 12 12 12 12 12 12 12 12 12 12 12 12 12 12 12 12 12 12 12 12 12 12 12 12 12 12 12 12 12 12 12 12 12 12 12 12 12 12 12 12 12 12 12 12 12 12 12 12 12 12 12 12 12 12 12 12 12 12 12 12 12 12 12 12 12 12 12 12 12 12 12 12 12 12 12 12 12 12 12 12 12 12 12 12 12 12 12 12 12 12 12 12 12 12 12 12 12 12 12 12 12 12 12 12 12 12 12 12 12 12 12 12 12 12 12 12 12 12 12 12 12 12 12 12 12 12 12 12 12 12 12 12 12 12 12 12 12 12 12 12 12 12 12 12 12 12 12 12 12 12 12 12 12 12 12 12 12 12 12 12 12 12 12 12 12 12 12 12 12 12 12 12 12 12 12 12 12 12 12 12 12 12 12 12 12 12 12 12 12 12 12 12 12 12 12 12 12 12 12 12 12 12 12 12 12 12 12 12 12 12 12 12 12 12 12 12 12 12 12 12 12 12 12 12 12 12 12 12 12 12 12 12 12 12 12 12 12 12 12 12 12 12 12 12 12 12 12 12 12 12 12 12 12 12 12 12 12 12 12 12 12 12 12 12 12 12 12 12 12 12 12 12 12 12 12 12 12 12 12 12 12 12 12 12 12 12 12 12 12 12 12 12 12 12 12 12 12 12 12 12 12 12 12 12 12 12 12 12 12 12 12 12 12 12 12 12 12 12 12 12 12 12 12 12 12 12 12 12 12 12 12 12 12 12 12 12 12 12 12 12 12 12 12 12 12 12 12 12 12 12 12 12 12 12 12 12 12 12 12 12 12 12 12 12 12 12 12 12 12 12 12 12 12 12 12 12 12 12 12 12 12 12 12 12 12 12 12 12 12 12 12 12 12 12 12 12 12 12 12 12 12 12 12 12 12 12 12 12 12 12 12 12 12 12 12 12 12 12 12 12 12 12 12 12 12 12 12 12 12 12 12 12 12 12 12 12 12 12 12 12 12 12 12 12 12 12 12 12 12 12 12 12 12 12 12 12 12 12 12 12 12 12 12 12 12 12 12 12 12 12 12 12 12 12 12 12 12 12 12 12 12 12 12 12 12 12 12 12 12 12 12 12 12 12 12 12 12 12 12 12 12 12 12 12 12 12 12 12 12 12 12 12 12 12 12 12 12 12 12 12 12 12 12 12 12 12 12 12 12 12 12 12 12 12 12 12 12 12 12 12 12 12 12 12 12 12 12 12 12 12 12 12 12 12 12 12 12 12 12 12 12 12 12 12 12 12 12 12 12 12 12 12 12 12 12 12 12 12 12 12 12 12 12 12 12 12 12 12 12 12 12 12 12 12 12 12 12 12 12 12 12 12 12 12 12 12 12 12 12 12 12 12 12 12 12 12 12 12 12 12 12 12 12 12 12 12 12 12 12 12 12 12 12 12 12 12 12 12 12 12 12 12 12 12 12 12 12 12 12 12 12 12 12 12 12 12 12 12 12 12 12 12 12 12 12 12 12 12 12 12 12 12 12 12 12 12 12 12 12 12 12 12 12 12 12 12 12 12 12 12 12 12 12 12 12 12 12 12 12 12 12 12 12 12 12 12 12 12 12 12 12 12 12 12 12 12 12 12 12 12 12 12 12 12 12 12 12 12 12 12 12 12 12 12 12 12 12 12 12 12 12 12 12 12 12 12 12 12 12 12 12 12 12 12 12 12 12 12 12 12 12 12 12 12 12 12 12 12 12 12 12 12 12 12 12 12 12 12 12 12 12 12 12 12 12 12 12 12 12 12 12 12 12 12 12 12 12 12 12 12 12 12 12 12 12 12 12 12 12 12 12 12 12 12 12 12 12 12 12 12 12 12 12 12 12 12 12 12 12 12 12 12 12 12 12 12 12 12 12 12 12 12 12 12 12 12 12 12 12 12 12 12 12 12 12 12 12 12 12 12 12 12 12 12 12 12 12 12 12 12 12 12 12 12 12 12 12 12 12 12 12 12 12 12 12 12 12 12 12 12 12 12 12 12 12 12 12 12 12 12 12 12 12 12 12 12 12 12 12 12 12 12 12 12 12 12 12 12 12 12 12 12 12 12 12 12 12 12 12 12 12 12 12 12 12 12 12 12 12 12 12 12 12 12 12 12 12 12 12 12 12 12 12 12 12 12 12 12 12 12 12 12 12 12 12 12 12 12 12 12 12 12 12 12 12 12 12 12 12 12 12 12 12 12 12 12 12 12 12 12 12 12 12 12 12 12 12 12 12 12 12 12 12 12 12 12 12 12 12 12 12 12 12 12 12 12 12 12 12 12 12 12 12 12 12 12 12 12 12 12 12 12 12 12 12 12 12 12 12 12 12 12 12 12 12 12 12 12 12 12 12 12 12 12 12 12 12 12 12 12 12 12 12 12 12 12 12 12 12 12 12 12 12 12 12 12 12 12 12 12 12 12 12 12 12 12 12 12 12 12 12 12 12 12 12 12 12 12 12 12 12 12 12 12 12 12 12 12 12 12 12 12 12 12 12 12 12 12 12 12 12 12 12 12 12 12 12 12 12 12 12 12 12 12 12 12 12 12 12 12 12 12 12 12 12 12 12 12 12 12 12 12 12 12 12 12 12 12 12 12 12 12 12 12 12 12 12 12 12 12 12 12 12 12 12 12 12 12 12 12 12 12 12 12 12 12 12 12 12 12 12 12 12 12 12 12 12 12 12 12 12 12 12 12 12 12 12 12 12 12 12 12 12 12 12 12 12 12 12 12 12 12 12 12 12 12 12 12 12 12 12 12 12 12 12 12 12 12 12 12 12 12 12 12 12 12 12 12 12 12 12 12 12 12 12 12 12 12 12 12 12 12 12 12 12 12 12 12 12 12 12 12 12 12 12 12 12 12 12 12 12 12 12 12 12 12 12 12 12 12 12 12 12 12 12 12 12 12 12 12 12 12 12 12 12 12 12 12 12 12 12 12 12 12 12 12 12 12 12 12 12 12 12 12 12 12 12 12 12 12 12 12 12 12 12 12 12 12 12 12 12 12 12 12 12 12 12 12 12 12 12 12 12 12 12 12 12 12 12 12 12 12 12 12 12 12 12 12 12 12 12 12 12 12 12 12 12 12 12 12 12 12 12 12 12 12 12 12 12 12 12 12 12 12 12 12 12 12 12 12 12 12 12 12 12 12 12 12 12 12 12 12 12 12 12 12 12 12 12 12 12 12 12 12 12 12 12 12 12 12 12 12 12 12 12 12 12 12 12 12 12 12 12 12 12 12 12 12 12 12 12 12 12 12 12 12 12 12 12 12 12 12 12 12 12 12 12 12 12 12 12 12 12 12 12 12 12 12 12 12 12 12 12 12 12 12 12 12 12 12 12 12 12 12 12 12 12 12 12 12 12 12 12 12 12 12 12 12 12 12 12 12 12 12 12 12 12 12 12 12 12 12 12 12 12 12 12 12 12 12 12 12 12 12 12 12 12 12 12 12 12 12 12 12 12 12 12 12 12 12 12 12 12 12 12 12 12 12 12 12 12 12 12 12 12 12 12 12 12 12 12 12 12 12 12 12 12 12 12 12 12 12 12 12 12 12 12 12 12 12 12 12 12 12 12 12 12 12 12 12 12 12 12 12 12 12 12 12 12 12 12 12 12 12 12 12 12 12 12 12 12 12 12 12 12 12 12 12 12 12 12 12 12 12 12 12 12 12 12 12 12 12 12 12 12 12 12 12 12 12 12 12 12 12 12 12 12 12 12 12 12 12 12 12 12 12 12 12 12 12 12 12 12 12 12 12 12 12 12 12 12 12 12 12 12 12 12 12 12 12 12 12 12 12 12 12 12 12 12 12 12 12 12 12 12 12 12 12 12 12 12 12 12 12 12 12 12 12 12 12 12 12 12 12 12 12 12 12 12 12 12 12 12 12 12 12 12 12 12 12 12 12 12 12 12 12 12 12 12 12 12 12 12 12 12 12 12 12 12 12 12 12 12 12 12 12 12 12 12 12 12 12 12 12 12 12 12 12 12 12 12 12 12 12 12 12 12 12 12 12 12 12 12 12 12 12 12 12 12 12 12 12 12 12 12 12 12 12 12 12 12 12 12 12 12 12 12 12 12 12 12 12 12 12 12 12 12 12 12 12 12 12 12 12 12 12 12 12 12 12 12 12 12 12 12 12 12 12 12 12 12 12 12 12 12 12 12 12 12 12 12 12 12 12 12 12 12 12 12 12 12 12 12 12 12 12 12 12 12 12 12 12 12 12 12 12 12 12 12 12 12 12 12 12 12 12 12 12 12 12 12 12 12 12 12 12 12 12 12 12 12 12 12 12 12 12 12 12 12 12 12 12 12 12 12 12 12 12 12 12 12 12 12 12 12 12 12 12 12 12 12 12 12 12 12 12 12 12 12 12 12 12 12 12 12 12 12 12 12 12 12 12 12 12 12 12 12 12 12 12 12 12 12 12 12 12 12 12 12 12 12 12 12 12 12 12 12 12 12 12 12 12 12 12 12 12 12 12 12 12 12 12 12 12 12 12 12 12 12 12 12 12 12 12 12 12 12 12 12 12 12 12 12 12 12 12 12 12 12 12 12 12 12 12 12 12 12 12 12 12 12 12 12 12 12 12 12 12 12 12 12 12 12 12 12 12 12 12 12 12 12 12 12 12 12 12 12 12 12 12 12 12 12 12 12 12 12 12 12 12 12 12 12 12 12 12 12 12 12 12 12 12 12 12 12 12 12 12 12 12 12 12 12 12 12 12 12 12 12 12 12 12 12 12 12 12 12 12 12 12 12 12 12 12 12 12 12 12 12 12 12 12 12 12 12 12 12 12 12 12 12 12 12 12 12 12 12 12 12 12 12 12 12 12 12 12 12 12 12 12 12 12 12 12 12 12 12 12 12 12 12 12 12 12 12 12 12 12 12 12 12 12 12 12 12 12 12 12 12 12 12 12 12 12 12 12 12 12 12 12 12 12 12 12 12 12 12 12 12 12 12 12 12 12 12 12 12 12 12 12 12 12 12 12 12 12 12 12 12 12 12 12 12 12 12 12 12 12 12 12 12 12 12 12 12 12 12 12 12 12 12 12 12 12 12 12 12 12 12 12 12 12 12 12 12 12 12 12 12 12 12 12 12 12 12 12 12 12 12 12 12 12 12 12 12 12 12 12 12 12 12 12 12 12 12 12 12 12 12 12 12 12 12 12 12 12 12 12 12 12 12 12 12 12 12 12 12 12 12 12 12 12 12 12 12 12 12 12 12 12 12 12 12 12 12 12 12 12 12 12 12 12 12 12 12 12 12 12 12 12 12 12 12 12 12 12 12 12 12 12 12 12 12 12 12 12 12 12 12 12 12 12 12 12 12 12 12 12 12 12 12 12 12 12 12 12 12 12 12 12 12 12 12 12 12 12 12 12 12 12 12 12 12 12 12 12 12 12 12 12 12 12 12 12 12 12 12 12 12 12 12 12 12 12 12 12 12 12 12 12 12 12 12 12 12 12 12 12 12 12 12 12 12 12 12 12 12 12 12 12 12 12 12 12 12 12 12 12 12 12 12 12 12 12 12 12 12 12 12 12 12 12 12 12 12 12 12 12 12 12 12 12 12 12 12 12 12 12 12 12 12 12 12 12 12 12 12 12 12 12 12 12 12 12 12 12 12 12 12 12 12 12 12 12 12 12 12 12 12 12 12 12 12 12 12 12 12 12 12 12 12 12 12 12 12 12 12 12 12 12 12 12 12 12 12 12 12 12 12 12 12 12 12 12 12 12 12 12 12 12 12 12 12 12 12 12 12 12 12 12 12 12 12 12 12 12 12 12 12 12 12 12 12 12 12 12 12 12 12 12 12 12 12 12 12 12 12 12 12 12 12 12 12 12 12 12 12 12 12 12 12 12 12 12 12 12 12 12 12 12 12 12 12 12 12 12 12 12 12 12 12 12 12 12 12 12 12 12 12 12 12 12 12 12 12 12 12 12 12 12 12 12 12 12 12 12 12 12 12 12 12 12 12 12 12 12 12 12 12 12 12 12 12 12 12 12 12 12 12 12 12 12 12 12 12 12 12 12 12 12 12 12 12 12 12 12 12 12 12 12 12 12 12 12 12 12 12 12 12 12 12 12 12 12 12 12 12 12 12 12 12 12 12 12 12 12 12 12 12 12 12 12 12 12 12 12 12 12 12 12 12 12 12 12 12 12 12 12 12 12 12 12 12 12 12 12 12 12 12 12 12 12 12 12 12 12 12 12 12 12 12 12 12 12 12 12 12 12 12 12 12 12 12 12 12 12 12 12 12 12 12 12 12 12 12 12 12 12 12 12 12 12 12 12 12 12 12 12 12 12 12 12 12 12 12 12 12 12 12 12 12 12 12 12 12 12 12 12 12 12 12 12 12 12 12 12 12 12 12 12 12 12 12 12 12 12 12 12 12 12 12 12 12 12 12 12 12 12 12 12 12 12 12 12 12 12 12 12 12 12 12 12 12 12 12 12 12 12 12 12 12 12 12 12 12 12 12 12 12 12 12 12 12 12 12 12 12 12 12 12 12 12 12 12 12 12 12 12 12 12 12 12 12 12 12 12 12 12 12 12 12 12 12 12 12 12 12 12 12 12 12 12 12 12 12 12 12 12 12 12 12 12 12 12 12 12 12 12 12 12 12 12 12 12 12 12 12 12 12 12 12 12 12 12 12 12 12 12 12 12 12 12 12 12 12 12 12 12 12 12 12 12 12 12 12 12 12 12 12 12 12 12 12 12 12 12 12 12 12 12 12 12 12 12 12 12 12 12 12 12 12 12 12 12 12 12 12 12 12 12 12 12 12 12 12 12 12 12 12 12 12 12 12 12 12 12 12 12 12 12 12 12 12 12 12 12 12 12 12 12 12 12 12 12 12 12 12 12 12 12 12 12 12 12 12 12 12 12 12 12 12 12 12 12 12 12 12 12 12 12 12 12 12 12 12 12 12 12 12 12 12 12 12 12 12 12 12 12 12 12 12 12 12 12 12 12 12 12 12 12 12 12 12 12 12 12 12 12 12 12 12 12 12 12 12 12 12 12 12 12 12 12 12 12 12 12 12 12 12 12 12 12 12 12 12 12 12 12 12 12 12 12 12 12 12 12 12 12 12 12 12 12 12 12 12 12 12 12 12 12 12 12 12 12 12 12 12 12 12 12 12 12 12 12 12 12 12 12 12 12 12 12 12 12 12 12 12 12 12 12 12 12 12 12 12 12 12 12 12 12 12 12 12 12 12 12 12 12 12 12 12 12 12 12 12 12 12 12 12 12 12 12 12 12 12 12 12 12 12 12 12 12 12 12 12 12 12 12 12 12 12 12 12 12 12 12 12 12 12 12 12 12 12 12 12 12 12 12 12 12 12 12 12 12 12 12 12 12 12 12 12 12 12 12 12 12 12 12 12 12 12 12 12 12 12 12 12 12 12 12 12 12 12 12 12 12 12 12 12 12 12 12 12 12 12 12 12 12 12 12 </DataArray>
</Cells>
<PointData>
<DataArray type="Float64"                                    Name="Stresses"                                                      NumberOfComponents="6" format="ascii">
1.26280e+00 4.95170e-01 4.73070e-01 2.72170e-01 2.82160e-02 2.15370e-01 1.25120e+00 1.22210e-01 8.73240e-02 1.37180e-01 2.09870e-02 9.42900e-02 1.03850e+00 -1.98520e-02 -5.02590e-02 2.19520e-02 5.87230e-03 9.66580e-03 1.06590e+00 2.15870e-02 -6.08440e-03 2.35600e-02 1.51150e-03 4.38240e-02 1.03290e+00 -4.46990e-03 -2.77260e-02 5.31400e-03 1.73960e-03 4.88920e-02 1.02690e+00 -1.97910e-02 -3.66270e-02 -1.08710e-03 5.17070e-04 8.44610e-02 1.01560e+00 -2.20150e-03 -1.76480e-02 -4.74310e-04 1.26110e-03 8.15560e-02 1.00420e+00 6.06970e-04 -1.10660e-02 -7.15270e-04 9.40720e-04 9.68670e-02 9.83370e-01 -1.97340e-03 -1.03130e-02 -2.79670e-03 1.02120e-03 1.06330e-01 9.65050e-01 -9.90350e-04 -5.89760e-03 -2.90040e-03 8.23910e-04 1.17530e-01 9.54240e-01 -4.30210e-03 -9.33620e-03 -3.62230e-03 8.37280e-04 1.14050e-01 9.21260e-01 -1.52300e-03 -6.38620e-05 -3.66020e-03 6.82530e-04 1.33910e-01 8.98060e-01 -1.90520e-03 2.57660e-03 -3.92050e-03 6.47690e-04 1.40300e-01 8.75240e-01 -1.66310e-03 5.85180e-03 -3.87550e-03 5.44020e-04 1.46680e-01 8.51770e-01 -1.81060e-03 8.58320e-03 -3.94190e-03 4.98480e-04 1.51660e-01 8.28630e-01 -1.65300e-03 1.15900e-02 -3.87880e-03 4.15670e-04 1.56410e-01 8.05390e-01 -1.69930e-03 1.42500e-02 -3.86660e-03 3.67770e-04 1.60120e-01 7.69510e-01 -2.24830e-03 1.99200e-02 -3.79400e-03 2.59350e-04 1.71090e-01 7.59780e-01 -1.58580e-03 1.95130e-02 -3.75030e-03 2.53060e-04 1.66130e-01 7.37440e-01 -1.49790e-03 2.20200e-02 -3.67670e-03 1.95680e-04 1.68390e-01 7.15410e-01 -1.47620e-03 2.43210e-02 -3.61620e-03 1.52570e-04 1.70030e-01 6.93790e-01 -1.40450e-03 2.65680e-02 -3.54190e-03 1.03830e-04 1.71330e-01 6.72530e-01 -1.37250e-03 2.86340e-02 -3.47520e-03 6.46680e-05 1.72110e-01 6.51690e-01 -1.31170e-03 3.06140e-02 -3.40150e-03 2.29700e-05 1.72570e-01 6.31250e-01 -1.27520e-03 3.24270e-02 -3.33260e-03 -1.21040e-05 1.72610e-01 5.99500e-01 -1.57720e-03 3.70600e-02 -3.22230e-03 -6.82540e-05 1.76830e-01 5.91620e-01 -1.18400e-03 3.56820e-02 -3.19090e-03 -7.89960e-05 1.71730e-01 5.72430e-01 -1.13650e-03 3.71130e-02 -3.12000e-03 -1.09800e-04 1.70840e-01 5.53660e-01 -1.09870e-03 3.83950e-02 -3.05140e-03 -1.37020e-04 1.69650e-01 5.35300e-01 -1.05560e-03 3.95530e-02 -2.98210e-03 -1.63410e-04 1.68220e-01 5.17360e-01 -1.01880e-03 4.05680e-02 -2.91460e-03 -1.86980e-04 1.66540e-01 4.99830e-01 -9.79260e-04 4.14590e-02 -2.84690e-03 -2.09440e-04 1.64640e-01 4.82700e-01 -9.43960e-04 4.22160e-02 -2.78070e-03 -2.29590e-04 1.62540e-01 4.76010e-01 -6.24930e-04 4.04980e-02 -2.75350e-03 -2.38610e-04 1.57880e-01 4.49640e-01 -8.73830e-04 4.33570e-02 -2.64970e-03 -2.65470e-04 1.57790e-01 4.33710e-01 -8.39880e-04 4.37470e-02 -2.58520e-03 -2.81160e-04 1.55180e-01 4.18170e-01 -8.08100e-04 4.40180e-02 -2.52180e-03 -2.95180e-04 1.52430e-01 4.03000e-01 -7.76450e-04 4.41790e-02 -2.45890e-03 -3.07970e-04 1.49550e-01 3.88220e-01 -7.46470e-04 4.42300e-02 -2.39700e-03 -3.19300e-04 1.46550e-01 3.82540e-01 -4.67340e-04 4.23510e-02 -2.37350e-03 -3.25320e-04 1.42180e-01 3.59760e-01 -6.88670e-04 4.40270e-02 -2.27550e-03 -3.38350e-04 1.40270e-01 3.46070e-01 -6.61020e-04 4.37820e-02 -2.21600e-03 -3.46150e-04 1.37000e-01 3.32730e-01 -6.34490e-04 4.34460e-02 -2.15740e-03 -3.52830e-04 1.33670e-01 3.19750e-01 -6.08600e-04 4.30260e-02 -2.09960e-03 -3.58530e-04 1.30280e-01 3.07100e-01 -5.83690e-04 4.25250e-02 -2.04270e-03 -3.63230e-04 1.26840e-01 2.94790e-01 -5.59450e-04 4.19500e-02 -1.98670e-03 -3.67030e-04 1.23370e-01 2.90070e-01 -3.20310e-04 4.00630e-02 -1.96730e-03 -3.70910e-04 1.19470e-01 2.71150e-01 -5.13380e-04 4.05920e-02 -1.87730e-03 -3.72100e-04 1.16330e-01 2.59800e-01 -4.91470e-04 3.98190e-02 -1.82390e-03 -3.73470e-04 1.12790e-01 2.48770e-01 -4.70230e-04 3.89900e-02 -1.77140e-03 -3.74130e-04 1.09240e-01 2.38040e-01 -4.49710e-04 3.81100e-02 -1.71980e-03 -3.74100e-04 1.05690e-01 2.27610e-01 -4.29840e-04 3.71820e-02 -1.66910e-03 -3.73460e-04 1.02140e-01 2.11370e-01 -5.99890e-04 3.70130e-02 -1.58550e-03 -3.68080e-04 9.85090e-02 2.07610e-01 -3.92060e-04 3.52050e-02 -1.57030e-03 -3.70420e-04 9.50950e-02 1.98040e-01 -3.74100e-04 3.41640e-02 -1.52220e-03 -3.68100e-04 9.16030e-02 1.88750e-01 -3.56740e-04 3.30930e-02 -1.47490e-03 -3.65300e-04 8.81390e-02 1.79730e-01 -3.39970e-04 3.19960e-02 -1.42850e-03 -3.62040e-04 8.47080e-02 1.70970e-01 -3.23770e-04 3.08780e-02 -1.38290e-03 -3.58370e-04 8.13150e-02 1.67490e-01 -1.44550e-04 2.93050e-02 -1.37020e-03 -3.60770e-04 7.83720e-02 1.54230e-01 -2.93010e-04 2.85930e-02 -1.29420e-03 -3.49850e-04 7.46540e-02 1.46240e-01 -2.78430e-04 2.74320e-02 -1.25110e-03 -3.45060e-04 7.13940e-02 1.38500e-01 -2.64360e-04 2.62640e-02 -1.20870e-03 -3.39950e-04 6.81870e-02 1.26630e-01 -3.97700e-04 2.53340e-02 -1.13630e-03 -3.26890e-04 6.44960e-02 1.23730e-01 -2.37710e-04 2.39190e-02 -1.12640e-03 -3.28860e-04 6.19400e-02 1.16710e-01 -2.25100e-04 2.27490e-02 -1.08630e-03 -3.22910e-04 5.89060e-02 1.09910e-01 -2.12960e-04 2.15830e-02 -1.04690e-03 -3.16720e-04 5.59350e-02 1.03340e-01 -2.01280e-04 2.04240e-02 -1.00830e-03 -3.10310e-04 5.30290e-02 9.69940e-02 -1.90040e-04 1.92760e-02 -9.70400e-04 -3.03680e-04 5.01900e-02 9.08680e-02 -1.79230e-04 1.81400e-02 -9.33170e-04 -2.96850e-04 4.74210e-02 8.49600e-02 -1.68840e-04 1.70190e-02 -8.96600e-04 -2.89840e-04 4.47240e-02 7.92670e-02 -1.58880e-04 1.59150e-02 -8.60680e-04 -2.82650e-04 4.20990e-02 7.37850e-02 -1.49310e-04 1.48290e-02 -8.25390e-04 -2.75290e-04 3.95480e-02 6.85110e-02 -1.40150e-04 1.37650e-02 -7.90730e-04 -2.67790e-04 3.70730e-02 6.34440e-02 -1.31370e-04 1.27220e-02 -7.56660e-04 -2.60130e-04 3.46760e-02 5.85820e-02 -1.22980e-04 1.17050e-02 -7.23180e-04 -2.52330e-04 3.23560e-02 5.39210e-02 -1.14960e-04 1.07120e-02 -6.90260e-04 -2.44400e-04 3.01160e-02 4.94590e-02 -1.07310e-04 9.74700e-03 -6.57890e-04 -2.36340e-04 2.79560e-02 4.74630e-02 -1.29550e-05 8.99660e-03 -6.53540e-04 -2.38380e-04 2.65100e-02 4.11290e-02 -9.30860e-05 7.90290e-03 -5.94720e-04 -2.19840e-04 2.38800e-02 3.72560e-02 -8.65060e-05 7.02630e-03 -5.63880e-04 -2.11410e-04 2.19650e-02 3.35760e-02 -8.02720e-05 6.18120e-03 -5.33520e-04 -2.02870e-04 2.01330e-02 3.00880e-02 -7.43800e-05 5.36870e-03 -5.03610e-04 -1.94200e-04 1.83850e-02 2.67900e-02 -6.88290e-05 4.58950e-03 -4.74130e-04 -1.85410e-04 1.67210e-02 2.36810e-02 -6.36150e-05 3.84430e-03 -4.45040e-04 -1.76500e-04 1.51410e-02 2.07600e-02 -5.87480e-05 3.13380e-03 -4.16320e-04 -1.67450e-04 1.36460e-02 1.80250e-02 -5.42250e-05 2.45840e-03 -3.87910e-04 -1.58250e-04 1.22360e-02 1.54770e-02 -5.00530e-05 1.81870e-03 -3.59750e-04 -1.48880e-04 1.09110e-02 1.31130e-02 -4.62340e-05 1.21500e-03 -3.31760e-04 -1.39300e-04 9.67150e-03 1.19680e-02 2.39380e-06 8.84240e-04 -3.30400e-04 -1.40810e-04 8.96340e-03 8.93620e-03 -3.96980e-05 1.16550e-04 -2.75760e-04 -1.19340e-04 7.44700e-03 7.12130e-03 -3.70020e-05 -3.77980e-04 -2.47390e-04 -1.08800e-04 6.46180e-03 5.48750e-03 -3.46580e-05 -8.36140e-04 -2.18410e-04 -9.77410e-05 5.56080e-03 4.03430e-03 -3.26620e-05 -1.25810e-03 -1.88520e-04 -8.60120e-05 4.74340e-03 2.76220e-03 -3.08730e-05 -1.64440e-03 -1.57340e-04 -7.34380e-05 4.00900e-03 1.22150e-03 -5.18510e-05 -2.18550e-03 -9.63890e-05 -4.72100e-05 3.07210e-03 7.73040e-04 -2.69800e-05 -2.31240e-03 -9.04410e-05 -4.52530e-05 2.78900e-03 7.19200e-05 -2.34880e-05 -2.59490e-03 -5.59460e-05 -3.00380e-05 2.30690e-03 -4.12720e-04 -1.66100e-05 -2.84340e-03 -2.40690e-05 -1.57060e-05 1.91880e-03 -6.61530e-04 -1.19610e-06 -3.05230e-03 -3.24160e-06 -7.55360e-06 1.64160e-03 -7.18200e-04 1.49350e-05 -3.21790e-03 6.16680e-06 -1.16080e-05 1.51390e-03 -7.09940e-04 2.50070e-05 -3.29660e-03 8.50610e-06 -2.02040e-05 1.50820e-03 1.17080e+00 5.09870e-01 4.93890e-01 1.88530e-01 2.35390e-02 2.49370e-01 1.21610e+00 1.72080e-01 1.16840e-01 1.31350e-01 1.95160e-02 1.14370e-01 1.08040e+00 -1.23090e-02 -4.57230e-02 4.67440e-02 8.13780e-03 1.70960e-02 1.08600e+00 2.18050e-02 -8.20730e-03 2.31860e-02 3.50990e-03 5.21390e-02 1.05610e+00 -1.49000e-03 -2.27310e-02 1.02460e-02 2.10220e-03 5.52780e-02 1.03680e+00 -9.40340e-03 -2.49980e-02 2.14290e-03 1.06400e-03 8.79960e-02 1.02530e+00 -1.33570e-03 -1.40010e-02 4.26490e-04 1.10310e-03 8.39670e-02 1.00800e+00 -1.47570e-04 -9.43640e-03 -1.63440e-03 8.95330e-04 9.76490e-02 9.86350e-01 -2.08300e-03 -7.62480e-03 -2.86020e-03 8.41820e-04 1.06510e-01 9.65460e-01 -1.75680e-03 -4.14430e-03 -3.55090e-03 7.45200e-04 1.16890e-01 9.54790e-01 -3.58860e-03 -5.98850e-03 -3.57240e-03 7.61230e-04 1.13280e-01 9.20150e-01 -2.28550e-03 1.56190e-03 -4.12050e-03 6.31160e-04 1.32540e-01 8.96780e-01 -2.56400e-03 4.26890e-03 -4.19820e-03 5.83650e-04 1.38750e-01 8.73560e-01 -2.41770e-03 7.29050e-03 -4.22180e-03 5.25750e-04 1.44950e-01 8.50100e-01 -2.52370e-03 9.99440e-03 -4.20130e-03 4.77070e-04 1.49850e-01 8.26870e-01 -2.39970e-03 1.28450e-02 -4.16610e-03 4.23470e-04 1.54520e-01 8.03700e-01 -2.42850e-03 1.54490e-02 -4.11350e-03 3.75230e-04 1.58210e-01 7.67890e-01 -2.92360e-03 2.10390e-02 -4.03080e-03 2.95230e-04 1.69150e-01 7.58220e-01 -2.31490e-03 2.05440e-02 -3.99360e-03 2.79380e-04 1.64200e-01 7.35970e-01 -2.22630e-03 2.29700e-02 -3.92920e-03 2.33650e-04 1.66470e-01 7.14040e-01 -2.19750e-03 2.52110e-02 -3.86150e-03 1.91140e-04 1.68130e-01 6.92510e-01 -2.12100e-03 2.73920e-02 -3.79380e-03 1.49810e-04 1.69440e-01 6.71350e-01 -2.08200e-03 2.94030e-02 -3.72490e-03 1.11200e-04 1.70260e-01 6.50600e-01 -2.01430e-03 3.13250e-02 -3.65640e-03 7.41560e-05 1.70750e-01 6.30260e-01 -1.97010e-03 3.30880e-02 -3.58760e-03 3.94280e-05 1.70820e-01 5.98640e-01 -2.25490e-03 3.76570e-02 -3.48180e-03 -1.22040e-05 1.75080e-01 5.90800e-01 -1.86240e-03 3.62460e-02 -3.45130e-03 -2.46700e-05 1.70010e-01 5.71690e-01 -1.80600e-03 3.76310e-02 -3.38380e-03 -5.40570e-05 1.69150e-01 5.53000e-01 -1.75890e-03 3.88710e-02 -3.31680e-03 -8.16540e-05 1.68000e-01 5.34710e-01 -1.70620e-03 3.99870e-02 -3.25030e-03 -1.07660e-04 1.66600e-01 5.16830e-01 -1.65940e-03 4.09640e-02 -3.18440e-03 -1.32030e-04 1.64960e-01 4.99360e-01 -1.60960e-03 4.18180e-02 -3.11890e-03 -1.54890e-04 1.63100e-01 4.82300e-01 -1.56370e-03 4.25400e-02 -3.05400e-03 -1.76250e-04 1.61030e-01 4.75650e-01 -1.23940e-03 4.07980e-02 -3.02630e-03 -1.86070e-04 1.56390e-01 4.49350e-01 -1.47150e-03 4.36160e-02 -2.92560e-03 -2.14710e-04 1.56360e-01 4.33470e-01 -1.42610e-03 4.39750e-02 -2.86210e-03 -2.31910e-04 1.53790e-01 4.17970e-01 -1.38270e-03 4.42180e-02 -2.79920e-03 -2.47820e-04 1.51070e-01 4.02850e-01 -1.33910e-03 4.43520e-02 -2.73670e-03 -2.62480e-04 1.48220e-01 3.88100e-01 -1.29700e-03 4.43770e-02 -2.67480e-03 -2.75950e-04 1.45260e-01 3.82440e-01 -1.01080e-03 4.24800e-02 -2.64920e-03 -2.83210e-04 1.40910e-01 3.59710e-01 -1.21440e-03 4.41270e-02 -2.55270e-03 -2.99510e-04 1.39050e-01 3.46050e-01 -1.17410e-03 4.38600e-02 -2.49250e-03 -3.09680e-04 1.35820e-01 3.32740e-01 -1.13480e-03 4.35040e-02 -2.43290e-03 -3.18860e-04 1.32520e-01 3.19780e-01 -1.09600e-03 4.30640e-02 -2.37380e-03 -3.27070e-04 1.29160e-01 3.07160e-01 -1.05810e-03 4.25450e-02 -2.31550e-03 -3.34370e-04 1.25760e-01 2.94870e-01 -1.02080e-03 4.19520e-02 -2.25770e-03 -3.40790e-04 1.22320e-01 2.90160e-01 -7.73430e-04 4.00540e-02 -2.23480e-03 -3.45950e-04 1.18430e-01 2.71260e-01 -9.48430e-04 4.05630e-02 -2.14420e-03 -3.51180e-04 1.15340e-01 2.59930e-01 -9.13300e-04 3.97750e-02 -2.08840e-03 -3.55220e-04 1.11830e-01 2.48910e-01 -8.78830e-04 3.89330e-02 -2.03330e-03 -3.58540e-04 1.08310e-01 2.38190e-01 -8.45070e-04 3.80400e-02 -1.97880e-03 -3.61180e-04 1.04790e-01 2.27770e-01 -8.11980e-04 3.71010e-02 -1.92510e-03 -3.63160e-04 1.01270e-01 2.11540e-01 -9.64100e-04 3.69180e-02 -1.83940e-03 -3.61930e-04 9.76810e-02 2.07790e-01 -7.47870e-04 3.51020e-02 -1.81970e-03 -3.65300e-04 9.42810e-02 1.98220e-01 -7.16840e-04 3.40510e-02 -1.76800e-03 -3.65510e-04 9.08160e-02 1.88930e-01 -6.86480e-04 3.29710e-02 -1.71700e-03 -3.65190e-04 8.73790e-02 1.79910e-01 -6.56790e-04 3.18660e-02 -1.66670e-03 -3.64350e-04 8.39730e-02 1.71160e-01 -6.27770e-04 3.07400e-02 -1.61710e-03 -3.63040e-04 8.06040e-02 1.67680e-01 -4.40300e-04 2.91600e-02 -1.59920e-03 -3.66160e-04 7.76750e-02 1.54420e-01 -5.71740e-04 2.84410e-02 -1.51980e-03 -3.59030e-04 7.39910e-02 1.46430e-01 -5.44730e-04 2.72740e-02 -1.47220e-03 -3.56390e-04 7.07540e-02 1.38680e-01 -5.18380e-04 2.61010e-02 -1.42520e-03 -3.53340e-04 6.75690e-02 1.26810e-01 -6.35430e-04 2.51650e-02 -1.34880e-03 -3.43790e-04 6.39090e-02 1.23910e-01 -4.67680e-04 2.37460e-02 -1.33330e-03 -3.46110e-04 6.13650e-02 1.16880e-01 -4.43320e-04 2.25720e-02 -1.28830e-03 -3.41950e-04 5.83520e-02 1.10080e-01 -4.19630e-04 2.14020e-02 -1.24390e-03 -3.37460e-04 5.54010e-02 1.03500e-01 -3.96590e-04 2.02410e-02 -1.20010e-03 -3.32640e-04 5.25140e-02 9.71530e-02 -3.74220e-04 1.90900e-02 -1.15700e-03 -3.27500e-04 4.96950e-02 9.10210e-02 -3.52520e-04 1.79520e-02 -1.11440e-03 -3.22060e-04 4.69450e-02 8.51060e-02 -3.31470e-04 1.68290e-02 -1.07250e-03 -3.16320e-04 4.42650e-02 7.94050e-02 -3.11090e-04 1.57230e-02 -1.03110e-03 -3.10300e-04 4.16580e-02 7.39150e-02 -2.91360e-04 1.46370e-02 -9.90290e-04 -3.04010e-04 3.91250e-02 6.86330e-02 -2.72300e-04 1.35720e-02 -9.50040e-04 -2.97440e-04 3.66670e-02 6.35580e-02 -2.53900e-04 1.25300e-02 -9.10330e-04 -2.90610e-04 3.42860e-02 5.86860e-02 -2.36170e-04 1.15120e-02 -8.71160e-04 -2.83520e-04 3.19820e-02 5.40160e-02 -2.19090e-04 1.05210e-02 -8.32510e-04 -2.76170e-04 2.97580e-02 4.95450e-02 -2.02690e-04 9.55690e-03 -7.94370e-04 -2.68580e-04 2.76130e-02 4.75440e-02 -1.02680e-04 8.80560e-03 -7.83800e-04 -2.69810e-04 2.61750e-02 4.11950e-02 -1.71860e-04 7.71620e-03 -7.19560e-04 -2.52660e-04 2.35660e-02 3.73130e-02 -1.57450e-04 6.84190e-03 -6.82860e-04 -2.44330e-04 2.16650e-02 3.36230e-02 -1.43710e-04 5.99950e-03 -6.46610e-04 -2.35760e-04 1.98470e-02 3.01240e-02 -1.30650e-04 5.19000e-03 -6.10790e-04 -2.26950e-04 1.81130e-02 2.68160e-02 -1.18270e-04 4.41420e-03 -5.75380e-04 -2.17880e-04 1.64620e-02 2.36960e-02 -1.06570e-04 3.67280e-03 -5.40330e-04 -2.08560e-04 1.48950e-02 2.07640e-02 -9.55790e-05 2.96640e-03 -5.05610e-04 -1.98960e-04 1.34130e-02 1.80190e-02 -8.53030e-05 2.29560e-03 -4.71140e-04 -1.89060e-04 1.20150e-02 1.54600e-02 -7.57720e-05 1.66080e-03 -4.36840e-04 -1.78830e-04 1.07020e-02 1.30850e-02 -6.70060e-05 1.06240e-03 -4.02570e-04 -1.68220e-04 9.47360e-03 1.19350e-02 -1.52830e-05 7.33580e-04 -3.94590e-04 -1.67840e-04 8.77160e-03 8.88750e-03 -5.19520e-05 -2.41530e-05 -3.33370e-04 -1.45540e-04 7.27200e-03 7.06270e-03 -4.57770e-05 -5.11960e-04 -2.97870e-04 -1.33240e-04 6.29840e-03 5.42010e-03 -4.05370e-05 -9.62750e-04 -2.61300e-04 -1.20080e-04 5.40920e-03 3.95980e-03 -3.63390e-05 -1.37660e-03 -2.23230e-04 -1.05880e-04 4.60440e-03 2.68320e-03 -3.30370e-05 -1.75360e-03 -1.83350e-04 -9.04170e-05 3.88400e-03 1.14180e-03 -5.33200e-05 -2.27760e-03 -1.12730e-04 -6.09160e-05 2.97180e-03 6.97870e-04 -2.81910e-05 -2.39780e-03 -9.87440e-05 -5.55750e-05 2.69960e-03 7.77170e-06 -2.46800e-05 -2.66470e-03 -5.69750e-05 -3.72340e-05 2.24140e-03 -4.58500e-04 -1.51350e-05 -2.89340e-03 -2.13810e-05 -2.10300e-05 1.88130e-03 -6.88570e-04 7.50310e-06 -3.08190e-03 1.55490e-06 -1.19660e-05 1.63180e-03 -7.31660e-04 3.51480e-05 -3.23360e-03 1.12080e-05 -1.27230e-05 1.52220e-03 -7.20290e-04 5.55070e-05 -3.30750e-03 1.27500e-05 -1.73290e-05 1.52130e-03 1.15190e+00 5.32700e-01 5.16920e-01 1.18170e-01 1.67670e-02 2.98580e-01 1.18950e+00 2.30580e-01 1.42830e-01 1.04090e-01 1.36080e-02 1.40610e-01 1.09510e+00 1.77890e-02 -3.50880e-02 5.92690e-02 7.36860e-03 1.96650e-02 1.10870e+00 3.38060e-02 -9.16370e-03 2.83310e-02 4.23940e-03 5.49900e-02 1.08110e+00 6.82740e-03 -2.06500e-02 1.39030e-02 1.59280e-03 5.99820e-02 1.05260e+00 -6.35200e-04 -1.76770e-02 8.39050e-04 2.17050e-03 9.07910e-02 1.03620e+00 4.30550e-03 -7.99970e-03 4.29320e-04 6.09610e-04 9.11010e-02 1.01710e+00 1.07290e-03 -9.08790e-03 -1.57450e-03 -2.13620e-04 9.93570e-02 9.92420e-01 -1.89390e-03 -7.45940e-03 -2.94850e-03 -3.32330e-04 1.07370e-01 9.69090e-01 -2.01950e-03 -4.08690e-03 -3.74490e-03 -3.61780e-04 1.17150e-01 9.57300e-01 -4.54710e-03 -6.37860e-03 -4.02320e-03 -3.62980e-04 1.13230e-01 9.20940e-01 -3.20100e-03 1.36730e-03 -4.32200e-03 -3.87340e-04 1.31950e-01 8.96790e-01 -3.71590e-03 3.92670e-03 -4.37630e-03 -3.93250e-04 1.37870e-01 8.73080e-01 -3.59980e-03 6.92690e-03 -4.38670e-03 -4.00550e-04 1.43930e-01 8.49300e-01 -3.80900e-03 9.54020e-03 -4.34690e-03 -4.10190e-04 1.48680e-01 8.25910e-01 -3.67890e-03 1.23780e-02 -4.30310e-03 -4.24530e-04 1.53290e-01 8.02660e-01 -3.74840e-03 1.49300e-02 -4.24030e-03 -4.39760e-04 1.56920e-01 7.67670e-01 -3.91670e-03 2.10850e-02 -4.44710e-03 1.17430e-03 1.68160e-01 7.53230e-01 -3.55180e-03 2.13320e-02 -4.20110e-03 6.33220e-05 1.65350e-01 7.34990e-01 -3.52010e-03 2.24120e-02 -4.05220e-03 -4.96790e-04 1.65170e-01 7.13120e-01 -3.48770e-03 2.46390e-02 -3.98520e-03 -5.15350e-04 1.66850e-01 6.91660e-01 -3.39060e-03 2.68190e-02 -3.92130e-03 -5.34410e-04 1.68180e-01 6.70580e-01 -3.34030e-03 2.88240e-02 -3.85510e-03 -5.51730e-04 1.69020e-01 6.49900e-01 -3.25210e-03 3.07470e-02 -3.79130e-03 -5.68820e-04 1.69540e-01 6.29630e-01 -3.19260e-03 3.25080e-02 -3.72630e-03 -5.84200e-04 1.69640e-01 5.98110e-01 -3.45170e-03 3.70780e-02 -3.63190e-03 -6.11410e-04 1.73950e-01 5.90310e-01 -3.04700e-03 3.56700e-02 -3.59950e-03 -6.12240e-04 1.68880e-01 5.71260e-01 -2.97000e-03 3.70590e-02 -3.53720e-03 -6.24730e-04 1.68060e-01 5.52630e-01 -2.90410e-03 3.83020e-02 -3.47490e-03 -6.35840e-04 1.66940e-01 5.34400e-01 -2.83070e-03 3.94230e-02 -3.41350e-03 -6.46120e-04 1.65570e-01 5.16580e-01 -2.76430e-03 4.04040e-02 -3.35230e-03 -6.55150e-04 1.63950e-01 4.99150e-01 -2.69360e-03 4.12640e-02 -3.29190e-03 -6.63320e-04 1.62130e-01 4.82130e-01 -2.62740e-03 4.19900e-02 -3.23160e-03 -6.70370e-04 1.60090e-01 4.75500e-01 -2.29110e-03 4.02510e-02 -3.20300e-03 -6.70640e-04 1.55460e-01 4.49270e-01 -2.49330e-03 4.30790e-02 -3.11230e-03 -6.81670e-04 1.55470e-01 4.33420e-01 -2.42660e-03 4.34450e-02 -3.05330e-03 -6.85940e-04 1.52930e-01 4.17960e-01 -2.36190e-03 4.36940e-02 -2.99440e-03 -6.89260e-04 1.50230e-01 4.02870e-01 -2.29680e-03 4.38350e-02 -2.93600e-03 -6.91750e-04 1.47410e-01 3.88150e-01 -2.23320e-03 4.38680e-02 -2.87780e-03 -6.93360e-04 1.44480e-01 3.82500e-01 -1.93440e-03 4.19730e-02 -2.85060e-03 -6.92270e-04 1.40140e-01 3.59800e-01 -2.10710e-03 4.36330e-02 -2.76250e-03 -6.94210e-04 1.38310e-01 3.46170e-01 -2.04490e-03 4.33730e-02 -2.70530e-03 -6.93500e-04 1.35110e-01 3.32880e-01 -1.98370e-03 4.30250e-02 -2.64840e-03 -6.92040e-04 1.31830e-01 3.19930e-01 -1.92290e-03 4.25930e-02 -2.59200e-03 -6.89910e-04 1.28500e-01 3.07320e-01 -1.86300e-03 4.20810e-02 -2.53590e-03 -6.87100e-04 1.25110e-01 2.95040e-01 -1.80370e-03 4.14960e-02 -2.48020e-03 -6.83670e-04 1.21690e-01 2.90340e-01 -1.54330e-03 3.96000e-02 -2.45460e-03 -6.81410e-04 1.17820e-01 2.71450e-01 -1.68740e-03 4.01220e-02 -2.36990e-03 -6.75000e-04 1.14750e-01 2.60130e-01 -1.63030e-03 3.93430e-02 -2.31540e-03 -6.69830e-04 1.11260e-01 2.49110e-01 -1.57400e-03 3.85080e-02 -2.26130e-03 -6.64130e-04 1.07760e-01 2.38400e-01 -1.51860e-03 3.76230e-02 -2.20760e-03 -6.57930e-04 1.04250e-01 2.27980e-01 -1.46380e-03 3.66910e-02 -2.15430e-03 -6.51250e-04 1.00750e-01 2.11760e-01 -1.58600e-03 3.65210e-02 -2.07260e-03 -6.39890e-04 9.71850e-02 2.08000e-01 -1.35690e-03 3.47070e-02 -2.04910e-03 -6.36550e-04 9.37910e-02 1.98440e-01 -1.30470e-03 3.36640e-02 -1.99710e-03 -6.28580e-04 9.03410e-02 1.89140e-01 -1.25330e-03 3.25910e-02 -1.94560e-03 -6.20210e-04 8.69170e-02 1.80120e-01 -1.20280e-03 3.14940e-02 -1.89450e-03 -6.11470e-04 8.35250e-02 1.71360e-01 -1.15320e-03 3.03760e-02 -1.84380e-03 -6.02370e-04 8.01690e-02 1.64520e-01 -1.11480e-03 2.90330e-02 -1.77680e-03 -7.35670e-04 7.69560e-02 1.59420e-01 -1.09130e-03 2.75200e-02 -1.69250e-03 -1.00380e-03 7.39260e-02 1.46610e-01 -1.00980e-03 2.69310e-02 -1.69440e-03 -5.73110e-04 7.03560e-02 1.38860e-01 -9.63830e-04 2.57650e-02 -1.64550e-03 -5.62750e-04 6.71820e-02 1.26980e-01 -1.05430e-03 2.48420e-02 -1.56970e-03 -5.45050e-04 6.35400e-02 1.24080e-01 -8.74860e-04 2.34250e-02 -1.54890e-03 -5.41210e-04 6.09990e-02 1.17040e-01 -8.31850e-04 2.22570e-02 -1.50120e-03 -5.30050e-04 5.79960e-02 1.10230e-01 -7.89840e-04 2.10940e-02 -1.45390e-03 -5.18640e-04 5.50550e-02 1.03640e-01 -7.48840e-04 1.99400e-02 -1.40700e-03 -5.07000e-04 5.21780e-02 9.72830e-02 -7.08880e-04 1.87960e-02 -1.36060e-03 -4.95140e-04 4.93680e-02 9.11420e-02 -6.69950e-04 1.76640e-02 -1.31450e-03 -4.83060e-04 4.66270e-02 8.52160e-02 -6.32070e-04 1.65480e-02 -1.26880e-03 -4.70770e-04 4.39560e-02 7.95050e-02 -5.95270e-04 1.54490e-02 -1.22350e-03 -4.58280e-04 4.13570e-02 7.40040e-02 -5.59540e-04 1.43700e-02 -1.17850e-03 -4.45600e-04 3.88320e-02 6.87120e-02 -5.24900e-04 1.33120e-02 -1.13390e-03 -4.32730e-04 3.63830e-02 6.36260e-02 -4.91370e-04 1.22760e-02 -1.08970e-03 -4.19680e-04 3.40090e-02 5.87430e-02 -4.58950e-04 1.12650e-02 -1.04580e-03 -4.06460e-04 3.17130e-02 5.40620e-02 -4.27650e-04 1.02800e-02 -1.00230e-03 -3.93060e-04 2.94960e-02 4.95800e-02 -3.97490e-04 9.32310e-03 -9.59100e-04 -3.79490e-04 2.73590e-02 4.75730e-02 -2.89030e-04 8.57350e-03 -9.41460e-04 -3.75140e-04 2.59240e-02 4.33390e-02 -3.41590e-04 7.60720e-03 -9.08640e-04 -4.81500e-04 2.38870e-02 3.73140e-02 -3.13970e-04 6.62820e-03 -8.31400e-04 -3.37800e-04 2.14330e-02 3.36120e-02 -2.88490e-04 5.79270e-03 -7.89430e-04 -3.23580e-04 1.96220e-02 3.01020e-02 -2.64220e-04 4.99000e-03 -7.47720e-04 -3.09190e-04 1.78940e-02 2.67830e-02 -2.41180e-04 4.22100e-03 -7.06250e-04 -2.94620e-04 1.62500e-02 2.36520e-02 -2.19400e-04 3.48650e-03 -6.64980e-04 -2.79870e-04 1.46900e-02 2.07090e-02 -1.98910e-04 2.78710e-03 -6.23840e-04 -2.64920e-04 1.32140e-02 1.79530e-02 -1.79770e-04 2.12330e-03 -5.82750e-04 -2.49730e-04 1.18230e-02 1.53830e-02 -1.62050e-04 1.49550e-03 -5.41590e-04 -2.34250e-04 1.05160e-02 1.29980e-02 -1.45800e-04 9.04340e-04 -5.00160e-04 -2.18420e-04 9.29520e-03 1.18430e-02 -8.96590e-05 5.77860e-04 -4.83600e-04 -2.12870e-04 8.59580e-03 8.78170e-03 -1.18180e-04 -1.67220e-04 -4.15500e-04 -1.85280e-04 7.10820e-03 6.94990e-03 -1.07040e-04 -6.47050e-04 -3.71560e-04 -1.67680e-04 6.14270e-03 5.30240e-03 -9.77770e-05 -1.08930e-03 -3.25980e-04 -1.49140e-04 5.26270e-03 3.84040e-03 -9.04690e-05 -1.49380e-03 -2.78410e-04 -1.29450e-04 4.46870e-03 2.56650e-03 -8.47530e-05 -1.86040e-03 -2.28730e-04 -1.08510e-04 3.76130e-03 1.03700e-03 -1.01560e-04 -2.36410e-03 -1.49350e-04 -7.37780e-05 2.87460e-03 6.03660e-04 -7.43230e-05 -2.47800e-03 -1.26280e-04 -6.36420e-05 2.61240e-03 -6.65870e-05 -6.42180e-05 -2.72810e-03 -7.87390e-05 -4.17480e-05 2.17690e-03 -5.08830e-04 -4.00410e-05 -2.93770e-03 -4.01520e-05 -2.36130e-05 1.83970e-03 -7.15590e-04 3.85480e-06 -3.11030e-03 -1.39940e-05 -1.20530e-05 1.61040e-03 -7.41020e-04 5.42160e-05 -3.25000e-03 -3.78510e-07 -6.87010e-06 1.51690e-03 -7.26360e-04 8.99540e-05 -3.31720e-03 3.39290e-06 -5.57110e-06 1.52180e-03 1.17160e+00 5.54150e-01 5.42000e-01 7.04430e-02 9.88720e-03 3.26600e-01 1.18950e+00 2.49550e-01 1.49510e-01 6.51460e-02 6.57990e-03 1.57870e-01 1.08050e+00 4.03240e-02 -3.28240e-02 4.40130e-02 3.25590e-03 2.34770e-02 1.10880e+00 4.97190e-02 -7.85560e-03 2.55520e-02 2.49160e-03 5.53070e-02 1.08570e+00 1.58910e-02 -2.21870e-02 1.29970e-02 8.86960e-04 6.07670e-02 1.07230e+00 1.62850e-02 -1.25640e-02 5.78780e-03 2.44850e-05 8.02740e-02 1.03450e+00 1.42340e-02 6.65760e-04 -5.73480e-04 7.63470e-04 1.01550e-01 1.01790e+00 1.89720e-03 -1.00240e-02 -1.12840e-03 -2.10300e-04 1.04740e-01 9.95240e-01 4.98650e-05 -8.02420e-03 -2.01160e-03 -7.51810e-04 1.08070e-01 9.70800e-01 -5.42320e-04 -4.44850e-03 -2.74220e-03 -7.73980e-04 1.17620e-01 9.58180e-01 -3.91740e-03 -7.27510e-03 -2.78820e-03 -7.31470e-04 1.13430e-01 9.33630e-01 -3.03630e-04 -8.08230e-04 -2.61120e-03 -2.20290e-03 1.21300e-01 8.96030e-01 -3.37390e-03 3.31860e-03 -3.31180e-03 -7.20410e-04 1.37480e-01 8.72000e-01 -3.37670e-03 6.33040e-03 -3.32800e-03 -7.04700e-04 1.43440e-01 8.47980e-01 -3.72360e-03 8.89070e-03 -3.29560e-03 -6.92190e-04 1.48050e-01 8.24480e-01 -3.65640e-03 1.17320e-02 -3.26350e-03 -6.85500e-04 1.52620e-01 8.01170e-01 -3.79870e-03 1.42560e-02 -3.21410e-03 -6.82360e-04 1.56190e-01 7.78300e-01 -3.71400e-03 1.69040e-02 -3.17000e-03 -6.82700e-04 1.59540e-01 7.43570e-01 -3.90510e-03 2.29680e-02 -3.69470e-03 5.60720e-04 1.69390e-01 7.29530e-01 -3.86940e-03 2.28040e-02 -3.26530e-03 -2.76840e-04 1.66710e-01 7.11750e-01 -3.66960e-03 2.39590e-02 -3.02240e-03 -6.93750e-04 1.66080e-01 6.90350e-01 -3.59010e-03 2.61460e-02 -2.97530e-03 -6.98670e-04 1.67430e-01 6.69330e-01 -3.55950e-03 2.81530e-02 -2.92660e-03 -7.03560e-04 1.68280e-01 6.48730e-01 -3.48500e-03 3.00850e-02 -2.87980e-03 -7.08090e-04 1.68810e-01 6.16310e-01 -3.69900e-03 3.47050e-02 -2.24430e-03 -1.79010e-03 1.73560e-01 6.04710e-01 -3.48710e-03 3.44210e-02 -2.58760e-03 -1.07120e-03 1.70180e-01 5.89320e-01 -3.31750e-03 3.50310e-02 -2.73990e-03 -7.18730e-04 1.68200e-01 5.70340e-01 -3.24970e-03 3.64300e-02 -2.69450e-03 -7.21060e-04 1.67390e-01 5.51760e-01 -3.19300e-03 3.76810e-02 -2.64930e-03 -7.22800e-04 1.66290e-01 5.33590e-01 -3.12700e-03 3.88130e-02 -2.60480e-03 -7.23890e-04 1.64940e-01 5.15820e-01 -3.06780e-03 3.98040e-02 -2.56040e-03 -7.24390e-04 1.63350e-01 4.98450e-01 -3.00300e-03 4.06750e-02 -2.51660e-03 -7.24250e-04 1.61540e-01 4.81480e-01 -2.94220e-03 4.14120e-02 -2.47290e-03 -7.23540e-04 1.59520e-01 4.74870e-01 -2.60990e-03 3.96800e-02 -2.45120e-03 -7.19560e-04 1.54900e-01 4.48700e-01 -2.81640e-03 4.25230e-02 -2.38650e-03 -7.20320e-04 1.54940e-01 4.32900e-01 -2.75260e-03 4.29000e-02 -2.34370e-03 -7.17850e-04 1.52410e-01 4.17470e-01 -2.69030e-03 4.31610e-02 -2.30100e-03 -7.14840e-04 1.49730e-01 4.02410e-01 -2.62680e-03 4.33140e-02 -2.25850e-03 -7.11280e-04 1.46930e-01 3.87730e-01 -2.56420e-03 4.33580e-02 -2.21620e-03 -7.07210e-04 1.44010e-01 3.82100e-01 -2.26700e-03 4.14700e-02 -2.19560e-03 -7.02650e-04 1.39680e-01 3.59450e-01 -2.43820e-03 4.31460e-02 -2.13220e-03 -6.97560e-04 1.37880e-01 3.45840e-01 -2.37520e-03 4.28990e-02 -2.09050e-03 -6.92030e-04 1.34680e-01 3.32580e-01 -2.31260e-03 4.25620e-02 -2.04900e-03 -6.86050e-04 1.31420e-01 3.19650e-01 -2.24990e-03 4.21420e-02 -2.00770e-03 -6.79640e-04 1.28100e-01 3.07070e-01 -2.18750e-03 4.16420e-02 -1.96660e-03 -6.72830e-04 1.24730e-01 2.94810e-01 -2.12530e-03 4.10680e-02 -1.92570e-03 -6.65620e-04 1.21320e-01 2.90120e-01 -1.86410e-03 3.91770e-02 -1.90610e-03 -6.60570e-04 1.17450e-01 2.71260e-01 -2.00190e-03 3.97170e-02 -1.84460e-03 -6.50100e-04 1.14410e-01 2.59950e-01 -1.94070e-03 3.89490e-02 -1.80430e-03 -6.41830e-04 1.10930e-01 2.48950e-01 -1.87990e-03 3.81250e-02 -1.76430e-03 -6.33230e-04 1.07440e-01 2.38250e-01 -1.81950e-03 3.72510e-02 -1.72460e-03 -6.24340e-04 1.03940e-01 2.27850e-01 -1.75960e-03 3.63300e-02 -1.68510e-03 -6.15150e-04 1.00450e-01 2.11640e-01 -1.87320e-03 3.61770e-02 -1.62520e-03 -6.01510e-04 9.69020e-02 2.07890e-01 -1.64140e-03 3.43680e-02 -1.60680e-03 -5.95980e-04 9.35120e-02 1.98340e-01 -1.58320e-03 3.33340e-02 -1.56800e-03 -5.86020e-04 9.00710e-02 1.89060e-01 -1.52550e-03 3.22720e-02 -1.52950e-03 -5.75830e-04 8.66570e-02 1.80040e-01 -1.46860e-03 3.11850e-02 -1.49120e-03 -5.65430e-04 8.32730e-02 1.71290e-01 -1.41240e-03 3.00760e-02 -1.45310e-03 -5.54810e-04 7.99250e-02 1.62790e-01 -1.35690e-03 2.89500e-02 -1.41540e-03 -5.44010e-04 7.66170e-02 1.56160e-01 -1.27950e-03 2.76520e-02 -1.30300e-03 -6.28310e-04 7.34760e-02 1.51230e-01 -1.18420e-03 2.62360e-02 -1.11650e-03 -8.01790e-04 7.05400e-02 1.38820e-01 -1.19530e-03 2.55030e-02 -1.30340e-03 -5.10530e-04 6.69690e-02 1.26940e-01 -1.27520e-03 2.45950e-02 -1.24700e-03 -4.92970e-04 6.33370e-02 1.24040e-01 -1.09190e-03 2.31810e-02 -1.23000e-03 -4.87430e-04 6.07990e-02 1.17000e-01 -1.04160e-03 2.20210e-02 -1.19370e-03 -4.75670e-04 5.78020e-02 1.10200e-01 -9.92280e-04 2.08670e-02 -1.15750e-03 -4.63780e-04 5.48670e-02 1.03610e-01 -9.43990e-04 1.97210e-02 -1.12160e-03 -4.51770e-04 5.19960e-02 9.72540e-02 -8.96750e-04 1.85850e-02 -1.08600e-03 -4.39640e-04 4.91920e-02 8.76310e-02 -1.02150e-03 1.74310e-02 -8.70190e-04 -5.79430e-04 4.57950e-02 8.51760e-02 -8.66230e-04 1.62970e-02 -8.58440e-04 -5.65660e-04 4.37520e-02 7.94650e-02 -8.20540e-04 1.52080e-02 -8.31730e-04 -5.41940e-04 4.11590e-02 7.39650e-02 -7.76020e-04 1.41380e-02 -8.05040e-04 -5.18530e-04 3.86400e-02 6.86730e-02 -7.32680e-04 1.30890e-02 -7.78360e-04 -4.95420e-04 3.61960e-02 6.35870e-02 -6.90570e-04 1.20630e-02 -7.51700e-04 -4.72610e-04 3.38290e-02 6.13590e-02 -5.63090e-04 1.11840e-02 -7.40010e-04 -4.60060e-04 3.21750e-02 5.40340e-02 -5.59930e-04 1.01290e-02 -8.08110e-04 -3.39190e-04 2.93590e-02 4.95510e-02 -5.23370e-04 9.17860e-03 -7.74250e-04 -3.26270e-04 2.72250e-02 4.75450e-02 -4.11330e-04 8.43110e-03 -7.59110e-04 -3.20800e-04 2.57920e-02 4.18900e-02 -4.44630e-04 7.41390e-03 -6.84740e-04 -3.23080e-04 2.33950e-02 3.72660e-02 -4.65320e-04 6.46470e-03 -5.91350e-04 -3.42440e-04 2.12840e-02 3.54840e-02 -3.66870e-04 5.84360e-03 -5.79570e-04 -3.31390e-04 2.00630e-02 3.00650e-02 -3.60880e-04 4.87700e-03 -6.07430e-04 -2.60640e-04 1.77800e-02 2.67430e-02 -3.32670e-04 4.11400e-03 -5.74470e-04 -2.47290e-04 1.61400e-02 2.36090e-02 -3.05980e-04 3.38530e-03 -5.41570e-04 -2.33860e-04 1.45830e-02 2.06640e-02 -2.80890e-04 2.69150e-03 -5.08690e-04 -2.20310e-04 1.31110e-02 1.79050e-02 -2.57470e-04 2.03330e-03 -4.75740e-04 -2.06630e-04 1.17240e-02 1.53330e-02 -2.35840e-04 1.41110e-03 -4.42610e-04 -1.92770e-04 1.04210e-02 1.29460e-02 -2.16090e-04 8.25420e-04 -4.09150e-04 -1.78680e-04 9.20360e-03 1.17910e-02 -1.58160e-04 5.00580e-04 -3.94130e-04 -1.72620e-04 8.50540e-03 9.65500e-03 -1.77900e-04 -4.12140e-05 -3.29030e-04 -1.58450e-04 7.41520e-03 6.89640e-03 -1.69830e-04 -7.09170e-04 -3.04350e-04 -1.34010e-04 6.06500e-03 5.25150e-03 -1.59100e-04 -1.14550e-03 -2.67010e-04 -1.17920e-04 5.19120e-03 3.79440e-03 -1.50690e-04 -1.54360e-03 -2.28110e-04 -1.01050e-04 4.40440e-03 2.52790e-03 -1.43880e-04 -1.90320e-03 -1.87840e-04 -8.34220e-05 3.70560e-03 1.01190e-03 -1.57390e-04 -2.39390e-03 -1.26300e-04 -5.58870e-05 2.83480e-03 5.85720e-04 -1.27800e-04 -2.50550e-03 -1.07330e-04 -4.73220e-05 2.57750e-03 -7.42860e-05 -1.10140e-04 -2.74770e-03 -7.16400e-05 -3.07870e-05 2.15220e-03 -5.08730e-04 -7.41120e-05 -2.95100e-03 -4.26890e-05 -1.71880e-05 1.82310e-03 -7.11040e-04 -1.71260e-05 -3.11890e-03 -2.18050e-05 -6.96960e-06 1.60030e-03 -7.36300e-04 4.48810e-05 -3.25200e-03 -9.22780e-06 5.63350e-07 1.51180e-03 -7.23110e-04 8.60260e-05 -3.31480e-03 -4.93220e-06 4.47760e-06 1.51750e-03 1.17940e+00 5.54440e-01 5.44060e-01 3.34140e-02 4.75370e-03 3.40630e-01 1.19320e+00 2.59840e-01 1.53780e-01 3.14070e-02 2.98600e-03 1.67160e-01 1.07630e+00 5.27860e-02 -3.07840e-02 2.24050e-02 1.29720e-03 2.65280e-02 1.10420e+00 5.99810e-02 -7.70490e-03 1.42410e-02 1.02580e-03 5.61600e-02 1.08610e+00 2.37790e-02 -2.16760e-02 7.85850e-03 4.04630e-04 6.10730e-02 1.07400e+00 2.14930e-02 -1.29700e-02 3.69170e-03 -2.09180e-05 8.09450e-02 1.03770e+00 1.77350e-02 -1.89790e-03 1.31050e-03 -1.61980e-03 1.02570e-01 1.01050e+00 2.94890e-04 -1.18100e-02 -1.17290e-03 7.37930e-04 1.13670e-01 9.97020e-01 1.44490e-03 -7.87430e-03 -1.71570e-03 7.71210e-04 1.08510e-01 9.71300e-01 1.40590e-04 -4.83380e-03 -2.07760e-03 7.58360e-04 1.17860e-01 9.59400e-01 -2.10070e-03 -6.24580e-03 -2.29860e-03 7.88760e-04 1.13630e-01 9.25200e-01 -1.04280e-03 2.14530e-04 -1.44300e-03 -8.97950e-04 1.28300e-01 9.08600e-01 -3.09840e-03 -9.42560e-04 -9.71340e-04 -1.73980e-03 1.27570e-01 8.71400e-01 -2.85170e-03 6.16730e-03 -1.76570e-03 -4.49090e-04 1.43190e-01 8.47260e-01 -3.26980e-03 8.73940e-03 -1.75340e-03 -4.38800e-04 1.47730e-01 8.23660e-01 -3.29300e-03 1.15390e-02 -1.73530e-03 -4.31510e-04 1.52250e-01 8.00310e-01 -3.48080e-03 1.40630e-02 -1.71100e-03 -4.26680e-04 1.55780e-01 7.77430e-01 -3.44760e-03 1.66890e-02 -1.68710e-03 -4.24270e-04 1.59120e-01 7.54860e-01 -3.52440e-03 1.90890e-02 -1.66110e-03 -4.23070e-04 1.61680e-01 7.20290e-01 -4.08960e-03 2.45630e-02 -2.37380e-03 6.83640e-04 1.70760e-01 7.06870e-01 -3.58490e-03 2.48520e-02 -1.85850e-03 -5.76150e-05 1.67760e-01 6.89580e-01 -3.43810e-03 2.59110e-02 -1.58570e-03 -4.24880e-04 1.66990e-01 6.68600e-01 -3.42780e-03 2.79170e-02 -1.56050e-03 -4.25840e-04 1.67850e-01 6.48030e-01 -3.37250e-03 2.98470e-02 -1.53600e-03 -4.26940e-04 1.68380e-01 6.16090e-01 -3.60940e-03 3.46690e-02 -1.50010e-03 -4.31160e-04 1.73340e-01 6.08110e-01 -3.29070e-03 3.32800e-02 -1.48730e-03 -4.28400e-04 1.68330e-01 5.88750e-01 -3.25350e-03 3.47930e-02 -1.46330e-03 -4.28700e-04 1.67810e-01 5.69800e-01 -3.19980e-03 3.61930e-02 -1.43970e-03 -4.28820e-04 1.67010e-01 5.51260e-01 -3.15640e-03 3.74460e-02 -1.41610e-03 -4.28570e-04 1.65910e-01 5.33120e-01 -3.10290e-03 3.85800e-02 -1.39300e-03 -4.28080e-04 1.64580e-01 5.15380e-01 -3.05540e-03 3.95740e-02 -1.36990e-03 -4.27250e-04 1.62990e-01 4.98040e-01 -3.00170e-03 4.04460e-02 -1.34710e-03 -4.26160e-04 1.61190e-01 4.81100e-01 -2.95130e-03 4.11860e-02 -1.32430e-03 -4.24740e-04 1.59180e-01 4.74510e-01 -2.62590e-03 3.94560e-02 -1.31280e-03 -4.21940e-04 1.54570e-01 4.48380e-01 -2.84420e-03 4.23030e-02 -1.27940e-03 -4.21080e-04 1.54630e-01 4.32590e-01 -2.78890e-03 4.26840e-02 -1.25700e-03 -4.18830e-04 1.52100e-01 4.17190e-01 -2.73440e-03 4.29480e-02 -1.23480e-03 -4.16300e-04 1.49440e-01 4.02160e-01 -2.67820e-03 4.31040e-02 -1.21260e-03 -4.13510e-04 1.46650e-01 3.87490e-01 -2.62230e-03 4.31520e-02 -1.19060e-03 -4.10450e-04 1.43740e-01 3.76070e-01 -2.48980e-03 4.24710e-02 -9.79360e-04 -6.04460e-04 1.40270e-01 3.67670e-01 -2.29000e-03 4.11460e-02 -5.77990e-04 -9.87680e-04 1.36400e-01 3.45650e-01 -2.45010e-03 4.27040e-02 -1.12490e-03 -3.99820e-04 1.34440e-01 3.32410e-01 -2.39210e-03 4.23720e-02 -1.10310e-03 -3.95810e-04 1.31190e-01 3.19500e-01 -2.33350e-03 4.19550e-02 -1.08150e-03 -3.91590e-04 1.27870e-01 3.06930e-01 -2.27490e-03 4.14600e-02 -1.05990e-03 -3.87170e-04 1.24510e-01 2.94680e-01 -2.21590e-03 4.08900e-02 -1.03840e-03 -3.82550e-04 1.21110e-01 2.90000e-01 -1.95690e-03 3.90010e-02 -1.02790e-03 -3.79270e-04 1.17240e-01 2.71150e-01 -2.09770e-03 3.95470e-02 -9.95740e-04 -3.72750e-04 1.14210e-01 2.59860e-01 -2.03860e-03 3.87830e-02 -9.74550e-04 -3.67600e-04 1.10740e-01 2.48870e-01 -1.97950e-03 3.79640e-02 -9.53470e-04 -3.62290e-04 1.07250e-01 2.38170e-01 -1.92050e-03 3.70930e-02 -9.32490e-04 -3.56820e-04 1.03770e-01 2.27780e-01 -1.86160e-03 3.61770e-02 -9.11610e-04 -3.51210e-04 1.00280e-01 2.11580e-01 -1.97590e-03 3.60300e-02 -8.80200e-04 -3.43090e-04 9.67420e-02 2.07840e-01 -1.74460e-03 3.42220e-02 -8.70190e-04 -3.39600e-04 9.33540e-02 1.98290e-01 -1.68650e-03 3.31930e-02 -8.49640e-04 -3.33600e-04 8.99190e-02 1.89010e-01 -1.62880e-03 3.21350e-02 -8.29210e-04 -3.27500e-04 8.65100e-02 1.80000e-01 -1.57160e-03 3.10510e-02 -8.08880e-04 -3.21280e-04 8.31320e-02 1.71250e-01 -1.51480e-03 2.99470e-02 -7.88670e-04 -3.14960e-04 7.97890e-02 1.62760e-01 -1.45860e-03 2.88240e-02 -7.68560e-04 -3.08550e-04 7.64850e-02 1.54530e-01 -1.40290e-03 2.76880e-02 -7.48560e-04 -3.02050e-04 7.32260e-02 1.48100e-01 -1.31120e-03 2.64160e-02 -6.23540e-04 -3.69510e-04 7.01580e-02 1.43320e-01 -1.18740e-03 2.50580e-02 -3.94520e-04 -5.05550e-04 6.73160e-02 1.26930e-01 -1.34270e-03 2.45140e-02 -9.81450e-04 -8.60730e-05 6.32460e-02 1.22620e-01 -1.22010e-03 2.31530e-02 -7.66720e-04 -2.11640e-04 6.05160e-02 1.16990e-01 -1.13530e-03 2.19170e-02 -6.50200e-04 -2.68370e-04 5.76960e-02 1.10180e-01 -1.08420e-03 2.07660e-02 -6.30840e-04 -2.61430e-04 5.47640e-02 9.98400e-02 -1.17740e-03 1.96940e-02 -3.44070e-04 -3.95480e-04 5.12830e-02 9.72400e-02 -1.01220e-03 1.84660e-02 -3.40970e-04 -3.84150e-04 4.90780e-02 8.99460e-02 -9.81800e-04 1.73720e-02 -4.88190e-04 -2.82050e-04 4.61510e-02 8.51790e-02 -8.89520e-04 1.62650e-02 -5.54410e-04 -2.33150e-04 4.37010e-02 7.94690e-02 -8.43470e-04 1.51770e-02 -5.35540e-04 -2.25960e-04 4.11100e-02 7.39680e-02 -7.98540e-04 1.41080e-02 -5.16770e-04 -2.18730e-04 3.85930e-02 6.86760e-02 -7.54770e-04 1.30600e-02 -4.98090e-04 -2.11460e-04 3.61510e-02 6.35890e-02 -7.12210e-04 1.20350e-02 -4.79490e-04 -2.04160e-04 3.37850e-02 5.95900e-02 -6.50020e-04 1.10690e-02 -4.05990e-04 -2.20540e-04 3.17030e-02 5.40200e-02 -6.54360e-04 1.00400e-02 -2.72850e-04 -2.50790e-04 2.92720e-02 5.19390e-02 -5.35950e-04 9.25060e-03 -2.69340e-04 -2.41680e-04 2.77670e-02 4.75350e-02 -4.56060e-04 8.38190e-03 -5.71070e-04 -1.30500e-04 2.57350e-02 4.11610e-02 -5.18620e-04 7.30220e-03 -3.87770e-04 -1.67150e-04 2.31350e-02 3.72640e-02 -4.84000e-04 6.44360e-03 -3.69650e-04 -1.59670e-04 2.12480e-02 3.41990e-02 -4.35890e-04 5.68040e-03 -3.14640e-04 -1.61990e-04 1.96340e-02 3.00420e-02 -4.39640e-04 4.80800e-03 -2.17400e-04 -1.65650e-04 1.77100e-02 2.67180e-02 -4.09060e-04 4.04810e-03 -2.07680e-04 -1.52730e-04 1.60720e-02 2.35830e-02 -3.80130e-04 3.32240e-03 -1.97790e-04 -1.40170e-04 1.45180e-02 2.21080e-02 -3.00820e-04 2.85790e-03 -1.93570e-04 -1.33090e-04 1.35670e-02 1.78810e-02 -3.08870e-04 1.98900e-03 -2.61680e-04 -1.13990e-04 1.16720e-02 1.53080e-02 -2.85860e-04 1.36930e-03 -2.43530e-04 -1.06150e-04 1.03720e-02 1.29200e-02 -2.64950e-04 7.86090e-04 -2.25150e-04 -9.81890e-05 9.15680e-03 1.17660e-02 -2.06440e-04 4.61760e-04 -2.16530e-04 -9.45510e-05 8.45920e-03 9.01490e-03 -2.23680e-04 -2.00080e-04 -1.73820e-04 -7.98680e-05 7.11690e-03 6.86640e-03 -2.33990e-04 -7.49770e-04 -1.20620e-04 -6.12770e-05 6.01980e-03 5.96780e-03 -1.92000e-04 -9.80810e-04 -1.14700e-04 -5.56300e-05 5.50220e-03 3.77600e-03 -1.96840e-04 -1.56870e-03 -1.25440e-04 -5.46270e-05 4.37400e-03 1.96970e-03 -2.29360e-04 -2.11090e-03 -7.32530e-05 -2.71140e-05 3.38550e-03 1.44730e-03 -1.97210e-04 -2.24720e-03 -6.65260e-05 -2.22440e-05 3.07310e-03 5.83390e-04 -1.83290e-04 -2.52390e-03 -5.33280e-05 -1.38350e-05 2.56070e-03 -7.15920e-05 -1.58740e-04 -2.76150e-03 -4.15310e-05 -6.48710e-06 2.14060e-03 -3.79520e-04 -1.29300e-04 -2.85110e-03 -3.59610e-05 -2.81000e-06 1.96000e-03 -7.06260e-04 -4.06250e-05 -3.12270e-03 -1.47370e-05 -3.01160e-06 1.59640e-03 -7.33110e-04 2.46340e-05 -3.25190e-03 -7.32050e-06 2.05930e-06 1.50970e-03 -7.21220e-04 6.57930e-05 -3.31220e-03 -4.43240e-06 4.80660e-06 1.51560e-03 1.18760e+00 5.63750e-01 5.53950e-01 4.51530e-09 9.71780e-10 3.44560e-01 1.19620e+00 2.62430e-01 1.54670e-01 2.82920e-09 1.23660e-09 1.69900e-01 1.07430e+00 5.63070e-02 -3.06650e-02 -2.75430e-10 9.41940e-10 2.76490e-02 1.10340e+00 6.39840e-02 -6.95060e-03 -1.97210e-09 7.59640e-10 5.65320e-02 1.08510e+00 2.61690e-02 -2.21290e-02 -3.11350e-09 5.77130e-10 6.11750e-02 1.07480e+00 2.38780e-02 -1.25450e-02 -4.01770e-09 4.05810e-10 8.11770e-02 1.03680e+00 1.82410e-02 -1.51850e-03 -5.61060e-09 1.24180e-10 1.02740e-01 1.02510e+00 8.30680e-03 -9.14020e-03 -5.61530e-09 9.41320e-11 1.01620e-01 9.97490e-01 2.83700e-03 -8.03020e-03 -6.36140e-09 -6.45910e-11 1.08730e-01 9.72250e-01 1.57760e-03 -4.42420e-03 -7.08650e-09 -2.43990e-10 1.18080e-01 9.45830e-01 -8.28620e-04 -2.42080e-03 -7.76200e-09 -4.20530e-10 1.24430e-01 9.20850e-01 -1.33940e-03 7.80090e-04 -8.40050e-09 -6.12560e-10 1.31820e-01 9.00030e-01 -2.68660e-03 1.74380e-03 2.62280e-04 -4.05030e-04 1.34050e-01 8.84840e-01 -9.86080e-04 4.30600e-03 8.35200e-04 -1.21810e-03 1.33720e-01 8.47070e-01 -3.09090e-03 8.66900e-03 -9.98700e-09 -1.18980e-09 1.47640e-01 8.23470e-01 -3.11060e-03 1.15000e-02 -1.04040e-08 -1.38360e-09 1.52150e-01 8.00090e-01 -3.34190e-03 1.39930e-02 -1.07570e-08 -1.56850e-09 1.55670e-01 7.77210e-01 -3.31120e-03 1.66330e-02 -1.10510e-08 -1.74930e-09 1.59000e-01 7.54630e-01 -3.41230e-03 1.90170e-02 -1.12820e-08 -1.91840e-09 1.61560e-01 7.19850e-01 -3.93840e-03 2.43890e-02 8.01050e-04 -1.07570e-03 1.70540e-01 6.98290e-01 -3.58980e-03 2.69620e-02 -7.88210e-04 1.04910e-03 1.71760e-01 6.89380e-01 -3.35200e-03 2.58410e-02 -7.92140e-04 1.03040e-03 1.66870e-01 6.68410e-01 -3.35220e-03 2.78430e-02 -7.84110e-04 1.00270e-03 1.67720e-01 6.47850e-01 -3.30280e-03 2.97750e-02 -7.78390e-04 9.74730e-04 1.68260e-01 6.15920e-01 -3.54540e-03 3.45990e-02 -1.16660e-08 -2.86700e-09 1.73220e-01 6.07940e-01 -3.23480e-03 3.32070e-02 -1.12830e-08 -2.75870e-09 1.68210e-01 5.88600e-01 -3.20420e-03 3.47190e-02 -1.11010e-08 -2.82190e-09 1.67690e-01 5.69660e-01 -3.15580e-03 3.61200e-02 -1.08930e-08 -2.87240e-09 1.66900e-01 5.51130e-01 -3.11810e-03 3.73730e-02 -1.06690e-08 -2.91130e-09 1.65810e-01 5.33000e-01 -3.06950e-03 3.85080e-02 -1.04370e-08 -2.94090e-09 1.64470e-01 5.15270e-01 -3.02710e-03 3.95020e-02 -1.02040e-08 -2.96340e-09 1.62890e-01 4.97940e-01 -2.97780e-03 4.03750e-02 -9.97760e-09 -2.98130e-09 1.61090e-01 4.81000e-01 -2.93180e-03 4.11160e-02 -9.76450e-09 -2.99660e-09 1.59090e-01 4.74420e-01 -2.60870e-03 3.93880e-02 -9.42390e-09 -2.85920e-09 1.54480e-01 4.48300e-01 -2.83270e-03 4.22350e-02 -9.39820e-09 -3.02800e-09 1.54540e-01 4.32520e-01 -2.78100e-03 4.26170e-02 -9.25210e-09 -3.04700e-09 1.52020e-01 4.17120e-01 -2.73000e-03 4.28820e-02 -9.13320e-09 -3.06970e-09 1.49360e-01 4.02100e-01 -2.67690e-03 4.30390e-02 -9.04130e-09 -3.09720e-09 1.46570e-01 3.87440e-01 -2.62400e-03 4.30890e-02 -8.97440e-09 -3.12940e-09 1.43660e-01 3.73140e-01 -2.56960e-03 4.30370e-02 -8.92900e-09 -3.16630e-09 1.40650e-01 3.67670e-01 -2.28590e-03 4.11380e-02 -8.71960e-09 -3.05180e-09 1.36380e-01 3.45610e-01 -2.45960e-03 4.26440e-02 -8.88060e-09 -3.24960e-09 1.34370e-01 3.32370e-01 -2.40380e-03 4.23130e-02 -8.86430e-09 -3.29220e-09 1.31120e-01 3.19470e-01 -2.34730e-03 4.18980e-02 -8.84370e-09 -3.33220e-09 1.27810e-01 3.06900e-01 -2.29050e-03 4.14040e-02 -8.81160e-09 -3.36690e-09 1.24450e-01 2.94650e-01 -2.23330e-03 4.08350e-02 -8.76170e-09 -3.39350e-09 1.21050e-01 2.89970e-01 -1.97540e-03 3.89470e-02 -8.57400e-09 -3.28570e-09 1.17180e-01 2.71130e-01 -2.11800e-03 3.94950e-02 -8.58670e-09 -3.41270e-09 1.14160e-01 2.59840e-01 -2.06020e-03 3.87320e-02 -8.45390e-09 -3.40160e-09 1.10680e-01 2.48850e-01 -2.00220e-03 3.79140e-02 -8.28760e-09 -3.37480e-09 1.07200e-01 2.38160e-01 -1.94420e-03 3.70450e-02 -8.08760e-09 -3.33170e-09 1.03720e-01 2.27760e-01 -1.88620e-03 3.61300e-02 -7.85460e-09 -3.27200e-09 1.00240e-01 2.11580e-01 -2.00140e-03 3.59850e-02 -7.58010e-09 -3.25560e-09 9.66970e-02 2.07830e-01 -1.77050e-03 3.41780e-02 -7.30140e-09 -3.10540e-09 9.33100e-02 1.98280e-01 -1.71300e-03 3.31500e-02 -6.99020e-09 -3.00150e-09 8.98760e-02 1.89010e-01 -1.65580e-03 3.20930e-02 -6.66410e-09 -2.88710e-09 8.64690e-02 1.80000e-01 -1.59890e-03 3.10100e-02 -6.32970e-09 -2.76550e-09 8.30920e-02 1.71250e-01 -1.54240e-03 2.99070e-02 -5.99400e-09 -2.64010e-09 7.97500e-02 1.62760e-01 -1.48630e-03 2.87860e-02 -5.66360e-09 -2.51400e-09 7.64490e-02 1.54530e-01 -1.43080e-03 2.76510e-02 -5.34420e-09 -2.39030e-09 7.31900e-02 1.46540e-01 -1.37580e-03 2.65050e-02 -5.04080e-09 -2.27150e-09 6.99780e-02 1.43320e-01 -1.18620e-03 2.50520e-02 -4.80340e-09 -2.14010e-09 6.73040e-02 1.35660e-01 -1.13660e-03 2.39410e-02 -3.40220e-04 1.85980e-04 6.42240e-02 1.19810e-01 -1.34210e-03 2.32520e-02 -3.17220e-04 1.66490e-04 6.01180e-02 1.15640e-01 -1.20380e-03 2.19420e-02 -1.05320e-04 5.38480e-05 5.74790e-02 1.06280e-01 -1.23080e-03 2.08680e-02 2.93430e-04 -1.43370e-04 5.41560e-02 1.02350e-01 -1.09940e-03 1.96250e-02 9.73880e-05 -4.62230e-05 5.16710e-02 9.72440e-02 -1.01130e-03 1.84620e-02 -3.51470e-09 -1.66790e-09 4.90690e-02 9.11040e-02 -9.62750e-04 1.73430e-02 -3.37120e-09 -1.61380e-09 4.63370e-02 8.51800e-02 -9.15200e-04 1.62380e-02 -3.23830e-09 -1.56500e-09 4.36750e-02 7.94700e-02 -8.68710e-04 1.51510e-02 -3.11310e-09 -1.51950e-09 4.10860e-02 7.39690e-02 -8.23320e-04 1.40830e-02 -2.99270e-09 -1.47580e-09 3.85690e-02 6.86770e-02 -7.79080e-04 1.30360e-02 -2.87430e-09 -1.43180e-09 3.61280e-02 6.35890e-02 -7.36020e-04 1.20120e-02 -2.75580e-09 -1.38590e-09 3.37620e-02 5.87050e-02 -6.94190e-04 1.10120e-02 -2.63530e-09 -1.33710e-09 3.14740e-02 5.40220e-02 -6.53610e-04 1.00370e-02 -2.51130e-09 -1.28450e-09 2.92640e-02 5.19410e-02 -5.35200e-04 9.24760e-03 -2.40600e-09 -1.22490e-09 2.77590e-02 4.52510e-02 -5.76410e-04 8.17200e-03 -2.25140e-09 -1.16840e-09 2.50850e-02 4.11600e-02 -5.39860e-04 7.28330e-03 -2.11640e-09 -1.10570e-09 2.31160e-02 3.72620e-02 -5.04720e-04 6.42550e-03 -1.98030e-09 -1.04090e-09 2.12290e-02 3.35570e-02 -4.71060e-04 5.59950e-03 -1.84560e-09 -9.75080e-10 1.94250e-02 3.00430e-02 -4.38910e-04 4.80630e-03 -1.71530e-09 -9.09480e-10 1.77030e-02 2.67190e-02 -4.08330e-04 4.04660e-03 -1.59210e-09 -8.45180e-10 1.60650e-02 2.35840e-02 -3.79410e-04 3.32110e-03 -1.47800e-09 -7.83190e-10 1.45120e-02 2.11270e-02 -3.34850e-04 2.70600e-03 3.33930e-05 -1.97960e-07 1.32150e-02 1.78760e-02 -3.26890e-04 1.97570e-03 9.57980e-05 2.38410e-06 1.16570e-02 1.65590e-02 -2.57730e-04 1.58350e-03 9.14620e-05 5.22680e-06 1.08350e-02 1.32980e-02 -2.68120e-04 8.49210e-04 -2.50600e-05 -2.94070e-06 9.29470e-03 1.17600e-02 -2.23740e-04 4.50110e-04 -7.49470e-05 -1.07810e-05 8.44550e-03 8.69540e-03 -2.47210e-04 -2.79380e-04 -9.73510e-10 -4.86060e-10 6.97140e-03 6.86600e-03 -2.33570e-04 -7.49810e-04 -9.02830e-10 -4.45700e-10 6.01530e-03 5.47210e-03 -2.12220e-04 -1.11510e-03 1.38070e-05 4.81350e-06 5.26350e-03 3.12940e-03 -2.41420e-04 -1.76750e-03 3.25610e-05 1.43830e-05 4.04360e-03 2.33130e-03 -2.13880e-04 -1.99090e-03 1.06990e-05 5.13420e-06 3.57620e-03 1.44730e-03 -1.97470e-04 -2.24700e-03 -5.85870e-10 -2.76650e-10 3.07040e-03 5.83590e-04 -1.83690e-04 -2.52370e-03 -4.97290e-10 -2.30490e-10 2.55840e-03 -7.13080e-05 -1.59220e-04 -2.76130e-03 -4.20930e-10 -1.86100e-10 2.13890e-03 -4.61440e-04 -1.19830e-04 -2.92380e-03 -1.88700e-06 2.57700e-06 1.86240e-03 -6.85530e-04 -7.36130e-05 -3.03630e-03 -6.16380e-06 7.65120e-06 1.68550e-03 -7.32100e-04 1.52660e-05 -3.25160e-03 -2.20660e-10 -9.14430e-11 1.50920e-03 -7.20650e-04 5.61930e-05 -3.31120e-03 -1.71750e-10 -1.02810e-10 1.51490e-03 1.17940e+00 5.54440e-01 5.44060e-01 -3.34140e-02 -4.75370e-03 3.40630e-01 1.19320e+00 2.59840e-01 1.53780e-01 -3.14070e-02 -2.98600e-03 1.67160e-01 1.07630e+00 5.27860e-02 -3.07840e-02 -2.24050e-02 -1.29720e-03 2.65280e-02 1.10420e+00 5.99810e-02 -7.70490e-03 -1.42410e-02 -1.02580e-03 5.61600e-02 1.08610e+00 2.37790e-02 -2.16760e-02 -7.85860e-03 -4.04630e-04 6.10730e-02 1.07400e+00 2.14930e-02 -1.29700e-02 -3.69170e-03 2.09190e-05 8.09450e-02 1.03590e+00 1.43840e-02 -3.98460e-03 -4.62200e-04 3.69860e-04 1.02490e-01 1.02410e+00 7.01310e-03 -9.42100e-03 1.90610e-04 4.27090e-04 1.01360e-01 9.97080e-01 2.20450e-03 -7.84260e-03 9.63270e-04 4.88060e-04 1.08590e-01 9.71710e-01 8.67430e-04 -4.57030e-03 1.39780e-03 4.97260e-04 1.17930e-01 9.45700e-01 -1.20040e-03 -2.31180e-03 1.61150e-03 4.92830e-04 1.24390e-01 9.20710e-01 -1.75350e-03 7.28590e-04 1.71900e-03 4.77180e-04 1.31790e-01 8.95700e-01 -2.67420e-03 3.23690e-03 1.75700e-03 4.62750e-04 1.37330e-01 8.84860e-01 -1.49390e-03 4.07460e-03 1.73350e-03 4.42820e-04 1.33760e-01 8.47260e-01 -3.26980e-03 8.73940e-03 1.75330e-03 4.38790e-04 1.47730e-01 8.23660e-01 -3.29300e-03 1.15390e-02 1.73530e-03 4.31500e-04 1.52250e-01 8.00310e-01 -3.48080e-03 1.40630e-02 1.71100e-03 4.26670e-04 1.55780e-01 7.77430e-01 -3.44760e-03 1.66890e-02 1.68710e-03 4.24270e-04 1.59120e-01 7.54860e-01 -3.52440e-03 1.90890e-02 1.66110e-03 4.23070e-04 1.61680e-01 7.20070e-01 -4.01660e-03 2.44820e-02 1.62840e-03 4.28250e-04 1.70670e-01 7.10950e-01 -3.49340e-03 2.37280e-02 1.61050e-03 4.23760e-04 1.65640e-01 6.89580e-01 -3.43810e-03 2.59110e-02 1.58570e-03 4.24870e-04 1.66990e-01 6.68600e-01 -3.42780e-03 2.79170e-02 1.56050e-03 4.25830e-04 1.67850e-01 6.48030e-01 -3.37250e-03 2.98470e-02 1.53600e-03 4.26940e-04 1.68380e-01 6.15920e-01 -3.55500e-03 3.46040e-02 7.81400e-04 1.40060e-03 1.73250e-01 6.04180e-01 -3.39060e-03 3.42290e-02 1.24240e-03 7.49510e-04 1.69810e-01 5.88750e-01 -3.25350e-03 3.47930e-02 1.46330e-03 4.28700e-04 1.67810e-01 5.69800e-01 -3.19980e-03 3.61930e-02 1.43960e-03 4.28820e-04 1.67010e-01 5.51260e-01 -3.15640e-03 3.74460e-02 1.41610e-03 4.28560e-04 1.65910e-01 5.33120e-01 -3.10290e-03 3.85800e-02 1.39290e-03 4.28080e-04 1.64580e-01 5.15380e-01 -3.05540e-03 3.95740e-02 1.36990e-03 4.27240e-04 1.62990e-01 4.98040e-01 -3.00170e-03 4.04460e-02 1.34700e-03 4.26150e-04 1.61190e-01 4.81100e-01 -2.95130e-03 4.11860e-02 1.32430e-03 4.24730e-04 1.59180e-01 4.74510e-01 -2.62590e-03 3.94560e-02 1.31280e-03 4.21930e-04 1.54570e-01 4.48380e-01 -2.84420e-03 4.23030e-02 1.27930e-03 4.21070e-04 1.54630e-01 4.32590e-01 -2.78890e-03 4.26840e-02 1.25700e-03 4.18830e-04 1.52100e-01 4.17190e-01 -2.73440e-03 4.29480e-02 1.23480e-03 4.16290e-04 1.49440e-01 4.02160e-01 -2.67820e-03 4.31040e-02 1.21260e-03 4.13500e-04 1.46650e-01 3.87490e-01 -2.62230e-03 4.31520e-02 1.19060e-03 4.10440e-04 1.43740e-01 3.73190e-01 -2.56510e-03 4.30990e-02 1.16860e-03 4.07140e-04 1.40730e-01 3.67720e-01 -2.27960e-03 4.12000e-02 1.15760e-03 4.04040e-04 1.36460e-01 3.45650e-01 -2.45010e-03 4.27040e-02 1.12480e-03 3.99810e-04 1.34440e-01 3.32410e-01 -2.39210e-03 4.23720e-02 1.10310e-03 3.95800e-04 1.31190e-01 3.19500e-01 -2.33350e-03 4.19550e-02 1.08140e-03 3.91590e-04 1.27870e-01 3.06930e-01 -2.27490e-03 4.14600e-02 1.05990e-03 3.87160e-04 1.24510e-01 2.94680e-01 -2.21590e-03 4.08900e-02 1.03840e-03 3.82540e-04 1.21110e-01 2.90000e-01 -1.95690e-03 3.90010e-02 1.02790e-03 3.79270e-04 1.17240e-01 2.71150e-01 -2.09770e-03 3.95470e-02 9.95720e-04 3.72750e-04 1.14210e-01 2.59860e-01 -2.03860e-03 3.87830e-02 9.74530e-04 3.67590e-04 1.10740e-01 2.48870e-01 -1.97950e-03 3.79640e-02 9.53450e-04 3.62280e-04 1.07250e-01 2.38170e-01 -1.92050e-03 3.70930e-02 9.32470e-04 3.56820e-04 1.03770e-01 2.27780e-01 -1.86160e-03 3.61770e-02 9.11600e-04 3.51210e-04 1.00280e-01 2.11580e-01 -1.97590e-03 3.60300e-02 8.80190e-04 3.43080e-04 9.67420e-02 2.07840e-01 -1.74460e-03 3.42220e-02 8.70180e-04 3.39590e-04 9.33550e-02 1.98290e-01 -1.68650e-03 3.31930e-02 8.49630e-04 3.33600e-04 8.99190e-02 1.89010e-01 -1.62880e-03 3.21350e-02 8.29200e-04 3.27490e-04 8.65100e-02 1.80000e-01 -1.57160e-03 3.10510e-02 8.08870e-04 3.21270e-04 8.31320e-02 1.71250e-01 -1.51480e-03 2.99470e-02 7.88650e-04 3.14960e-04 7.97890e-02 1.62760e-01 -1.45860e-03 2.88240e-02 7.68550e-04 3.08550e-04 7.64850e-02 1.54530e-01 -1.40290e-03 2.76880e-02 7.48550e-04 3.02040e-04 7.32260e-02 1.48100e-01 -1.31120e-03 2.64160e-02 6.23530e-04 3.69510e-04 7.01580e-02 1.43320e-01 -1.18740e-03 2.50580e-02 3.94510e-04 5.05550e-04 6.73160e-02 1.31290e-01 -1.24000e-03 2.42310e-02 6.89220e-04 2.82050e-04 6.37410e-02 1.24020e-01 -1.18730e-03 2.30730e-02 6.69650e-04 2.75240e-04 6.06890e-02 1.12930e-01 -1.28700e-03 2.20620e-02 3.60350e-04 4.32750e-04 5.71150e-02 1.06280e-01 -1.20380e-03 2.08980e-02 6.20700e-04 2.57880e-04 5.41840e-02 1.03600e-01 -1.03410e-03 1.96230e-02 6.11580e-04 2.54440e-04 5.18970e-02 9.72430e-02 -9.84860e-04 1.84910e-02 5.92420e-04 2.47390e-04 4.90960e-02 9.11030e-02 -9.36670e-04 1.73710e-02 5.73370e-04 2.40290e-04 4.63630e-02 8.51790e-02 -8.89520e-04 1.62650e-02 5.54400e-04 2.33150e-04 4.37010e-02 7.94690e-02 -8.43470e-04 1.51770e-02 5.35540e-04 2.25960e-04 4.11100e-02 7.39680e-02 -7.98540e-04 1.41080e-02 5.16770e-04 2.18730e-04 3.85930e-02 6.86760e-02 -7.54770e-04 1.30600e-02 4.98080e-04 2.11460e-04 3.61510e-02 6.35890e-02 -7.12210e-04 1.20350e-02 4.79490e-04 2.04150e-04 3.37850e-02 5.87050e-02 -6.70870e-04 1.10340e-02 4.60980e-04 1.96820e-04 3.14960e-02 5.40220e-02 -6.30820e-04 1.00590e-02 4.42560e-04 1.89440e-04 2.92860e-02 5.03410e-02 -5.58010e-04 9.16940e-03 4.79460e-04 1.66160e-04 2.73670e-02 4.75350e-02 -4.56060e-04 8.38190e-03 5.71070e-04 1.30500e-04 2.57350e-02 4.11610e-02 -5.18620e-04 7.30220e-03 3.87760e-04 1.67150e-04 2.31350e-02 3.72640e-02 -4.84000e-04 6.44360e-03 3.69640e-04 1.59670e-04 2.12480e-02 3.35600e-02 -4.50830e-04 5.61680e-03 3.51590e-04 1.52150e-04 1.94430e-02 3.00470e-02 -4.19170e-04 4.82270e-03 3.33580e-04 1.44600e-04 1.77210e-02 2.67230e-02 -3.89070e-04 4.06220e-03 3.15620e-04 1.37020e-04 1.60820e-02 2.35880e-02 -3.60590e-04 3.33600e-03 2.97670e-04 1.29400e-04 1.45280e-02 2.06410e-02 -3.33830e-04 2.64480e-03 2.79710e-04 1.21730e-04 1.30580e-02 1.78810e-02 -3.08870e-04 1.98900e-03 2.61680e-04 1.13980e-04 1.16720e-02 1.65650e-02 -2.39910e-04 1.59670e-03 2.53340e-04 1.10500e-04 1.08500e-02 1.40660e-02 -2.40310e-04 9.99750e-04 1.62130e-04 9.81710e-05 9.60360e-03 1.07180e-02 -2.46320e-04 2.39790e-04 2.06430e-04 9.00530e-05 8.02720e-03 8.70180e-03 -2.30130e-04 -2.69220e-04 1.87240e-04 8.16880e-05 6.98370e-03 6.87190e-03 -2.16560e-04 -7.40540e-04 1.67410e-04 7.30300e-05 6.02650e-03 5.22940e-03 -2.05540e-04 -1.17380e-03 1.46810e-04 6.40190e-05 5.15640e-03 3.13280e-03 -2.24650e-04 -1.76100e-03 1.14360e-04 4.96480e-05 4.05140e-03 2.51440e-03 -1.89390e-04 -1.92490e-03 1.03470e-04 4.49060e-05 3.68010e-03 1.44790e-03 -1.81410e-04 -2.24200e-03 8.14560e-05 3.50450e-05 3.07590e-03 5.82760e-04 -1.68760e-04 -2.51970e-03 6.03970e-05 2.54410e-05 2.56250e-03 -7.31370e-05 -1.45970e-04 -2.75840e-03 4.15880e-05 1.66650e-05 2.14170e-03 -5.04880e-04 -1.03530e-04 -2.95840e-03 2.61650e-05 9.16490e-06 1.81610e-03 -7.00700e-04 -4.52250e-05 -3.09310e-03 1.23670e-05 6.05350e-06 1.62650e-03 -7.34470e-04 3.35430e-05 -3.25130e-03 -5.22660e-06 3.94630e-06 1.50930e-03 -7.22410e-04 7.49740e-05 -3.31230e-03 -9.11430e-06 3.98720e-07 1.51510e-03 1.17160e+00 5.54150e-01 5.42000e-01 -7.04430e-02 -9.88720e-03 3.26600e-01 1.18950e+00 2.49550e-01 1.49510e-01 -6.51460e-02 -6.57990e-03 1.57870e-01 1.08050e+00 4.03240e-02 -3.28240e-02 -4.40130e-02 -3.25590e-03 2.34770e-02 1.10880e+00 4.97190e-02 -7.85560e-03 -2.55520e-02 -2.49160e-03 5.53070e-02 1.08570e+00 1.58910e-02 -2.21870e-02 -1.29970e-02 -8.86960e-04 6.07670e-02 1.05430e+00 -1.08230e-02 -3.30470e-02 -2.21670e-03 -1.23060e-03 9.29140e-02 1.03910e+00 5.56920e-03 -1.17090e-02 -7.82800e-04 5.35900e-05 9.25780e-02 1.02190e+00 4.38950e-03 -9.22320e-03 7.44710e-04 6.75830e-04 1.00690e-01 9.95240e-01 4.98640e-05 -8.02420e-03 2.01160e-03 7.51810e-04 1.08070e-01 9.70800e-01 -5.42320e-04 -4.44850e-03 2.74220e-03 7.73980e-04 1.17620e-01 9.45200e-01 -2.38040e-03 -2.33900e-03 3.07760e-03 7.59740e-04 1.24250e-01 9.20780e-01 -2.57590e-03 8.59820e-04 3.26480e-03 7.42400e-04 1.31820e-01 8.96030e-01 -3.37390e-03 3.31860e-03 3.31180e-03 7.20400e-04 1.37480e-01 8.85400e-01 -1.94130e-03 4.33740e-03 3.33670e-03 6.99640e-04 1.33970e-01 8.47980e-01 -3.72360e-03 8.89070e-03 3.29560e-03 6.92190e-04 1.48050e-01 8.24480e-01 -3.65640e-03 1.17320e-02 3.26350e-03 6.85500e-04 1.52620e-01 8.01170e-01 -3.79870e-03 1.42560e-02 3.21400e-03 6.82360e-04 1.56190e-01 7.78300e-01 -3.71400e-03 1.69040e-02 3.16990e-03 6.82700e-04 1.59540e-01 7.55720e-01 -3.75860e-03 1.93070e-02 3.11900e-03 6.85150e-04 1.62120e-01 7.20890e-01 -4.21650e-03 2.47070e-02 3.05040e-03 6.98420e-04 1.71110e-01 7.11750e-01 -3.66960e-03 2.39590e-02 3.02240e-03 6.93750e-04 1.66080e-01 6.90350e-01 -3.59010e-03 2.61460e-02 2.97520e-03 6.98670e-04 1.67430e-01 6.69330e-01 -3.55950e-03 2.81530e-02 2.92660e-03 7.03560e-04 1.68280e-01 6.48730e-01 -3.48500e-03 3.00850e-02 2.87980e-03 7.08090e-04 1.68810e-01 6.28520e-01 -3.44040e-03 3.18520e-02 2.83230e-03 7.12210e-04 1.68920e-01 5.97090e-01 -3.71730e-03 3.64280e-02 2.76410e-03 7.22560e-04 1.73260e-01 5.89320e-01 -3.31750e-03 3.50310e-02 2.73990e-03 7.18730e-04 1.68200e-01 5.70340e-01 -3.24970e-03 3.64300e-02 2.69450e-03 7.21060e-04 1.67390e-01 5.51760e-01 -3.19300e-03 3.76810e-02 2.64930e-03 7.22800e-04 1.66290e-01 5.33590e-01 -3.12700e-03 3.88130e-02 2.60470e-03 7.23890e-04 1.64940e-01 5.15820e-01 -3.06780e-03 3.98040e-02 2.56040e-03 7.24380e-04 1.63350e-01 4.98450e-01 -3.00300e-03 4.06750e-02 2.51650e-03 7.24250e-04 1.61540e-01 4.81480e-01 -2.94220e-03 4.14120e-02 2.47290e-03 7.23530e-04 1.59520e-01 4.74870e-01 -2.60990e-03 3.96800e-02 2.45120e-03 7.19560e-04 1.54900e-01 4.48700e-01 -2.81640e-03 4.25230e-02 2.38650e-03 7.20310e-04 1.54940e-01 4.32900e-01 -2.75260e-03 4.29000e-02 2.34360e-03 7.17840e-04 1.52410e-01 4.17470e-01 -2.69030e-03 4.31610e-02 2.30100e-03 7.14830e-04 1.49730e-01 4.02410e-01 -2.62680e-03 4.33140e-02 2.25850e-03 7.11270e-04 1.46930e-01 3.87730e-01 -2.56420e-03 4.33580e-02 2.21620e-03 7.07200e-04 1.44010e-01 3.73410e-01 -2.50090e-03 4.33020e-02 2.17410e-03 7.02620e-04 1.40990e-01 3.67930e-01 -2.21130e-03 4.14000e-02 2.15360e-03 6.97980e-04 1.36710e-01 3.45840e-01 -2.37520e-03 4.28990e-02 2.09050e-03 6.92020e-04 1.34680e-01 3.32580e-01 -2.31260e-03 4.25620e-02 2.04900e-03 6.86050e-04 1.31420e-01 3.19650e-01 -2.24990e-03 4.21420e-02 2.00770e-03 6.79640e-04 1.28100e-01 3.07070e-01 -2.18750e-03 4.16420e-02 1.96660e-03 6.72820e-04 1.24730e-01 2.94810e-01 -2.12530e-03 4.10680e-02 1.92570e-03 6.65610e-04 1.21320e-01 2.85320e-01 -1.96960e-03 4.00480e-02 2.01820e-03 4.87980e-04 1.17770e-01 2.78380e-01 -1.72350e-03 3.86660e-02 2.24430e-03 1.48090e-04 1.14170e-01 2.59950e-01 -1.94070e-03 3.89490e-02 1.80430e-03 6.41820e-04 1.10930e-01 2.48950e-01 -1.87990e-03 3.81250e-02 1.76430e-03 6.33230e-04 1.07440e-01 2.38250e-01 -1.81950e-03 3.72510e-02 1.72460e-03 6.24330e-04 1.03940e-01 2.27850e-01 -1.75960e-03 3.63300e-02 1.68510e-03 6.15150e-04 1.00450e-01 2.11640e-01 -1.87320e-03 3.61770e-02 1.62520e-03 6.01500e-04 9.69020e-02 2.07890e-01 -1.64140e-03 3.43680e-02 1.60680e-03 5.95970e-04 9.35120e-02 1.98340e-01 -1.58320e-03 3.33340e-02 1.56800e-03 5.86020e-04 9.00710e-02 1.89060e-01 -1.52550e-03 3.22720e-02 1.52950e-03 5.75830e-04 8.66570e-02 1.80040e-01 -1.46860e-03 3.11850e-02 1.49120e-03 5.65420e-04 8.32730e-02 1.71290e-01 -1.41240e-03 3.00760e-02 1.45310e-03 5.54810e-04 7.99250e-02 1.62790e-01 -1.35690e-03 2.89500e-02 1.41530e-03 5.44000e-04 7.66170e-02 1.54550e-01 -1.30220e-03 2.78100e-02 1.37780e-03 5.33010e-04 7.33530e-02 1.51250e-01 -1.10830e-03 2.63140e-02 1.36030e-03 5.27620e-04 7.05950e-02 1.38820e-01 -1.19530e-03 2.55030e-02 1.30340e-03 5.10530e-04 6.69690e-02 1.31310e-01 -1.14310e-03 2.43420e-02 1.26660e-03 4.99050e-04 6.38560e-02 1.24040e-01 -1.09190e-03 2.31810e-02 1.23000e-03 4.87420e-04 6.07990e-02 1.17000e-01 -1.04160e-03 2.20210e-02 1.19370e-03 4.75660e-04 5.78020e-02 1.06290e-01 -1.11280e-03 2.09970e-02 1.13810e-03 4.57300e-04 5.42850e-02 1.03610e-01 -9.43990e-04 1.97210e-02 1.12160e-03 4.51760e-04 5.19960e-02 9.72540e-02 -8.96750e-04 1.85850e-02 1.08600e-03 4.39640e-04 4.91920e-02 9.11140e-02 -8.50590e-04 1.74620e-02 1.05050e-03 4.27400e-04 4.64560e-02 8.51900e-02 -8.05520e-04 1.63540e-02 1.01530e-03 4.15070e-04 4.37910e-02 7.94790e-02 -7.61600e-04 1.52620e-02 9.80240e-04 4.02640e-04 4.11970e-02 7.39790e-02 -7.18840e-04 1.41900e-02 9.45420e-04 3.90110e-04 3.86770e-02 6.86860e-02 -6.77260e-04 1.31390e-02 9.10800e-04 3.77500e-04 3.62320e-02 6.36000e-02 -6.36900e-04 1.21110e-02 8.76380e-04 3.64810e-04 3.38630e-02 5.87160e-02 -5.97790e-04 1.11070e-02 8.42150e-04 3.52040e-04 3.15710e-02 5.40340e-02 -5.59930e-04 1.01290e-02 8.08110e-04 3.39190e-04 2.93590e-02 4.95510e-02 -5.23370e-04 9.17860e-03 7.74250e-04 3.26270e-04 2.72250e-02 4.75450e-02 -4.11330e-04 8.43110e-03 7.59100e-04 3.20790e-04 2.57920e-02 4.11760e-02 -4.54230e-04 7.36440e-03 7.07060e-04 3.00220e-04 2.32010e-02 3.72800e-02 -4.21700e-04 6.50300e-03 6.73710e-04 2.87100e-04 2.13110e-02 3.35770e-02 -3.90570e-04 5.67360e-03 6.40500e-04 2.73900e-04 1.95040e-02 3.00650e-02 -3.60880e-04 4.87700e-03 6.07430e-04 2.60640e-04 1.77800e-02 2.67430e-02 -3.32670e-04 4.11400e-03 5.74470e-04 2.47290e-04 1.61400e-02 2.36090e-02 -3.05980e-04 3.38530e-03 5.41570e-04 2.33860e-04 1.45830e-02 2.06640e-02 -2.80890e-04 2.69150e-03 5.08690e-04 2.20310e-04 1.31110e-02 1.79050e-02 -2.57470e-04 2.03330e-03 4.75740e-04 2.06630e-04 1.17240e-02 1.57570e-02 -2.09050e-04 1.49670e-03 4.61930e-04 1.91750e-04 1.05880e-02 1.41140e-02 -1.39040e-04 1.08080e-03 4.68110e-04 1.78370e-04 9.68220e-03 1.07440e-02 -1.98420e-04 2.76580e-04 3.75120e-04 1.64250e-04 8.07160e-03 8.72750e-03 -1.82930e-04 -2.35060e-04 3.40290e-04 1.49410e-04 7.02530e-03 6.89640e-03 -1.69830e-04 -7.09170e-04 3.04350e-04 1.34010e-04 6.06500e-03 5.25150e-03 -1.59100e-04 -1.14550e-03 2.67010e-04 1.17920e-04 5.19120e-03 3.15000e-03 -1.78770e-04 -1.73840e-03 2.07210e-04 9.17210e-05 4.07900e-03 2.52790e-03 -1.43880e-04 -1.90320e-03 1.87840e-04 8.34210e-05 3.70560e-03 1.45610e-03 -1.37390e-04 -2.22400e-03 1.47000e-04 6.52880e-05 3.09610e-03 5.85720e-04 -1.27800e-04 -2.50550e-03 1.07330e-04 4.73220e-05 2.57750e-03 -7.42860e-05 -1.10140e-04 -2.74770e-03 7.16390e-05 3.07870e-05 2.15220e-03 -5.08730e-04 -7.41130e-05 -2.95100e-03 4.26890e-05 1.71870e-05 1.82310e-03 -7.11040e-04 -1.71280e-05 -3.11890e-03 2.18040e-05 6.96960e-06 1.60030e-03 -7.36310e-04 4.48770e-05 -3.25200e-03 9.22710e-06 -5.63460e-07 1.51180e-03 -7.23120e-04 8.60190e-05 -3.31480e-03 4.93160e-06 -4.47780e-06 1.51750e-03 1.15190e+00 5.32700e-01 5.16920e-01 -1.18170e-01 -1.67670e-02 2.98580e-01 1.18950e+00 2.30580e-01 1.42830e-01 -1.04090e-01 -1.36080e-02 1.40610e-01 1.09510e+00 1.77890e-02 -3.50880e-02 -5.92690e-02 -7.36860e-03 1.96650e-02 1.10870e+00 3.38060e-02 -9.16370e-03 -2.83310e-02 -4.23940e-03 5.49900e-02 1.08110e+00 6.82740e-03 -2.06500e-02 -1.39030e-02 -1.59280e-03 5.99820e-02 1.05160e+00 -5.09440e-03 -2.41630e-02 -1.38040e-03 -2.13170e-04 9.16040e-02 1.03910e+00 1.19380e-03 -1.32550e-02 -1.03190e-03 2.14680e-05 8.67260e-02 1.01710e+00 1.07290e-03 -9.08790e-03 1.57440e-03 2.13620e-04 9.93570e-02 9.92420e-01 -1.89390e-03 -7.45940e-03 2.94850e-03 3.32330e-04 1.07370e-01 9.69090e-01 -2.01950e-03 -4.08690e-03 3.74480e-03 3.61780e-04 1.17150e-01 9.44680e-01 -3.24220e-03 -1.77810e-03 4.12330e-03 3.83180e-04 1.24220e-01 9.20940e-01 -3.20100e-03 1.36730e-03 4.32200e-03 3.87340e-04 1.31950e-01 8.96790e-01 -3.71590e-03 3.92670e-03 4.37620e-03 3.93250e-04 1.37870e-01 8.86330e-01 -2.35310e-03 4.76760e-03 4.31800e-03 3.72290e-04 1.34400e-01 8.49300e-01 -3.80900e-03 9.54020e-03 4.34680e-03 4.10180e-04 1.48680e-01 8.25910e-01 -3.67890e-03 1.23780e-02 4.30310e-03 4.24520e-04 1.53290e-01 8.02660e-01 -3.74840e-03 1.49300e-02 4.24030e-03 4.39760e-04 1.56920e-01 7.79800e-01 -3.62690e-03 1.75750e-02 4.18190e-03 4.58560e-04 1.60290e-01 7.57200e-01 -3.62870e-03 1.99890e-02 4.11480e-03 4.76780e-04 1.62890e-01 7.22300e-01 -4.03270e-03 2.54100e-02 4.02830e-03 5.15410e-04 1.71870e-01 7.13120e-01 -3.48770e-03 2.46390e-02 3.98510e-03 5.15340e-04 1.66850e-01 6.91660e-01 -3.39060e-03 2.68190e-02 3.92130e-03 5.34400e-04 1.68180e-01 6.70580e-01 -3.34030e-03 2.88240e-02 3.85510e-03 5.51720e-04 1.69020e-01 6.49900e-01 -3.25210e-03 3.07470e-02 3.79120e-03 5.68810e-04 1.69540e-01 6.29630e-01 -3.19260e-03 3.25080e-02 3.72630e-03 5.84190e-04 1.69640e-01 5.98110e-01 -3.45170e-03 3.70780e-02 3.63190e-03 6.11400e-04 1.73950e-01 5.90310e-01 -3.04700e-03 3.56700e-02 3.59950e-03 6.12240e-04 1.68880e-01 5.71260e-01 -2.97000e-03 3.70590e-02 3.53720e-03 6.24720e-04 1.68060e-01 5.52630e-01 -2.90410e-03 3.83020e-02 3.47480e-03 6.35830e-04 1.66940e-01 5.34400e-01 -2.83070e-03 3.94230e-02 3.41350e-03 6.46110e-04 1.65570e-01 5.16580e-01 -2.76430e-03 4.04040e-02 3.35230e-03 6.55150e-04 1.63950e-01 4.99150e-01 -2.69360e-03 4.12640e-02 3.29180e-03 6.63320e-04 1.62130e-01 4.82130e-01 -2.62740e-03 4.19900e-02 3.23160e-03 6.70360e-04 1.60090e-01 4.75500e-01 -2.29110e-03 4.02510e-02 3.20300e-03 6.70640e-04 1.55460e-01 4.49270e-01 -2.49330e-03 4.30790e-02 3.11230e-03 6.81660e-04 1.55470e-01 4.33420e-01 -2.42660e-03 4.34450e-02 3.05330e-03 6.85940e-04 1.52930e-01 4.17960e-01 -2.36190e-03 4.36940e-02 2.99440e-03 6.89260e-04 1.50230e-01 4.02870e-01 -2.29680e-03 4.38350e-02 2.93600e-03 6.91750e-04 1.47410e-01 3.88150e-01 -2.23320e-03 4.38680e-02 2.87780e-03 6.93360e-04 1.44480e-01 3.73800e-01 -2.16960e-03 4.37990e-02 2.82000e-03 6.94190e-04 1.41440e-01 3.68300e-01 -1.87840e-03 4.18910e-02 2.79300e-03 6.92890e-04 1.37160e-01 3.46170e-01 -2.04490e-03 4.33730e-02 2.70530e-03 6.93490e-04 1.35110e-01 3.32880e-01 -1.98370e-03 4.30250e-02 2.64840e-03 6.92040e-04 1.31830e-01 3.19930e-01 -1.92290e-03 4.25930e-02 2.59200e-03 6.89900e-04 1.28500e-01 3.07320e-01 -1.86300e-03 4.20810e-02 2.53590e-03 6.87100e-04 1.25110e-01 2.95040e-01 -1.80370e-03 4.14960e-02 2.48010e-03 6.83660e-04 1.21690e-01 2.83090e-01 -1.74520e-03 4.08410e-02 2.42480e-03 6.79610e-04 1.18230e-01 2.78500e-01 -1.48960e-03 3.89580e-02 2.39950e-03 6.77240e-04 1.14430e-01 2.60130e-01 -1.63030e-03 3.93430e-02 2.31540e-03 6.69820e-04 1.11260e-01 2.49110e-01 -1.57400e-03 3.85080e-02 2.26120e-03 6.64120e-04 1.07760e-01 2.38400e-01 -1.51860e-03 3.76230e-02 2.20760e-03 6.57920e-04 1.04250e-01 2.27980e-01 -1.46380e-03 3.66910e-02 2.15430e-03 6.51240e-04 1.00750e-01 2.11760e-01 -1.58600e-03 3.65210e-02 2.07260e-03 6.39880e-04 9.71850e-02 2.08000e-01 -1.35690e-03 3.47070e-02 2.04910e-03 6.36550e-04 9.37910e-02 1.98440e-01 -1.30470e-03 3.36640e-02 1.99710e-03 6.28570e-04 9.03410e-02 1.89140e-01 -1.25330e-03 3.25910e-02 1.94560e-03 6.20200e-04 8.69170e-02 1.80120e-01 -1.20280e-03 3.14940e-02 1.89450e-03 6.11460e-04 8.35250e-02 1.71360e-01 -1.15320e-03 3.03760e-02 1.84380e-03 6.02370e-04 8.01690e-02 1.62860e-01 -1.10440e-03 2.92400e-02 1.79360e-03 5.92930e-04 7.68530e-02 1.54610e-01 -1.05660e-03 2.80910e-02 1.74380e-03 5.83170e-04 7.35810e-02 1.51310e-01 -8.66420e-04 2.65910e-02 1.72200e-03 5.79710e-04 7.08210e-02 1.38860e-01 -9.63830e-04 2.57650e-02 1.64550e-03 5.62750e-04 6.71820e-02 1.31350e-01 -9.18860e-04 2.45950e-02 1.59700e-03 5.52110e-04 6.40620e-02 1.24080e-01 -8.74860e-04 2.34250e-02 1.54890e-03 5.41210e-04 6.09990e-02 1.17040e-01 -8.31850e-04 2.22570e-02 1.50120e-03 5.30040e-04 5.79960e-02 1.06320e-01 -9.13680e-04 2.12180e-02 1.42710e-03 5.10950e-04 5.44690e-02 1.03640e-01 -7.48840e-04 1.99400e-02 1.40700e-03 5.07000e-04 5.21780e-02 9.72830e-02 -7.08880e-04 1.87960e-02 1.36060e-03 4.95140e-04 4.93680e-02 9.11420e-02 -6.69950e-04 1.76640e-02 1.31450e-03 4.83060e-04 4.66270e-02 8.52160e-02 -6.32070e-04 1.65480e-02 1.26880e-03 4.70770e-04 4.39560e-02 7.95050e-02 -5.95270e-04 1.54490e-02 1.22350e-03 4.58280e-04 4.13570e-02 7.40040e-02 -5.59540e-04 1.43700e-02 1.17850e-03 4.45600e-04 3.88320e-02 6.87120e-02 -5.24900e-04 1.33120e-02 1.13390e-03 4.32730e-04 3.63830e-02 6.36260e-02 -4.91370e-04 1.22760e-02 1.08970e-03 4.19680e-04 3.40090e-02 5.87430e-02 -4.58950e-04 1.12650e-02 1.04580e-03 4.06450e-04 3.17130e-02 5.40620e-02 -4.27650e-04 1.02800e-02 1.00230e-03 3.93060e-04 2.94960e-02 4.95800e-02 -3.97490e-04 9.32310e-03 9.59100e-04 3.79490e-04 2.73590e-02 4.75730e-02 -2.89030e-04 8.57350e-03 9.41450e-04 3.75140e-04 2.59240e-02 4.12080e-02 -3.40640e-04 7.49590e-03 8.73660e-04 3.51860e-04 2.33260e-02 3.73140e-02 -3.13970e-04 6.62820e-03 8.31400e-04 3.37800e-04 2.14330e-02 3.36120e-02 -2.88490e-04 5.79270e-03 7.89420e-04 3.23570e-04 1.96220e-02 3.01030e-02 -2.64220e-04 4.99000e-03 7.47720e-04 3.09180e-04 1.78940e-02 2.67830e-02 -2.41180e-04 4.22100e-03 7.06250e-04 2.94620e-04 1.62500e-02 2.36520e-02 -2.19400e-04 3.48650e-03 6.64970e-04 2.79870e-04 1.46900e-02 2.07090e-02 -1.98920e-04 2.78710e-03 6.23840e-04 2.64920e-04 1.32140e-02 1.79530e-02 -1.79770e-04 2.12330e-03 5.82750e-04 2.49730e-04 1.18230e-02 1.53830e-02 -1.62050e-04 1.49550e-03 5.41580e-04 2.34250e-04 1.05160e-02 1.41470e-02 -1.01080e-04 1.13560e-03 5.25230e-04 2.28940e-04 9.75550e-03 1.07980e-02 -1.31150e-04 3.49990e-04 4.58240e-04 2.02140e-04 8.15910e-03 8.78170e-03 -1.18180e-04 -1.67220e-04 4.15500e-04 1.85280e-04 7.10820e-03 6.94990e-03 -1.07040e-04 -6.47050e-04 3.71560e-04 1.67680e-04 6.14270e-03 5.30240e-03 -9.77770e-05 -1.08930e-03 3.25980e-04 1.49130e-04 5.26270e-03 3.19430e-03 -1.19200e-04 -1.69320e-03 2.50700e-04 1.17340e-04 4.13860e-03 2.56650e-03 -8.47530e-05 -1.86040e-03 2.28730e-04 1.08510e-04 3.76130e-03 1.48490e-03 -8.01340e-05 -2.18860e-03 1.77450e-04 8.63800e-05 3.14180e-03 6.03660e-04 -7.43240e-05 -2.47800e-03 1.26280e-04 6.36420e-05 2.61240e-03 -6.65860e-05 -6.42190e-05 -2.72810e-03 7.87390e-05 4.17480e-05 2.17690e-03 -5.08830e-04 -4.00420e-05 -2.93770e-03 4.01520e-05 2.36130e-05 1.83970e-03 -7.15590e-04 3.85470e-06 -3.11030e-03 1.39940e-05 1.20540e-05 1.61040e-03 -7.41030e-04 5.42110e-05 -3.25000e-03 3.78060e-07 6.86980e-06 1.51690e-03 -7.26380e-04 8.99410e-05 -3.31720e-03 -3.39410e-06 5.57030e-06 1.52180e-03 1.17080e+00 5.09870e-01 4.93890e-01 -1.88530e-01 -2.35390e-02 2.49370e-01 1.21610e+00 1.72080e-01 1.16840e-01 -1.31350e-01 -1.95160e-02 1.14370e-01 1.08040e+00 -1.23090e-02 -4.57230e-02 -4.67440e-02 -8.13780e-03 1.70960e-02 1.08600e+00 2.18050e-02 -8.20730e-03 -2.31860e-02 -3.50990e-03 5.21390e-02 1.05610e+00 -1.49000e-03 -2.27310e-02 -1.02460e-02 -2.10220e-03 5.52780e-02 1.03680e+00 -9.40340e-03 -2.49980e-02 -2.14290e-03 -1.06400e-03 8.79960e-02 1.02530e+00 -1.33570e-03 -1.40010e-02 -4.26500e-04 -1.10310e-03 8.39670e-02 1.00800e+00 -1.47570e-04 -9.43640e-03 1.63440e-03 -8.95330e-04 9.76490e-02 9.86350e-01 -2.08300e-03 -7.62480e-03 2.86020e-03 -8.41820e-04 1.06510e-01 9.65460e-01 -1.75680e-03 -4.14430e-03 3.55080e-03 -7.45200e-04 1.16890e-01 9.42720e-01 -2.46690e-03 -1.62350e-03 3.92450e-03 -6.98670e-04 1.24490e-01 9.20150e-01 -2.28550e-03 1.56190e-03 4.12050e-03 -6.31160e-04 1.32540e-01 8.96780e-01 -2.56400e-03 4.26890e-03 4.19820e-03 -5.83650e-04 1.38750e-01 8.86600e-01 -1.36460e-03 4.92490e-03 4.20500e-03 -5.63160e-04 1.35360e-01 8.50100e-01 -2.52370e-03 9.99440e-03 4.20130e-03 -4.77070e-04 1.49850e-01 8.26870e-01 -2.39970e-03 1.28450e-02 4.16600e-03 -4.23480e-04 1.54520e-01 8.03700e-01 -2.42850e-03 1.54490e-02 4.11350e-03 -3.75230e-04 1.58210e-01 7.80840e-01 -2.32400e-03 1.81010e-02 4.05720e-03 -3.25350e-04 1.61580e-01 7.58220e-01 -2.31490e-03 2.05440e-02 3.99360e-03 -2.79380e-04 1.64200e-01 7.23250e-01 -2.71940e-03 2.59990e-02 3.89650e-03 -2.06730e-04 1.73150e-01 7.14040e-01 -2.19750e-03 2.52110e-02 3.86150e-03 -1.91140e-04 1.68130e-01 6.92510e-01 -2.12100e-03 2.73920e-02 3.79380e-03 -1.49820e-04 1.69440e-01 6.71350e-01 -2.08200e-03 2.94030e-02 3.72490e-03 -1.11200e-04 1.70260e-01 6.50600e-01 -2.01430e-03 3.13250e-02 3.65640e-03 -7.41610e-05 1.70750e-01 6.30260e-01 -1.97010e-03 3.30880e-02 3.58760e-03 -3.94330e-05 1.70820e-01 5.98640e-01 -2.25490e-03 3.76570e-02 3.48180e-03 1.21990e-05 1.75080e-01 5.90800e-01 -1.86240e-03 3.62460e-02 3.45130e-03 2.46650e-05 1.70010e-01 5.71690e-01 -1.80600e-03 3.76310e-02 3.38380e-03 5.40520e-05 1.69150e-01 5.53000e-01 -1.75890e-03 3.88710e-02 3.31680e-03 8.16480e-05 1.68000e-01 5.34710e-01 -1.70620e-03 3.99870e-02 3.25030e-03 1.07650e-04 1.66600e-01 5.16840e-01 -1.65940e-03 4.09640e-02 3.18440e-03 1.32030e-04 1.64960e-01 4.99360e-01 -1.60960e-03 4.18180e-02 3.11890e-03 1.54880e-04 1.63100e-01 4.82300e-01 -1.56370e-03 4.25400e-02 3.05400e-03 1.76240e-04 1.61030e-01 4.75650e-01 -1.23940e-03 4.07980e-02 3.02630e-03 1.86060e-04 1.56390e-01 4.49350e-01 -1.47150e-03 4.36160e-02 2.92550e-03 2.14700e-04 1.56360e-01 4.33470e-01 -1.42610e-03 4.39750e-02 2.86210e-03 2.31900e-04 1.53790e-01 4.17970e-01 -1.38270e-03 4.42180e-02 2.79910e-03 2.47810e-04 1.51070e-01 4.02850e-01 -1.33910e-03 4.43520e-02 2.73670e-03 2.62470e-04 1.48220e-01 3.88100e-01 -1.29700e-03 4.43770e-02 2.67480e-03 2.75950e-04 1.45260e-01 3.73720e-01 -1.25510e-03 4.43020e-02 2.61350e-03 2.88270e-04 1.42200e-01 3.68210e-01 -9.76420e-04 4.23920e-02 2.58820e-03 2.95180e-04 1.37910e-01 3.46050e-01 -1.17410e-03 4.38600e-02 2.49240e-03 3.09680e-04 1.35820e-01 3.32740e-01 -1.13480e-03 4.35040e-02 2.43280e-03 3.18850e-04 1.32520e-01 3.19780e-01 -1.09600e-03 4.30640e-02 2.37380e-03 3.27060e-04 1.29160e-01 3.07160e-01 -1.05810e-03 4.25450e-02 2.31540e-03 3.34360e-04 1.25760e-01 2.94870e-01 -1.02080e-03 4.19520e-02 2.25770e-03 3.40780e-04 1.22320e-01 2.82900e-01 -9.84310e-04 4.12900e-02 2.20060e-03 3.46380e-04 1.18840e-01 2.78310e-01 -7.41780e-04 3.94050e-02 2.17810e-03 3.51300e-04 1.15030e-01 2.59930e-01 -9.13300e-04 3.97750e-02 2.08840e-03 3.55210e-04 1.11830e-01 2.48910e-01 -8.78830e-04 3.89330e-02 2.03330e-03 3.58530e-04 1.08310e-01 2.38190e-01 -8.45070e-04 3.80400e-02 1.97880e-03 3.61170e-04 1.04790e-01 2.27770e-01 -8.11980e-04 3.71010e-02 1.92510e-03 3.63150e-04 1.01270e-01 2.11540e-01 -9.64100e-04 3.69180e-02 1.83940e-03 3.61920e-04 9.76810e-02 2.07790e-01 -7.47870e-04 3.51020e-02 1.81970e-03 3.65290e-04 9.42810e-02 1.98230e-01 -7.16840e-04 3.40510e-02 1.76800e-03 3.65500e-04 9.08160e-02 1.88930e-01 -6.86480e-04 3.29710e-02 1.71700e-03 3.65180e-04 8.73790e-02 1.79910e-01 -6.56790e-04 3.18660e-02 1.66670e-03 3.64350e-04 8.39730e-02 1.71160e-01 -6.27770e-04 3.07400e-02 1.61700e-03 3.63030e-04 8.06040e-02 1.62660e-01 -5.99420e-04 2.95970e-02 1.56810e-03 3.61250e-04 7.72750e-02 1.54420e-01 -5.71740e-04 2.84410e-02 1.51980e-03 3.59030e-04 7.39910e-02 1.51120e-01 -3.93850e-04 2.69390e-02 1.50280e-03 3.61920e-04 7.12260e-02 1.38680e-01 -5.18380e-04 2.61010e-02 1.42520e-03 3.53340e-04 6.75690e-02 1.31180e-01 -4.92700e-04 2.49240e-02 1.37890e-03 3.49900e-04 6.44380e-02 1.23910e-01 -4.67680e-04 2.37460e-02 1.33330e-03 3.46100e-04 6.13650e-02 1.16880e-01 -4.43320e-04 2.25720e-02 1.28830e-03 3.41950e-04 5.83520e-02 1.06180e-01 -5.50310e-04 2.15210e-02 1.21450e-03 3.30570e-04 5.48080e-02 1.03500e-01 -3.96590e-04 2.02410e-02 1.20010e-03 3.32630e-04 5.25140e-02 9.71530e-02 -3.74220e-04 1.90900e-02 1.15700e-03 3.27500e-04 4.96950e-02 9.10210e-02 -3.52520e-04 1.79520e-02 1.11440e-03 3.22060e-04 4.69450e-02 8.51060e-02 -3.31470e-04 1.68290e-02 1.07250e-03 3.16320e-04 4.42650e-02 7.94050e-02 -3.11090e-04 1.57230e-02 1.03110e-03 3.10300e-04 4.16580e-02 7.39150e-02 -2.91360e-04 1.46370e-02 9.90280e-04 3.04000e-04 3.91250e-02 6.86330e-02 -2.72300e-04 1.35720e-02 9.50030e-04 2.97440e-04 3.66670e-02 6.35580e-02 -2.53900e-04 1.25300e-02 9.10330e-04 2.90600e-04 3.42860e-02 5.86860e-02 -2.36170e-04 1.15120e-02 8.71160e-04 2.83520e-04 3.19820e-02 5.40160e-02 -2.19090e-04 1.05210e-02 8.32510e-04 2.76170e-04 2.97580e-02 4.95450e-02 -2.02690e-04 9.55690e-03 7.94360e-04 2.68580e-04 2.76130e-02 4.75440e-02 -1.02680e-04 8.80560e-03 7.83790e-04 2.69810e-04 2.61750e-02 4.11950e-02 -1.71860e-04 7.71620e-03 7.19550e-04 2.52660e-04 2.35660e-02 3.73130e-02 -1.57450e-04 6.84190e-03 6.82860e-04 2.44330e-04 2.16650e-02 3.36230e-02 -1.43710e-04 5.99950e-03 6.46610e-04 2.35760e-04 1.98470e-02 3.01240e-02 -1.30650e-04 5.19000e-03 6.10790e-04 2.26950e-04 1.81130e-02 2.68160e-02 -1.18270e-04 4.41420e-03 5.75370e-04 2.17880e-04 1.64620e-02 2.36960e-02 -1.06570e-04 3.67280e-03 5.40330e-04 2.08560e-04 1.48950e-02 2.07640e-02 -9.55790e-05 2.96640e-03 5.05610e-04 1.98960e-04 1.34130e-02 1.80190e-02 -8.53030e-05 2.29560e-03 4.71140e-04 1.89060e-04 1.20150e-02 1.54600e-02 -7.57730e-05 1.66080e-03 4.36840e-04 1.78830e-04 1.07020e-02 1.42290e-02 -1.96900e-05 1.29860e-03 4.28830e-04 1.78690e-04 9.93810e-03 1.08950e-02 -5.90570e-05 5.00670e-04 3.68160e-04 1.57160e-04 8.33040e-03 8.88750e-03 -5.19520e-05 -2.41530e-05 3.33360e-04 1.45540e-04 7.27200e-03 7.06270e-03 -4.57770e-05 -5.11960e-04 2.97870e-04 1.33240e-04 6.29840e-03 5.42010e-03 -4.05370e-05 -9.62750e-04 2.61290e-04 1.20080e-04 5.40920e-03 3.31470e-03 -6.61510e-05 -1.58220e-03 1.95050e-04 9.38590e-05 4.26770e-03 2.68320e-03 -3.30370e-05 -1.75360e-03 1.83350e-04 9.04160e-05 3.88400e-03 1.59340e-03 -3.06400e-05 -2.09400e-03 1.41600e-04 7.35950e-05 3.24850e-03 6.97870e-04 -2.81940e-05 -2.39780e-03 9.87440e-05 5.55750e-05 2.69960e-03 7.76680e-06 -2.46860e-05 -2.66470e-03 5.69740e-05 3.72330e-05 2.24140e-03 -4.58510e-04 -1.51460e-05 -2.89340e-03 2.13810e-05 2.10300e-05 1.88130e-03 -6.88580e-04 7.48520e-06 -3.08190e-03 -1.55450e-06 1.19660e-05 1.63180e-03 -7.31710e-04 3.51060e-05 -3.23360e-03 -1.12080e-05 1.27230e-05 1.52220e-03 -7.20370e-04 5.54450e-05 -3.30760e-03 -1.27510e-05 1.73280e-05 1.52130e-03 1.26280e+00 4.95170e-01 4.73070e-01 -2.72170e-01 -2.82160e-02 2.15370e-01 1.25120e+00 1.22210e-01 8.73240e-02 -1.37180e-01 -2.09870e-02 9.42900e-02 1.03850e+00 -1.98520e-02 -5.02590e-02 -2.19520e-02 -5.87230e-03 9.66580e-03 1.06590e+00 2.15870e-02 -6.08440e-03 -2.35600e-02 -1.51150e-03 4.38240e-02 1.03290e+00 -4.46990e-03 -2.77260e-02 -5.31400e-03 -1.73960e-03 4.88920e-02 1.02690e+00 -1.97910e-02 -3.66270e-02 1.08710e-03 -5.17070e-04 8.44610e-02 1.01560e+00 -2.20150e-03 -1.76480e-02 4.74310e-04 -1.26110e-03 8.15560e-02 1.00420e+00 6.06970e-04 -1.10660e-02 7.15260e-04 -9.40720e-04 9.68670e-02 9.83370e-01 -1.97340e-03 -1.03130e-02 2.79670e-03 -1.02120e-03 1.06330e-01 9.65050e-01 -9.90350e-04 -5.89760e-03 2.90040e-03 -8.23910e-04 1.17530e-01 9.42770e-01 -1.95950e-03 -3.71210e-03 3.65940e-03 -8.19850e-04 1.25460e-01 9.21260e-01 -1.52300e-03 -6.38610e-05 3.66020e-03 -6.82540e-04 1.33910e-01 8.98060e-01 -1.90520e-03 2.57660e-03 3.92050e-03 -6.47690e-04 1.40300e-01 8.88250e-01 -2.99440e-04 3.74620e-03 3.74860e-03 -6.09410e-04 1.37030e-01 8.51770e-01 -1.81060e-03 8.58320e-03 3.94190e-03 -4.98480e-04 1.51660e-01 8.28630e-01 -1.65300e-03 1.15900e-02 3.87880e-03 -4.15670e-04 1.56410e-01 8.05390e-01 -1.69930e-03 1.42500e-02 3.86660e-03 -3.67770e-04 1.60120e-01 7.82500e-01 -1.58560e-03 1.70090e-02 3.79600e-03 -2.99450e-04 1.63520e-01 7.59780e-01 -1.58580e-03 1.95130e-02 3.75020e-03 -2.53060e-04 1.66130e-01 7.24680e-01 -2.02310e-03 2.50490e-02 3.65550e-03 -1.62460e-04 1.75070e-01 7.15410e-01 -1.47620e-03 2.43210e-02 3.61620e-03 -1.52570e-04 1.70030e-01 6.93790e-01 -1.40450e-03 2.65680e-02 3.54190e-03 -1.03840e-04 1.71330e-01 6.72530e-01 -1.37250e-03 2.86340e-02 3.47520e-03 -6.46730e-05 1.72120e-01 6.51690e-01 -1.31170e-03 3.06140e-02 3.40140e-03 -2.29750e-05 1.72570e-01 6.31250e-01 -1.27520e-03 3.24270e-02 3.33260e-03 1.20980e-05 1.72610e-01 5.99500e-01 -1.57720e-03 3.70600e-02 3.22230e-03 6.82480e-05 1.76830e-01 5.91620e-01 -1.18400e-03 3.56820e-02 3.19090e-03 7.89900e-05 1.71730e-01 5.72430e-01 -1.13650e-03 3.71130e-02 3.11990e-03 1.09790e-04 1.70840e-01 5.53660e-01 -1.09870e-03 3.83950e-02 3.05140e-03 1.37010e-04 1.69650e-01 5.35300e-01 -1.05560e-03 3.95530e-02 2.98210e-03 1.63400e-04 1.68220e-01 5.17360e-01 -1.01880e-03 4.05680e-02 2.91460e-03 1.86980e-04 1.66540e-01 4.99830e-01 -9.79260e-04 4.14590e-02 2.84690e-03 2.09430e-04 1.64640e-01 4.82700e-01 -9.43960e-04 4.22160e-02 2.78070e-03 2.29590e-04 1.62540e-01 4.76010e-01 -6.24930e-04 4.04980e-02 2.75350e-03 2.38610e-04 1.57880e-01 4.49640e-01 -8.73840e-04 4.33570e-02 2.64970e-03 2.65460e-04 1.57790e-01 4.33710e-01 -8.39880e-04 4.37470e-02 2.58520e-03 2.81150e-04 1.55180e-01 4.18170e-01 -8.08100e-04 4.40180e-02 2.52180e-03 2.95180e-04 1.52430e-01 4.03000e-01 -7.76450e-04 4.41790e-02 2.45890e-03 3.07960e-04 1.49550e-01 3.88220e-01 -7.46470e-04 4.42300e-02 2.39700e-03 3.19300e-04 1.46550e-01 3.73810e-01 -7.16900e-04 4.41790e-02 2.33580e-03 3.29460e-04 1.43450e-01 3.68270e-01 -4.45890e-04 4.22850e-02 2.31300e-03 3.35080e-04 1.39140e-01 3.46070e-01 -6.61020e-04 4.37820e-02 2.21600e-03 3.46150e-04 1.37000e-01 3.32730e-01 -6.34490e-04 4.34460e-02 2.15740e-03 3.52830e-04 1.33670e-01 3.19750e-01 -6.08600e-04 4.30260e-02 2.09960e-03 3.58520e-04 1.30280e-01 3.07100e-01 -5.83690e-04 4.25250e-02 2.04270e-03 3.63220e-04 1.26840e-01 2.94790e-01 -5.59450e-04 4.19500e-02 1.98670e-03 3.67030e-04 1.23370e-01 2.82810e-01 -5.36080e-04 4.13030e-02 1.93150e-03 3.69960e-04 1.19860e-01 2.78210e-01 -3.01770e-04 3.94300e-02 1.91260e-03 3.73630e-04 1.16040e-01 2.59800e-01 -4.91470e-04 3.98190e-02 1.82390e-03 3.73460e-04 1.12790e-01 2.48770e-01 -4.70230e-04 3.89900e-02 1.77140e-03 3.74120e-04 1.09240e-01 2.38040e-01 -4.49720e-04 3.81100e-02 1.71980e-03 3.74100e-04 1.05690e-01 2.27610e-01 -4.29840e-04 3.71820e-02 1.66910e-03 3.73450e-04 1.02140e-01 2.11370e-01 -5.99890e-04 3.70130e-02 1.58540e-03 3.68070e-04 9.85090e-02 2.07610e-01 -3.92060e-04 3.52050e-02 1.57030e-03 3.70410e-04 9.50950e-02 1.98040e-01 -3.74100e-04 3.41640e-02 1.52220e-03 3.68090e-04 9.16030e-02 1.88750e-01 -3.56740e-04 3.30930e-02 1.47490e-03 3.65290e-04 8.81400e-02 1.79730e-01 -3.39970e-04 3.19960e-02 1.42850e-03 3.62040e-04 8.47080e-02 1.70970e-01 -3.23770e-04 3.08780e-02 1.38290e-03 3.58360e-04 8.13150e-02 1.62470e-01 -3.08120e-04 2.97430e-02 1.33820e-03 3.54290e-04 7.79620e-02 1.54230e-01 -2.93010e-04 2.85930e-02 1.29420e-03 3.49840e-04 7.46540e-02 1.50930e-01 -1.23230e-04 2.70970e-02 1.28250e-03 3.52160e-04 7.18760e-02 1.38500e-01 -2.64360e-04 2.62640e-02 1.20870e-03 3.39950e-04 6.81870e-02 1.31000e-01 -2.50790e-04 2.50920e-02 1.16720e-03 3.34540e-04 6.50350e-02 1.23730e-01 -2.37710e-04 2.39190e-02 1.12630e-03 3.28860e-04 6.19400e-02 1.16710e-01 -2.25100e-04 2.27490e-02 1.08630e-03 3.22910e-04 5.89060e-02 1.06010e-01 -3.47600e-04 2.17010e-02 1.01690e-03 3.08340e-04 5.53340e-02 1.03340e-01 -2.01280e-04 2.04240e-02 1.00830e-03 3.10300e-04 5.30290e-02 9.69940e-02 -1.90040e-04 1.92760e-02 9.70400e-04 3.03670e-04 5.01900e-02 9.08690e-02 -1.79230e-04 1.81400e-02 9.33160e-04 2.96850e-04 4.74210e-02 8.49600e-02 -1.68840e-04 1.70190e-02 8.96590e-04 2.89830e-04 4.47240e-02 7.92670e-02 -1.58880e-04 1.59150e-02 8.60670e-04 2.82640e-04 4.20990e-02 7.37850e-02 -1.49310e-04 1.48290e-02 8.25390e-04 2.75290e-04 3.95480e-02 6.85110e-02 -1.40150e-04 1.37650e-02 7.90720e-04 2.67780e-04 3.70730e-02 6.34440e-02 -1.31370e-04 1.27220e-02 7.56660e-04 2.60130e-04 3.46760e-02 5.85820e-02 -1.22980e-04 1.17050e-02 7.23170e-04 2.52330e-04 3.23560e-02 5.39210e-02 -1.14960e-04 1.07120e-02 6.90260e-04 2.44400e-04 3.01160e-02 4.94590e-02 -1.07310e-04 9.74700e-03 6.57890e-04 2.36330e-04 2.79560e-02 4.74630e-02 -1.29550e-05 8.99660e-03 6.53540e-04 2.38380e-04 2.65100e-02 4.11290e-02 -9.30860e-05 7.90290e-03 5.94720e-04 2.19840e-04 2.38800e-02 3.72560e-02 -8.65060e-05 7.02630e-03 5.63880e-04 2.11410e-04 2.19650e-02 3.35760e-02 -8.02720e-05 6.18120e-03 5.33520e-04 2.02860e-04 2.01330e-02 3.00880e-02 -7.43800e-05 5.36870e-03 5.03610e-04 1.94200e-04 1.83850e-02 2.67900e-02 -6.88290e-05 4.58950e-03 4.74130e-04 1.85410e-04 1.67210e-02 2.36810e-02 -6.36150e-05 3.84430e-03 4.45040e-04 1.76500e-04 1.51410e-02 2.07600e-02 -5.87480e-05 3.13380e-03 4.16320e-04 1.67450e-04 1.36460e-02 1.80250e-02 -5.42250e-05 2.45840e-03 3.87900e-04 1.58250e-04 1.22360e-02 1.54770e-02 -5.00530e-05 1.81870e-03 3.59750e-04 1.48880e-04 1.09110e-02 1.42510e-02 2.66260e-06 1.45490e-03 3.58260e-04 1.50490e-04 1.01410e-02 1.09330e-02 -4.27820e-05 6.47560e-04 3.03810e-04 1.29480e-04 8.51680e-03 8.93620e-03 -3.96980e-05 1.16550e-04 2.75760e-04 1.19340e-04 7.44700e-03 7.12130e-03 -3.70020e-05 -3.77980e-04 2.47390e-04 1.08800e-04 6.46180e-03 5.48750e-03 -3.46580e-05 -8.36140e-04 2.18410e-04 9.77410e-05 5.56080e-03 3.39260e-03 -6.30300e-05 -1.46860e-03 1.60790e-04 7.37910e-05 4.40040e-03 2.76220e-03 -3.08750e-05 -1.64440e-03 1.57340e-04 7.34380e-05 4.00900e-03 1.67330e-03 -2.91640e-05 -1.99560e-03 1.24640e-04 5.98660e-05 3.35730e-03 7.73030e-04 -2.69870e-05 -2.31240e-03 9.04410e-05 4.52520e-05 2.78900e-03 7.19080e-05 -2.35000e-05 -2.59490e-03 5.59460e-05 3.00370e-05 2.30690e-03 -4.12740e-04 -1.66330e-05 -2.84340e-03 2.40690e-05 1.57060e-05 1.91880e-03 -6.61570e-04 -1.23490e-06 -3.05240e-03 3.24210e-06 7.55340e-06 1.64160e-03 -7.18290e-04 1.48570e-05 -3.21800e-03 -6.16500e-06 1.16070e-05 1.51380e-03 -7.10080e-04 2.48960e-05 -3.29680e-03 -8.50480e-06 2.02030e-05 1.50820e-03 1.01700e+00 4.45560e-01 4.27620e-01 2.40530e-01 1.28280e-02 1.00080e-01 1.04620e+00 1.32650e-01 1.19910e-01 1.09900e-01 9.30190e-03 6.64270e-02 9.12420e-01 -1.36160e-02 -4.25800e-02 5.12550e-03 3.28430e-03 2.64370e-02 9.13110e-01 1.69990e-02 -7.41410e-03 1.45690e-02 -1.06980e-03 3.56570e-02 8.88270e-01 2.10120e-03 -2.13800e-02 1.30870e-03 -1.64530e-03 4.95470e-02 8.75980e-01 -1.45370e-03 -1.63680e-02 -1.24490e-03 -2.20090e-03 8.16300e-02 8.67150e-01 3.50600e-03 -1.16680e-02 -1.38790e-03 -1.80140e-03 7.83040e-02 8.54670e-01 3.94680e-03 -7.00550e-03 -1.22870e-03 -1.69070e-03 9.03930e-02 8.38370e-01 3.08810e-03 -4.68590e-03 -2.48350e-03 -1.58010e-03 1.00700e-01 8.21900e-01 2.87930e-03 -1.31720e-03 -2.39900e-03 -1.48580e-03 1.09880e-01 7.73860e-01 -3.55320e-03 -4.14920e-03 -2.54040e-03 -2.39770e-03 1.13610e-01 6.95210e-01 -1.69540e-02 -1.33670e-02 -2.07040e-03 -4.18800e-03 1.12270e-01 7.65970e-01 2.33810e-03 7.46050e-03 -2.75170e-03 -1.33530e-03 1.30780e-01 7.46410e-01 2.15550e-03 1.02530e-02 -2.66890e-03 -1.30290e-03 1.36040e-01 7.26720e-01 2.13050e-03 1.30420e-02 -2.64530e-03 -1.28190e-03 1.40540e-01 7.06960e-01 1.99640e-03 1.56570e-02 -2.57300e-03 -1.26250e-03 1.44400e-01 6.87330e-01 1.97490e-03 1.82510e-02 -2.52100e-03 -1.24790e-03 1.47650e-01 6.56580e-01 1.66880e-03 2.39710e-02 -2.42740e-03 -1.24210e-03 1.57590e-01 6.48540e-01 1.84700e-03 2.30430e-02 -2.39720e-03 -1.22210e-03 1.52580e-01 6.29500e-01 1.76690e-03 2.52520e-02 -2.33700e-03 -1.21030e-03 1.54330e-01 6.10770e-01 1.73460e-03 2.73850e-02 -2.27740e-03 -1.19810e-03 1.55660e-01 5.92320e-01 1.66810e-03 2.93670e-02 -2.21990e-03 -1.18600e-03 1.56590e-01 5.74210e-01 1.63190e-03 3.12540e-02 -2.16180e-03 -1.17280e-03 1.57160e-01 5.56430e-01 1.57430e-03 3.29980e-02 -2.10660e-03 -1.15950e-03 1.57390e-01 5.39000e-01 1.53570e-03 3.46340e-02 -2.05070e-03 -1.14510e-03 1.57300e-01 5.11590e-01 1.17620e-03 3.90520e-02 -1.96910e-03 -1.13300e-03 1.61320e-01 5.05160e-01 1.44450e-03 3.75170e-02 -1.94420e-03 -1.11480e-03 1.56250e-01 4.88760e-01 1.39710e-03 3.87670e-02 -1.89310e-03 -1.09870e-03 1.55340e-01 4.72720e-01 1.35730e-03 3.98990e-02 -1.84220e-03 -1.08190e-03 1.54180e-01 4.57030e-01 1.31310e-03 4.09030e-02 -1.79310e-03 -1.06470e-03 1.52810e-01 4.41680e-01 1.27370e-03 4.17880e-02 -1.74450e-03 -1.04680e-03 1.51220e-01 4.26680e-01 1.23190e-03 4.25490e-02 -1.69750e-03 -1.02860e-03 1.49460e-01 4.12030e-01 1.19330e-03 4.31940e-02 -1.65100e-03 -1.00980e-03 1.47510e-01 4.06610e-01 1.43920e-03 4.13880e-02 -1.63250e-03 -9.93290e-04 1.42960e-01 3.83740e-01 1.11600e-03 4.41380e-02 -1.56150e-03 -9.71370e-04 1.43160e-01 3.70090e-01 1.07800e-03 4.44440e-02 -1.51830e-03 -9.51710e-04 1.40780e-01 3.56780e-01 1.04160e-03 4.46440e-02 -1.47580e-03 -9.31730e-04 1.38280e-01 3.43790e-01 1.00530e-03 4.47400e-02 -1.43430e-03 -9.11580e-04 1.35660e-01 3.31130e-01 9.70170e-04 4.47380e-02 -1.39370e-03 -8.91210e-04 1.32960e-01 3.26540e-01 1.19170e-03 4.28080e-02 -1.37960e-03 -8.76160e-04 1.28750e-01 3.06740e-01 9.01540e-04 4.44540e-02 -1.31510e-03 -8.50110e-04 1.27290e-01 2.95010e-01 8.68160e-04 4.41790e-02 -1.27710e-03 -8.29430e-04 1.24350e-01 2.83580e-01 8.35690e-04 4.38230e-02 -1.24000e-03 -8.08690e-04 1.21360e-01 2.72450e-01 8.03730e-04 4.33890e-02 -1.20370e-03 -7.87950e-04 1.18320e-01 2.61610e-01 7.72570e-04 4.28810e-02 -1.16810e-03 -7.67210e-04 1.15230e-01 2.51050e-01 7.41980e-04 4.23040e-02 -1.13340e-03 -7.46520e-04 1.12120e-01 2.47240e-01 9.34190e-04 4.03950e-02 -1.12400e-03 -7.33810e-04 1.08420e-01 2.30780e-01 6.82890e-04 4.09590e-02 -1.06640e-03 -7.05360e-04 1.05820e-01 2.21050e-01 6.54340e-04 4.02010e-02 -1.03400e-03 -6.84930e-04 1.02650e-01 2.11590e-01 6.26400e-04 3.93910e-02 -1.00240e-03 -6.64650e-04 9.94740e-02 2.02390e-01 5.99130e-04 3.85330e-02 -9.71530e-04 -6.44520e-04 9.63000e-02 1.93450e-01 5.72460e-04 3.76320e-02 -9.41370e-04 -6.24560e-04 9.31310e-02 1.79340e-01 3.53120e-04 3.75290e-02 -8.88440e-04 -5.95460e-04 9.00490e-02 1.76310e-01 5.21050e-04 3.57150e-02 -8.83140e-04 -5.85240e-04 8.68330e-02 1.68110e-01 4.96270e-04 3.47070e-02 -8.55040e-04 -5.65900e-04 8.37130e-02 1.60140e-01 4.72100e-04 3.36710e-02 -8.27600e-04 -5.46800e-04 8.06170e-02 1.52410e-01 4.48550e-04 3.26110e-02 -8.00800e-04 -5.27940e-04 7.75510e-02 1.44910e-01 4.25590e-04 3.15310e-02 -7.74620e-04 -5.09340e-04 7.45180e-02 1.42090e-01 5.69390e-04 2.99540e-02 -7.71530e-04 -5.01200e-04 7.17650e-02 1.30570e-01 3.81470e-04 2.93220e-02 -7.24060e-04 -4.72960e-04 6.85640e-02 1.23720e-01 3.60290e-04 2.81990e-02 -6.99650e-04 -4.55190e-04 6.56490e-02 1.17100e-01 3.39700e-04 2.70690e-02 -6.75800e-04 -4.37710e-04 6.27800e-02 1.06810e-01 1.70930e-04 2.62170e-02 -6.30610e-04 -4.10020e-04 5.95760e-02 1.04460e-01 3.00240e-04 2.47980e-02 -6.29700e-04 -4.03660e-04 5.71890e-02 9.84520e-02 2.81370e-04 2.36620e-02 -6.07420e-04 -3.87090e-04 5.44710e-02 9.26410e-02 2.63060e-04 2.25300e-02 -5.85630e-04 -3.70830e-04 5.18090e-02 8.70260e-02 2.45320e-04 2.14030e-02 -5.64310e-04 -3.54880e-04 4.92040e-02 8.16050e-02 2.28130e-04 2.02850e-02 -5.43450e-04 -3.39250e-04 4.66580e-02 7.63750e-02 2.11500e-04 1.91760e-02 -5.23030e-04 -3.23940e-04 4.41720e-02 7.13330e-02 1.95410e-04 1.80810e-02 -5.03040e-04 -3.08940e-04 4.17490e-02 6.64770e-02 1.79880e-04 1.69990e-02 -4.83450e-04 -2.94260e-04 3.93880e-02 6.18040e-02 1.64880e-04 1.59340e-02 -4.64260e-04 -2.79900e-04 3.70930e-02 5.73130e-02 1.50430e-04 1.48860e-02 -4.45440e-04 -2.65860e-04 3.48640e-02 5.30000e-02 1.36510e-04 1.38590e-02 -4.26980e-04 -2.52130e-04 3.27010e-02 4.88650e-02 1.23130e-04 1.28520e-02 -4.08860e-04 -2.38710e-04 3.06070e-02 4.49050e-02 1.10270e-04 1.18670e-02 -3.91070e-04 -2.25610e-04 2.85820e-02 4.11180e-02 9.79410e-05 1.09070e-02 -3.73600e-04 -2.12810e-04 2.66260e-02 3.94800e-02 1.73520e-04 1.01390e-02 -3.76630e-04 -2.10860e-04 2.52810e-02 3.40600e-02 7.48550e-05 9.06150e-03 -3.39520e-04 -1.88120e-04 2.29260e-02 3.07850e-02 6.40860e-05 8.17890e-03 -3.22880e-04 -1.76230e-04 2.11840e-02 2.76780e-02 5.38320e-05 7.32430e-03 -3.06500e-04 -1.64630e-04 1.95130e-02 2.47370e-02 4.40880e-05 6.49850e-03 -2.90330e-04 -1.53310e-04 1.79150e-02 2.19620e-02 3.48490e-05 5.70230e-03 -2.74380e-04 -1.42260e-04 1.63900e-02 1.93520e-02 2.61110e-05 4.93640e-03 -2.58610e-04 -1.31490e-04 1.49380e-02 1.69050e-02 1.78650e-05 4.20130e-03 -2.42980e-04 -1.20970e-04 1.35590e-02 1.46210e-02 1.01030e-05 3.49760e-03 -2.27470e-04 -1.10690e-04 1.22540e-02 1.24990e-02 2.82120e-06 2.82570e-03 -2.12010e-04 -1.00620e-04 1.10230e-02 1.05380e-02 -3.99700e-06 2.18600e-03 -1.96530e-04 -9.07460e-05 9.86560e-03 9.60870e-03 3.47720e-05 1.82040e-03 -2.01120e-04 -9.11860e-05 9.19180e-03 7.09470e-03 -1.62660e-05 1.00400e-03 -1.65100e-04 -7.13780e-05 7.77110e-03 5.61130e-03 -2.17260e-05 4.62090e-04 -1.48850e-04 -6.17680e-05 6.83340e-03 4.28530e-03 -2.67560e-05 -4.73210e-05 -1.31960e-04 -5.20850e-05 5.96800e-03 3.11580e-03 -3.12500e-05 -5.24400e-04 -1.14230e-04 -4.22400e-05 5.17380e-03 2.10220e-03 -3.52100e-05 -9.69900e-04 -9.53590e-05 -3.20870e-05 4.44930e-03 8.85330e-04 -6.01440e-05 -1.59280e-03 -5.40450e-05 -1.13360e-05 3.50850e-03 5.44820e-04 -3.99100e-05 -1.77000e-03 -5.42380e-05 -1.08580e-05 3.20140e-03 6.12740e-06 -3.82270e-05 -2.12690e-03 -3.36280e-05 -7.50160e-07 2.67430e-03 -3.68930e-04 -3.26620e-05 -2.45920e-03 -1.53510e-05 6.93570e-06 2.21390e-03 -5.73460e-04 -1.23000e-05 -2.75970e-03 -1.00950e-05 4.49030e-06 1.83230e-03 -6.60040e-04 -1.10030e-05 -3.05390e-03 -8.75030e-06 -9.36060e-06 1.59320e-03 -6.78010e-04 -2.13230e-05 -3.22590e-03 -4.38290e-06 -2.01820e-05 1.54750e-03 9.37050e-01 4.70960e-01 4.54650e-01 1.61580e-01 1.19750e-02 1.27270e-01 1.02420e+00 1.92890e-01 1.60500e-01 1.04610e-01 1.14990e-02 8.88280e-02 9.59310e-01 -1.11820e-03 -3.23310e-02 2.89840e-02 5.90490e-03 4.11610e-02 9.29600e-01 1.68510e-02 -9.98870e-03 1.32490e-02 1.16850e-03 4.62790e-02 9.07590e-01 7.72680e-03 -1.44570e-02 5.21980e-03 -4.95850e-04 5.78180e-02 8.84070e-01 9.90350e-03 -4.89930e-03 3.77130e-04 -1.07590e-03 8.49600e-02 8.74770e-01 6.67370e-03 -7.02810e-03 -9.48380e-04 -1.03050e-03 8.11830e-02 8.57770e-01 5.27500e-03 -4.65830e-03 -2.13680e-03 -8.86770e-04 9.14870e-02 8.40430e-01 5.21600e-03 -1.31280e-03 -2.76300e-03 -7.45570e-04 1.00770e-01 8.22010e-01 4.27770e-03 1.05330e-03 -3.03440e-03 -6.00980e-04 1.09080e-01 7.73960e-01 -1.17580e-03 -1.00930e-03 -2.90140e-03 -1.00040e-03 1.12270e-01 6.95400e-01 -1.49920e-02 -1.11640e-02 -2.64650e-03 -1.89470e-03 1.10580e-01 7.64500e-01 3.77700e-03 9.57970e-03 -3.07480e-03 -3.52610e-04 1.28770e-01 7.44700e-01 3.44040e-03 1.20900e-02 -3.00130e-03 -3.07830e-04 1.33830e-01 7.24990e-01 3.42490e-03 1.48020e-02 -2.92750e-03 -2.80590e-04 1.38220e-01 7.05220e-01 3.20120e-03 1.72370e-02 -2.85300e-03 -2.62400e-04 1.42010e-01 6.85650e-01 3.16060e-03 1.97390e-02 -2.78440e-03 -2.53560e-04 1.45220e-01 6.55010e-01 2.80570e-03 2.53110e-02 -2.69300e-03 -2.60260e-04 1.55130e-01 6.47040e-01 2.94110e-03 2.43150e-02 -2.65860e-03 -2.50340e-04 1.50130e-01 6.28100e-01 2.81260e-03 2.64250e-02 -2.60090e-03 -2.53220e-04 1.51900e-01 6.09480e-01 2.74690e-03 2.84770e-02 -2.54570e-03 -2.57690e-04 1.53250e-01 5.91150e-01 2.63930e-03 3.03760e-02 -2.49250e-03 -2.62910e-04 1.54220e-01 5.73150e-01 2.56920e-03 3.21890e-02 -2.44060e-03 -2.68370e-04 1.54820e-01 5.55470e-01 2.47480e-03 3.38610e-02 -2.39020e-03 -2.73820e-04 1.55090e-01 5.38140e-01 2.40340e-03 3.54310e-02 -2.34060e-03 -2.78970e-04 1.55040e-01 5.10870e-01 1.99760e-03 3.97570e-02 -2.26630e-03 -2.91930e-04 1.59120e-01 5.04500e-01 2.24690e-03 3.81890e-02 -2.24430e-03 -2.88090e-04 1.54080e-01 4.88190e-01 2.16810e-03 3.93810e-02 -2.19740e-03 -2.91960e-04 1.53200e-01 4.72230e-01 2.09840e-03 4.04580e-02 -2.15110e-03 -2.95290e-04 1.52090e-01 4.56620e-01 2.02470e-03 4.14090e-02 -2.10550e-03 -2.98170e-04 1.50760e-01 4.41350e-01 1.95710e-03 4.22440e-02 -2.06040e-03 -3.00530e-04 1.49230e-01 4.26420e-01 1.88770e-03 4.29580e-02 -2.01590e-03 -3.02450e-04 1.47510e-01 4.11830e-01 1.82260e-03 4.35580e-02 -1.97190e-03 -3.03890e-04 1.45610e-01 4.06450e-01 2.05210e-03 4.17270e-02 -1.95390e-03 -3.01390e-04 1.41080e-01 3.83650e-01 1.69440e-03 4.44180e-02 -1.88540e-03 -3.05490e-04 1.41350e-01 3.70060e-01 1.63220e-03 4.46850e-02 -1.84280e-03 -3.05680e-04 1.39010e-01 3.56800e-01 1.57250e-03 4.48480e-02 -1.80070e-03 -3.05490e-04 1.36560e-01 3.43860e-01 1.51340e-03 4.49100e-02 -1.75900e-03 -3.04940e-04 1.33990e-01 3.31230e-01 1.45640e-03 4.48750e-02 -1.71780e-03 -3.04040e-04 1.31330e-01 3.26670e-01 1.66470e-03 4.29260e-02 -1.70210e-03 -3.02180e-04 1.27150e-01 3.06920e-01 1.34610e-03 4.45300e-02 -1.63660e-03 -3.01300e-04 1.25750e-01 2.95220e-01 1.29290e-03 4.42280e-02 -1.59670e-03 -2.99500e-04 1.22860e-01 2.83820e-01 1.24130e-03 4.38450e-02 -1.55730e-03 -2.97430e-04 1.19900e-01 2.72710e-01 1.19080e-03 4.33860e-02 -1.51830e-03 -2.95120e-04 1.16900e-01 2.61890e-01 1.14180e-03 4.28550e-02 -1.47970e-03 -2.92590e-04 1.13860e-01 2.51360e-01 1.09400e-03 4.22560e-02 -1.44170e-03 -2.89840e-04 1.10790e-01 2.47560e-01 1.27600e-03 4.03340e-02 -1.42850e-03 -2.88900e-04 1.07110e-01 2.31120e-01 1.00220e-03 4.08720e-02 -1.36700e-03 -2.83780e-04 1.04570e-01 2.21400e-01 9.58140e-04 4.00950e-02 -1.33030e-03 -2.80500e-04 1.01430e-01 2.11960e-01 9.15240e-04 3.92680e-02 -1.29420e-03 -2.77070e-04 9.82960e-02 2.02760e-01 8.73550e-04 3.83940e-02 -1.25850e-03 -2.73500e-04 9.51580e-02 1.93830e-01 8.32980e-04 3.74780e-02 -1.22340e-03 -2.69810e-04 9.20250e-02 1.79720e-01 5.94720e-04 3.73570e-02 -1.16510e-03 -2.62290e-04 8.89920e-02 1.76700e-01 7.55250e-04 3.55340e-02 -1.15450e-03 -2.62090e-04 8.57970e-02 1.68500e-01 7.18030e-04 3.45150e-02 -1.12070e-03 -2.58080e-04 8.27100e-02 1.60530e-01 6.81880e-04 3.34680e-02 -1.08750e-03 -2.53990e-04 7.96470e-02 1.52800e-01 6.46790e-04 3.23980e-02 -1.05470e-03 -2.49810e-04 7.66130e-02 1.45290e-01 6.12730e-04 3.13090e-02 -1.02250e-03 -2.45570e-04 7.36110e-02 1.42480e-01 7.50500e-04 2.97260e-02 -1.01340e-03 -2.46240e-04 7.08760e-02 1.30950e-01 5.47660e-04 2.90830e-02 -9.59360e-04 -2.36880e-04 6.77170e-02 1.24100e-01 5.16610e-04 2.79540e-02 -9.28520e-04 -2.32440e-04 6.48320e-02 1.17470e-01 4.86530e-04 2.68180e-02 -8.98140e-04 -2.27960e-04 6.19910e-02 1.07170e-01 3.04530e-04 2.59580e-02 -8.46060e-04 -2.17750e-04 5.88260e-02 1.04820e-01 4.29210e-04 2.45360e-02 -8.38770e-04 -2.18830e-04 5.64550e-02 9.87990e-02 4.01950e-04 2.33970e-02 -8.09760e-04 -2.14200e-04 5.37640e-02 9.29780e-02 3.75590e-04 2.22610e-02 -7.81210e-04 -2.09520e-04 5.11280e-02 8.73530e-02 3.50130e-04 2.11310e-02 -7.53090e-04 -2.04790e-04 4.85480e-02 8.19210e-02 3.25540e-04 2.00110e-02 -7.25410e-04 -2.00020e-04 4.60260e-02 7.66800e-02 3.01830e-04 1.89010e-02 -6.98170e-04 -1.95210e-04 4.35640e-02 7.16260e-02 2.78980e-04 1.78040e-02 -6.71340e-04 -1.90340e-04 4.11640e-02 6.67580e-02 2.56960e-04 1.67220e-02 -6.44940e-04 -1.85440e-04 3.88270e-02 6.20720e-02 2.35780e-04 1.56570e-02 -6.18940e-04 -1.80480e-04 3.65540e-02 5.75680e-02 2.15420e-04 1.46100e-02 -5.93340e-04 -1.75470e-04 3.43460e-02 5.32420e-02 1.95880e-04 1.35840e-02 -5.68140e-04 -1.70400e-04 3.22050e-02 4.90930e-02 1.77130e-04 1.25780e-02 -5.43330e-04 -1.65280e-04 3.01320e-02 4.51190e-02 1.59170e-04 1.15960e-02 -5.18890e-04 -1.60100e-04 2.81270e-02 4.13180e-02 1.41990e-04 1.06390e-02 -4.94830e-04 -1.54850e-04 2.61910e-02 3.96730e-02 2.15290e-04 9.87210e-03 -4.91430e-04 -1.56820e-04 2.48570e-02 3.42300e-02 1.09930e-04 8.80030e-03 -4.47770e-04 -1.44140e-04 2.25300e-02 3.09400e-02 9.50300e-05 7.92200e-03 -4.24760e-04 -1.38670e-04 2.08050e-02 2.78180e-02 8.08730e-05 7.07220e-03 -4.02080e-04 -1.33120e-04 1.91530e-02 2.48620e-02 6.74460e-05 6.25170e-03 -3.79710e-04 -1.27470e-04 1.75730e-02 2.20720e-02 5.47380e-05 5.46130e-03 -3.57630e-04 -1.21710e-04 1.60650e-02 1.94460e-02 4.27370e-05 4.70160e-03 -3.35820e-04 -1.15840e-04 1.46300e-02 1.69840e-02 3.14250e-05 3.97320e-03 -3.14230e-04 -1.09840e-04 1.32680e-02 1.46840e-02 2.07820e-05 3.27670e-03 -2.92800e-04 -1.03680e-04 1.19790e-02 1.25460e-02 1.07890e-05 2.61250e-03 -2.71470e-04 -9.73230e-05 1.07640e-02 1.05690e-02 1.41020e-06 1.98110e-03 -2.50110e-04 -9.07360e-05 9.62240e-03 9.63230e-03 3.90120e-05 1.61990e-03 -2.48650e-04 -9.21740e-05 8.95740e-03 7.09560e-03 -1.56440e-05 8.17250e-04 -2.06650e-04 -7.66090e-05 7.55880e-03 5.59760e-03 -2.34120e-05 2.85240e-04 -1.84100e-04 -6.88920e-05 6.63650e-03 4.25790e-03 -3.07360e-05 -2.13470e-04 -1.60630e-04 -6.05860e-05 5.78680e-03 3.07650e-03 -3.76220e-05 -6.79060e-04 -1.35950e-04 -5.15580e-05 5.00890e-03 2.05350e-03 -4.40040e-05 -1.11190e-03 -1.09870e-04 -4.16890e-05 4.30200e-03 8.29400e-04 -7.29100e-05 -1.71380e-03 -6.07780e-05 -2.14620e-05 3.39100e-03 4.91060e-04 -5.35130e-05 -1.88170e-03 -5.46500e-05 -1.96520e-05 3.09750e-03 -4.01000e-05 -5.36350e-05 -2.22040e-03 -2.83790e-05 -8.79690e-06 2.59880e-03 -3.97960e-04 -4.60980e-05 -2.52980e-03 -8.21520e-06 -1.12360e-06 2.17190e-03 -5.86170e-04 -2.02440e-05 -2.80940e-03 3.14670e-07 -1.80700e-06 1.82340e-03 -6.67190e-04 -1.90320e-05 -3.09340e-03 4.08370e-06 -9.04380e-06 1.60820e-03 -6.88610e-04 -2.85040e-05 -3.26100e-03 7.44500e-06 -1.39840e-05 1.56950e-03 9.15870e-01 5.08390e-01 4.84320e-01 9.55910e-02 8.71050e-03 1.62270e-01 1.00750e+00 2.68230e-01 1.99930e-01 8.12620e-02 8.68960e-03 1.13110e-01 9.87530e-01 3.68310e-02 -1.43650e-02 4.36220e-02 5.52900e-03 5.14400e-02 9.53700e-01 2.76670e-02 -1.17260e-02 1.84970e-02 1.72140e-03 5.31660e-02 9.29550e-01 1.83210e-02 -1.09110e-02 8.40470e-03 -5.98130e-04 6.53220e-02 8.97720e-01 1.97000e-02 2.57350e-03 -1.35010e-03 -1.15440e-04 8.83340e-02 8.83100e-01 1.07750e-02 -4.30690e-03 -1.01130e-03 -1.19110e-03 8.86730e-02 8.65240e-01 8.91570e-03 -3.56250e-03 -2.14110e-03 -1.68640e-03 9.38940e-02 8.45050e-01 8.13290e-03 -4.70130e-04 -2.99590e-03 -1.49940e-03 1.01960e-01 8.24530e-01 6.67360e-03 1.65570e-03 -3.30560e-03 -1.30940e-03 1.09310e-01 7.75430e-01 1.15860e-03 -6.48010e-04 -3.30790e-03 -1.37290e-03 1.11870e-01 6.96680e-01 -1.22260e-02 -1.08700e-02 -2.88820e-03 -1.66460e-03 1.09660e-01 7.63790e-01 5.38320e-03 9.60370e-03 -3.32660e-03 -8.56790e-04 1.27420e-01 7.43580e-01 4.92160e-03 1.20080e-02 -3.21970e-03 -7.65790e-04 1.32230e-01 7.23620e-01 4.81310e-03 1.46150e-02 -3.13090e-03 -6.93580e-04 1.36440e-01 7.03740e-01 4.50870e-03 1.69770e-02 -3.03630e-03 -6.42810e-04 1.40130e-01 6.84140e-01 4.40950e-03 1.94150e-02 -2.96080e-03 -6.04270e-04 1.43280e-01 6.54750e-01 3.69250e-03 2.56010e-02 -3.02700e-03 9.43960e-04 1.53680e-01 6.42300e-01 3.79650e-03 2.50860e-02 -2.87410e-03 -5.62350e-05 1.50600e-01 6.26770e-01 3.90550e-03 2.59760e-02 -2.76610e-03 -5.45780e-04 1.49940e-01 6.08240e-01 3.80040e-03 2.80010e-02 -2.71390e-03 -5.36150e-04 1.51300e-01 5.90010e-01 3.64890e-03 2.98760e-02 -2.66250e-03 -5.29470e-04 1.52300e-01 5.72120e-01 3.54240e-03 3.16710e-02 -2.61520e-03 -5.24210e-04 1.52930e-01 5.54540e-01 3.40860e-03 3.33260e-02 -2.56830e-03 -5.20170e-04 1.53230e-01 5.37310e-01 3.30260e-03 3.48820e-02 -2.52390e-03 -5.16620e-04 1.53220e-01 5.10180e-01 2.85380e-03 3.91900e-02 -2.45830e-03 -5.18570e-04 1.57360e-01 5.03850e-01 3.07690e-03 3.76170e-02 -2.43710e-03 -5.10460e-04 1.52340e-01 4.87630e-01 2.96430e-03 3.88000e-02 -2.39480e-03 -5.07490e-04 1.51510e-01 4.71760e-01 2.86320e-03 3.98690e-02 -2.35340e-03 -5.04480e-04 1.50440e-01 4.56220e-01 2.75790e-03 4.08140e-02 -2.31230e-03 -5.01390e-04 1.49150e-01 4.41030e-01 2.66040e-03 4.16440e-02 -2.27190e-03 -4.98190e-04 1.47660e-01 4.26170e-01 2.56120e-03 4.23530e-02 -2.23170e-03 -4.94850e-04 1.45980e-01 4.11640e-01 2.46770e-03 4.29500e-02 -2.19200e-03 -4.91380e-04 1.44120e-01 4.06300e-01 2.67680e-03 4.11190e-02 -2.17370e-03 -4.85770e-04 1.39620e-01 3.83590e-01 2.28460e-03 4.38060e-02 -2.11310e-03 -4.83960e-04 1.39940e-01 3.70050e-01 2.19610e-03 4.40720e-02 -2.07390e-03 -4.80020e-04 1.37650e-01 3.56830e-01 2.11100e-03 4.42360e-02 -2.03500e-03 -4.75910e-04 1.35230e-01 3.43930e-01 2.02720e-03 4.42980e-02 -1.99630e-03 -4.71650e-04 1.32700e-01 3.31350e-01 1.94630e-03 4.42650e-02 -1.95770e-03 -4.67220e-04 1.30070e-01 3.26810e-01 2.13840e-03 4.23180e-02 -1.94070e-03 -4.62790e-04 1.25920e-01 3.07110e-01 1.79040e-03 4.39240e-02 -1.88100e-03 -4.57930e-04 1.24570e-01 2.95440e-01 1.71550e-03 4.36250e-02 -1.84280e-03 -4.53060e-04 1.21710e-01 2.84060e-01 1.64290e-03 4.32460e-02 -1.80490e-03 -4.48050e-04 1.18790e-01 2.72980e-01 1.57220e-03 4.27910e-02 -1.76710e-03 -4.42910e-04 1.15820e-01 2.62180e-01 1.50350e-03 4.22640e-02 -1.72950e-03 -4.37650e-04 1.12820e-01 2.51670e-01 1.43670e-03 4.16700e-02 -1.69210e-03 -4.32260e-04 1.09770e-01 2.47880e-01 1.60650e-03 3.97510e-02 -1.67630e-03 -4.28940e-04 1.06110e-01 2.31460e-01 1.30890e-03 4.02960e-02 -1.61800e-03 -4.21160e-04 1.03610e-01 2.21760e-01 1.24780e-03 3.95250e-02 -1.58120e-03 -4.15440e-04 1.00510e-01 2.12320e-01 1.18840e-03 3.87040e-02 -1.54460e-03 -4.09630e-04 9.73980e-02 2.03130e-01 1.13080e-03 3.78370e-02 -1.50830e-03 -4.03730e-04 9.42870e-02 1.94200e-01 1.07490e-03 3.69270e-02 -1.47220e-03 -3.97730e-04 9.11810e-02 1.80100e-01 8.16620e-04 3.68150e-02 -1.41530e-03 -3.88090e-04 8.81860e-02 1.77080e-01 9.68090e-04 3.49970e-02 -1.40070e-03 -3.85490e-04 8.50030e-02 1.68880e-01 9.17150e-04 3.39840e-02 -1.36530e-03 -3.79240e-04 8.19400e-02 1.60910e-01 8.67770e-04 3.29450e-02 -1.33020e-03 -3.72920e-04 7.89010e-02 1.53180e-01 8.19960e-04 3.18820e-02 -1.29540e-03 -3.66530e-04 7.58900e-02 1.45670e-01 7.73660e-04 3.08000e-02 -1.26080e-03 -3.60060e-04 7.29100e-02 1.39850e-01 7.85970e-04 2.94590e-02 -1.22450e-03 -4.90100e-04 6.99830e-02 1.35570e-01 8.50140e-04 2.79140e-02 -1.18570e-03 -7.49610e-04 6.71520e-02 1.24460e-01 6.43570e-04 2.74690e-02 -1.15850e-03 -3.40230e-04 6.41930e-02 1.17810e-01 6.03040e-04 2.63410e-02 -1.12500e-03 -3.33480e-04 6.13720e-02 1.07500e-01 4.07130e-04 2.54930e-02 -1.07140e-03 -3.21420e-04 5.82350e-02 1.05150e-01 5.26080e-04 2.40760e-02 -1.05870e-03 -3.19760e-04 5.58730e-02 9.91160e-02 4.89590e-04 2.29440e-02 -1.02590e-03 -3.12800e-04 5.32000e-02 9.32840e-02 4.54390e-04 2.18170e-02 -9.93450e-04 -3.05770e-04 5.05820e-02 8.76480e-02 4.20460e-04 2.06960e-02 -9.61240e-04 -2.98660e-04 4.80190e-02 8.22030e-02 3.87780e-04 1.95840e-02 -9.29300e-04 -2.91480e-04 4.55140e-02 7.69490e-02 3.56320e-04 1.84830e-02 -8.97630e-04 -2.84220e-04 4.30680e-02 7.18820e-02 3.26050e-04 1.73950e-02 -8.66220e-04 -2.76880e-04 4.06840e-02 6.70000e-02 2.96960e-04 1.63220e-02 -8.35080e-04 -2.69460e-04 3.83620e-02 6.23000e-02 2.69030e-04 1.52660e-02 -8.04200e-04 -2.61950e-04 3.61040e-02 5.77810e-02 2.42230e-04 1.42290e-02 -7.73580e-04 -2.54360e-04 3.39110e-02 5.34400e-02 2.16550e-04 1.32110e-02 -7.43210e-04 -2.46690e-04 3.17850e-02 4.92750e-02 1.91960e-04 1.22160e-02 -7.13110e-04 -2.38910e-04 2.97250e-02 4.52860e-02 1.68450e-04 1.12430e-02 -6.83250e-04 -2.31050e-04 2.77340e-02 4.14700e-02 1.46010e-04 1.02950e-02 -6.53650e-04 -2.23080e-04 2.58120e-02 3.98170e-02 2.16510e-04 9.53330e-03 -6.43370e-04 -2.21800e-04 2.44860e-02 3.62220e-02 1.63620e-04 8.53450e-03 -6.46720e-04 -3.35670e-04 2.26110e-02 3.10440e-02 8.48420e-05 7.60810e-03 -5.66280e-04 -1.98530e-04 2.04660e-02 2.79060e-02 6.64510e-05 6.76840e-03 -5.37620e-04 -1.90110e-04 1.88270e-02 2.49340e-02 4.90220e-05 5.95830e-03 -5.09160e-04 -1.81570e-04 1.72590e-02 2.21270e-02 3.25300e-05 5.17830e-03 -4.80890e-04 -1.72880e-04 1.57640e-02 1.94850e-02 1.69450e-05 4.42920e-03 -4.52760e-04 -1.64030e-04 1.43410e-02 1.70060e-02 2.23100e-06 3.71160e-03 -4.24730e-04 -1.55010e-04 1.29910e-02 1.46900e-02 -1.16630e-05 3.02610e-03 -3.96720e-04 -1.45780e-04 1.17150e-02 1.25360e-02 -2.47880e-05 2.37300e-03 -3.68620e-04 -1.36290e-04 1.05120e-02 1.05440e-02 -3.72280e-05 1.75280e-03 -3.40260e-04 -1.26500e-04 9.38190e-03 9.59970e-03 -1.27550e-06 1.39740e-03 -3.30830e-04 -1.24280e-04 8.72300e-03 7.04140e-03 -6.03760e-05 6.12480e-04 -2.81910e-04 -1.05680e-04 7.34310e-03 5.53070e-03 -7.12640e-05 9.27570e-05 -2.51330e-04 -9.44310e-05 6.43390e-03 4.18040e-03 -8.17940e-05 -3.93150e-04 -2.19380e-04 -8.24560e-05 5.59810e-03 2.99130e-03 -9.18640e-05 -8.45150e-04 -1.85840e-04 -6.96280e-05 4.83550e-03 1.96490e-03 -1.01160e-04 -1.26330e-03 -1.50710e-04 -5.58990e-05 4.14600e-03 7.44380e-04 -1.32250e-04 -1.83980e-03 -9.34430e-05 -3.22280e-05 3.26570e-03 4.13220e-04 -1.12320e-04 -1.99840e-03 -7.91240e-05 -2.66710e-05 2.98520e-03 -1.02070e-04 -1.07840e-04 -2.31620e-03 -4.73360e-05 -1.30550e-05 2.51350e-03 -4.37530e-04 -8.65410e-05 -2.60150e-03 -2.38890e-05 -3.24160e-06 2.11350e-03 -6.05070e-04 -4.53850e-05 -2.86280e-03 -9.97110e-06 1.28230e-06 1.78970e-03 -6.73120e-04 -4.13000e-05 -3.13270e-03 -2.88490e-06 3.31590e-06 1.59890e-03 -6.95130e-04 -4.98120e-05 -3.28880e-03 -6.49860e-07 5.30640e-06 1.57100e-03 9.20830e-01 5.30770e-01 5.05020e-01 5.54520e-02 4.89850e-03 1.82560e-01 1.00290e+00 2.93150e-01 2.09360e-01 5.03140e-02 3.94180e-03 1.28410e-01 9.82060e-01 6.34240e-02 -9.41970e-03 3.36290e-02 2.44440e-03 5.80150e-02 9.59670e-01 4.33370e-02 -1.05270e-02 1.84110e-02 8.77670e-04 5.60960e-02 9.35910e-01 2.68000e-02 -1.27960e-02 8.73420e-03 -6.02610e-04 6.83390e-02 9.14150e-01 2.03510e-02 -8.94960e-03 3.49760e-03 -1.43410e-03 7.85650e-02 8.42380e-01 3.27020e-03 -1.35580e-02 -1.51870e-03 -1.63400e-03 9.97040e-02 8.51710e-01 8.72970e-03 -5.92490e-03 -1.48370e-03 -1.63830e-03 9.76530e-02 8.47360e-01 1.02940e-02 -1.05850e-03 -2.14180e-03 -1.60240e-03 1.03240e-01 8.25650e-01 8.37300e-03 1.12500e-03 -2.52720e-03 -1.43990e-03 1.09990e-01 7.75600e-01 2.39470e-03 -1.46080e-03 -2.50380e-03 -1.43470e-03 1.12130e-01 6.96120e-01 -1.13410e-02 -1.20320e-02 -2.41530e-03 -1.59440e-03 1.09550e-01 7.62670e-01 6.24950e-03 8.82110e-03 -2.60820e-03 -1.01100e-03 1.26910e-01 7.42140e-01 5.66740e-03 1.11810e-02 -2.53490e-03 -9.12850e-04 1.31510e-01 7.21980e-01 5.47940e-03 1.37540e-02 -2.45670e-03 -8.36890e-04 1.35570e-01 7.02000e-01 5.10710e-03 1.60850e-02 -2.38450e-03 -7.77670e-04 1.39160e-01 6.82380e-01 4.96400e-03 1.85080e-02 -2.31980e-03 -7.33290e-04 1.42240e-01 6.62970e-01 4.69610e-03 2.07350e-02 -2.26260e-03 -6.99190e-04 1.44870e-01 6.33250e-01 3.85820e-03 2.61030e-02 -2.63670e-03 6.20400e-04 1.54140e-01 6.21620e-01 4.23090e-03 2.61960e-02 -2.30970e-03 -2.26010e-04 1.51060e-01 6.06660e-01 4.22260e-03 2.70700e-02 -2.12560e-03 -6.38140e-04 1.50200e-01 5.88510e-01 4.04430e-03 2.89470e-02 -2.08690e-03 -6.25330e-04 1.51210e-01 5.70700e-01 3.91600e-03 3.07480e-02 -2.05080e-03 -6.14650e-04 1.51860e-01 5.53200e-01 3.75890e-03 3.24080e-02 -2.01600e-03 -6.05190e-04 1.52180e-01 5.25340e-01 3.29600e-03 3.65910e-02 -1.54130e-03 -1.71560e-03 1.56680e-01 5.15720e-01 3.40360e-03 3.62850e-02 -1.80080e-03 -9.58000e-04 1.53300e-01 5.02760e-01 3.36800e-03 3.67270e-02 -1.91850e-03 -5.81140e-04 1.51350e-01 4.86610e-01 3.23660e-03 3.79200e-02 -1.88740e-03 -5.73780e-04 1.50540e-01 4.70810e-01 3.11830e-03 3.90010e-02 -1.85690e-03 -5.66600e-04 1.49500e-01 4.55340e-01 2.99570e-03 3.99570e-02 -1.82680e-03 -5.59510e-04 1.48230e-01 4.40210e-01 2.88220e-03 4.07990e-02 -1.79710e-03 -5.52480e-04 1.46760e-01 4.25410e-01 2.76720e-03 4.15210e-02 -1.76770e-03 -5.45480e-04 1.45110e-01 4.10950e-01 2.65880e-03 4.21310e-02 -1.73850e-03 -5.38500e-04 1.43270e-01 4.05630e-01 2.85530e-03 4.03080e-02 -1.72430e-03 -5.31280e-04 1.38790e-01 3.83000e-01 2.44750e-03 4.30140e-02 -1.68060e-03 -5.24520e-04 1.39140e-01 3.69510e-01 2.34570e-03 4.32940e-02 -1.65190e-03 -5.17500e-04 1.36870e-01 3.56340e-01 2.24800e-03 4.34720e-02 -1.62320e-03 -5.10450e-04 1.34470e-01 3.43490e-01 2.15210e-03 4.35480e-02 -1.59470e-03 -5.03370e-04 1.31970e-01 3.30950e-01 2.05980e-03 4.35300e-02 -1.56620e-03 -4.96260e-04 1.29360e-01 3.26430e-01 2.24250e-03 4.15920e-02 -1.55280e-03 -4.90230e-04 1.25220e-01 3.06780e-01 1.88250e-03 4.32180e-02 -1.50930e-03 -4.81910e-04 1.23900e-01 2.95140e-01 1.79770e-03 4.29340e-02 -1.48100e-03 -4.74680e-04 1.21060e-01 2.83800e-01 1.71570e-03 4.25700e-02 -1.45270e-03 -4.67420e-04 1.18170e-01 2.72750e-01 1.63610e-03 4.21300e-02 -1.42450e-03 -4.60110e-04 1.15220e-01 2.61980e-01 1.55900e-03 4.16180e-02 -1.39640e-03 -4.52780e-04 1.12230e-01 2.51490e-01 1.48420e-03 4.10380e-02 -1.36830e-03 -4.45400e-04 1.09200e-01 2.47720e-01 1.64750e-03 3.91280e-02 -1.35560e-03 -4.40470e-04 1.05550e-01 2.31320e-01 1.34180e-03 3.96940e-02 -1.31240e-03 -4.30570e-04 1.03080e-01 2.21640e-01 1.27400e-03 3.89380e-02 -1.28460e-03 -4.23110e-04 9.99890e-02 2.12220e-01 1.20830e-03 3.81320e-02 -1.25690e-03 -4.15620e-04 9.68960e-02 2.03060e-01 1.14480e-03 3.72790e-02 -1.22930e-03 -4.08110e-04 9.38010e-02 1.94140e-01 1.08340e-03 3.63840e-02 -1.20170e-03 -4.00580e-04 9.07100e-02 1.80060e-01 8.19400e-04 3.62930e-02 -1.15920e-03 -3.89640e-04 8.77370e-02 1.77050e-01 9.66630e-04 3.44820e-02 -1.14700e-03 -3.85440e-04 8.45610e-02 1.68860e-01 9.11180e-04 3.34840e-02 -1.11980e-03 -3.77850e-04 8.15120e-02 1.60900e-01 8.57620e-04 3.24580e-02 -1.09280e-03 -3.70230e-04 7.84870e-02 1.53180e-01 8.05910e-04 3.14100e-02 -1.06580e-03 -3.62590e-04 7.54880e-02 1.45680e-01 7.56000e-04 3.03410e-02 -1.03900e-03 -3.54940e-04 7.25210e-02 1.38400e-01 7.07850e-04 2.92560e-02 -1.01230e-03 -3.47260e-04 6.95880e-02 1.32780e-01 7.08620e-04 2.79780e-02 -9.30770e-04 -4.46670e-04 6.67510e-02 1.28660e-01 7.53080e-04 2.65590e-02 -7.94670e-04 -6.46980e-04 6.40480e-02 1.17850e-01 5.73530e-04 2.59350e-02 -9.32960e-04 -3.24120e-04 6.10290e-02 1.07540e-01 3.75190e-04 2.51060e-02 -8.91950e-04 -3.11880e-04 5.79090e-02 1.05190e-01 4.92020e-04 2.36950e-02 -8.80750e-04 -3.08580e-04 5.55520e-02 9.91620e-02 4.53560e-04 2.25760e-02 -8.54840e-04 -3.00780e-04 5.28890e-02 9.33320e-02 4.16580e-04 2.14610e-02 -8.29080e-04 -2.92960e-04 5.02800e-02 8.76970e-02 3.81040e-04 2.03520e-02 -8.03450e-04 -2.85110e-04 4.77270e-02 8.22530e-02 3.46910e-04 1.92520e-02 -7.77960e-04 -2.77240e-04 4.52310e-02 7.39450e-02 1.53910e-04 1.81420e-02 -6.25990e-04 -4.51810e-04 4.22480e-02 7.19440e-02 2.52400e-04 1.70080e-02 -6.18820e-04 -4.40010e-04 4.03570e-02 6.70600e-02 2.22440e-04 1.59490e-02 -6.00430e-04 -4.19830e-04 3.80450e-02 6.23590e-02 1.93790e-04 1.49070e-02 -5.82000e-04 -4.00000e-04 3.57980e-02 5.78370e-02 1.66420e-04 1.38830e-02 -5.63530e-04 -3.80520e-04 3.36150e-02 5.34930e-02 1.40290e-04 1.28790e-02 -5.45020e-04 -3.61400e-04 3.14980e-02 5.16590e-02 2.19410e-04 1.19960e-02 -5.37790e-04 -3.50950e-04 2.99730e-02 4.53230e-02 1.20800e-04 1.10010e-02 -5.79020e-04 -2.13050e-04 2.75170e-02 4.15030e-02 9.79590e-05 1.00630e-02 -5.54770e-04 -2.04850e-04 2.56020e-02 3.98490e-02 1.67900e-04 9.30630e-03 -5.44890e-04 -2.02060e-04 2.42790e-02 3.50050e-02 7.54040e-05 8.30340e-03 -4.93950e-04 -2.16880e-04 2.21400e-02 3.10680e-02 8.02910e-06 7.35270e-03 -4.32690e-04 -2.54000e-04 2.02340e-02 2.95970e-02 6.89540e-05 6.71850e-03 -4.25240e-04 -2.45120e-04 1.91060e-02 2.49460e-02 -7.52970e-08 5.77660e-03 -4.35390e-04 -1.63010e-04 1.70840e-02 2.21340e-02 -1.66750e-05 5.00630e-03 -4.11810e-04 -1.54440e-04 1.55960e-02 1.94860e-02 -3.23720e-05 4.26670e-03 -3.88290e-04 -1.45780e-04 1.41800e-02 1.70020e-02 -4.72230e-05 3.55850e-03 -3.64760e-04 -1.37010e-04 1.28370e-02 1.46810e-02 -6.13100e-05 2.88220e-03 -3.41160e-04 -1.28100e-04 1.15670e-02 1.25220e-02 -7.47180e-05 2.23830e-03 -3.17380e-04 -1.19010e-04 1.03700e-02 1.05240e-02 -8.75740e-05 1.62720e-03 -2.93280e-04 -1.09710e-04 9.24740e-03 9.57790e-03 -5.21170e-05 1.27590e-03 -2.83460e-04 -1.06370e-04 8.59160e-03 7.80170e-03 -9.42190e-05 6.94910e-04 -2.45100e-04 -1.07360e-04 7.56770e-03 5.49940e-03 -1.24000e-04 -5.72660e-06 -2.17090e-04 -7.97880e-05 6.32150e-03 4.14790e-03 -1.35700e-04 -4.82400e-04 -1.89640e-04 -6.88720e-05 5.49430e-03 2.95980e-03 -1.46900e-04 -9.24920e-04 -1.60970e-04 -5.73850e-05 4.74130e-03 1.93670e-03 -1.56920e-04 -1.33320e-03 -1.31290e-04 -4.53620e-05 4.06260e-03 7.24280e-04 -1.86450e-04 -1.89320e-03 -8.56030e-05 -2.61440e-05 3.20090e-03 3.98350e-04 -1.64860e-04 -2.04740e-03 -7.28810e-05 -2.09270e-05 2.92690e-03 -1.08670e-04 -1.53750e-04 -2.35420e-03 -4.81100e-05 -1.00310e-05 2.46800e-03 -4.37210e-04 -1.22740e-04 -2.62990e-03 -2.91790e-05 -1.31930e-06 2.07910e-03 -5.99970e-04 -7.49990e-05 -2.88280e-03 -1.64360e-05 5.64540e-06 1.76650e-03 -6.65910e-04 -6.73470e-05 -3.13870e-03 -1.00360e-05 1.22660e-05 1.58640e-03 -6.88340e-04 -7.47130e-05 -3.28410e-03 -9.00180e-06 1.69460e-05 1.56210e-03 9.19280e-01 5.30220e-01 5.04140e-01 2.61210e-02 2.24980e-03 1.92320e-01 1.00260e+00 3.04300e-01 2.14390e-01 2.42200e-02 1.54590e-03 1.36440e-01 9.81120e-01 7.63290e-02 -6.54800e-03 1.72500e-02 7.69930e-04 6.25260e-02 9.58540e-01 5.27690e-02 -1.08790e-02 1.05000e-02 1.56280e-04 5.81160e-02 9.38360e-01 3.38460e-02 -1.25170e-02 5.55540e-03 -4.17300e-04 6.98990e-02 9.16520e-01 2.45350e-02 -9.76180e-03 2.40850e-03 -8.34220e-04 8.01440e-02 7.68540e-01 -1.69200e-02 -3.34240e-02 -1.34540e-03 -7.34130e-04 1.03030e-01 8.29550e-01 5.66030e-03 -9.37440e-03 -1.20820e-03 -2.01350e-04 1.01120e-01 8.49140e-01 1.14470e-02 -9.12270e-04 -1.82050e-03 9.81620e-05 1.03980e-01 8.26260e-01 8.84130e-03 6.90190e-04 -1.96440e-03 2.54970e-04 1.10430e-01 7.76400e-01 3.33270e-03 -1.16920e-03 -2.06650e-03 2.60210e-04 1.12390e-01 6.96100e-01 -1.14470e-02 -1.27420e-02 -1.89080e-03 1.66370e-04 1.09720e-01 7.73900e-01 8.39620e-03 6.63670e-03 -7.72060e-04 -1.88580e-03 1.17520e-01 7.41620e-01 6.05920e-03 1.08590e-02 -1.36910e-03 -5.79550e-04 1.31230e-01 7.21350e-01 5.84250e-03 1.34420e-02 -1.33020e-03 -5.31740e-04 1.35190e-01 7.01260e-01 5.40630e-03 1.57280e-02 -1.28900e-03 -4.95180e-04 1.38700e-01 6.81600e-01 5.24380e-03 1.81500e-02 -1.25490e-03 -4.66390e-04 1.41740e-01 6.62180e-01 4.94130e-03 2.03550e-02 -1.22270e-03 -4.44710e-04 1.44340e-01 6.43130e-01 4.79360e-03 2.25900e-02 -1.19580e-03 -4.27590e-04 1.46510e-01 6.13640e-01 4.24750e-03 2.79760e-02 -1.73660e-03 7.24160e-04 1.54810e-01 6.02390e-01 4.22580e-03 2.76910e-02 -1.33970e-03 -2.71620e-05 1.51710e-01 5.87820e-01 4.22190e-03 2.85490e-02 -1.12790e-03 -3.94900e-04 1.50650e-01 5.70050e-01 4.08130e-03 3.03510e-02 -1.10880e-03 -3.87300e-04 1.51300e-01 5.52590e-01 3.91080e-03 3.20110e-02 -1.09020e-03 -3.80650e-04 1.51630e-01 5.25140e-01 3.36320e-03 3.64430e-02 -1.06500e-03 -3.75210e-04 1.56410e-01 5.18700e-01 3.61960e-03 3.50100e-02 -1.05540e-03 -3.68850e-04 1.51380e-01 5.02260e-01 3.48670e-03 3.63360e-02 -1.03880e-03 -3.63410e-04 1.50840e-01 4.86150e-01 3.34490e-03 3.75320e-02 -1.02240e-03 -3.58170e-04 1.50040e-01 4.70390e-01 3.21700e-03 3.86170e-02 -1.00640e-03 -3.53050e-04 1.49010e-01 4.54950e-01 3.08510e-03 3.95760e-02 -9.90570e-04 -3.48020e-04 1.47760e-01 4.39850e-01 2.96270e-03 4.04230e-02 -9.75000e-04 -3.43060e-04 1.46300e-01 4.25090e-01 2.83920e-03 4.11490e-02 -9.59550e-04 -3.38140e-04 1.44660e-01 4.10650e-01 2.72260e-03 4.17640e-02 -9.44250e-04 -3.33260e-04 1.42840e-01 4.05350e-01 2.91310e-03 3.99450e-02 -9.36650e-04 -3.28620e-04 1.38360e-01 3.82760e-01 2.49620e-03 4.26580e-02 -9.13910e-04 -3.23560e-04 1.38730e-01 3.69290e-01 2.38740e-03 4.29430e-02 -8.98830e-04 -3.18730e-04 1.36470e-01 3.56150e-01 2.28300e-03 4.31260e-02 -8.83800e-04 -3.13910e-04 1.34090e-01 3.43310e-01 2.18090e-03 4.32090e-02 -8.68790e-04 -3.09090e-04 1.31590e-01 3.30790e-01 2.08260e-03 4.31960e-02 -8.53820e-04 -3.04260e-04 1.29000e-01 3.21120e-01 2.07810e-03 4.24490e-02 -6.89450e-04 -5.13340e-04 1.25810e-01 3.14120e-01 2.16320e-03 4.10580e-02 -3.74490e-04 -9.28280e-04 1.22160e-01 2.95040e-01 1.80450e-03 4.26180e-02 -8.08990e-04 -2.89770e-04 1.20730e-01 2.83710e-01 1.71790e-03 4.22600e-02 -7.94080e-04 -2.84930e-04 1.17840e-01 2.72680e-01 1.63380e-03 4.18260e-02 -7.79190e-04 -2.80090e-04 1.14910e-01 2.61920e-01 1.55270e-03 4.13210e-02 -7.64320e-04 -2.75230e-04 1.11930e-01 2.51440e-01 1.47410e-03 4.07470e-02 -7.49470e-04 -2.70380e-04 1.08910e-01 2.47680e-01 1.63440e-03 3.88410e-02 -7.42510e-04 -2.67070e-04 1.05260e-01 2.31300e-01 1.32480e-03 3.94160e-02 -7.19840e-04 -2.60660e-04 1.02800e-01 2.21630e-01 1.25390e-03 3.86670e-02 -7.05070e-04 -2.55790e-04 9.97250e-02 2.12220e-01 1.18550e-03 3.78660e-02 -6.90330e-04 -2.50930e-04 9.66400e-02 2.03060e-01 1.11940e-03 3.70200e-02 -6.75630e-04 -2.46060e-04 9.35530e-02 1.94150e-01 1.05560e-03 3.61310e-02 -6.60960e-04 -2.41180e-04 9.04700e-02 1.80080e-01 7.89190e-04 3.60490e-02 -6.38450e-04 -2.34300e-04 8.75080e-02 1.77070e-01 9.34750e-04 3.42420e-02 -6.31740e-04 -2.31440e-04 8.43360e-02 1.68880e-01 8.77550e-04 3.32490e-02 -6.17200e-04 -2.26560e-04 8.12940e-02 1.60930e-01 8.22410e-04 3.22300e-02 -6.02700e-04 -2.21690e-04 7.82760e-02 1.53210e-01 7.69290e-04 3.11870e-02 -5.88250e-04 -2.16810e-04 7.52840e-02 1.45710e-01 7.18140e-04 3.01250e-02 -5.73840e-04 -2.11940e-04 7.23230e-02 1.38440e-01 6.68910e-04 2.90460e-02 -5.59490e-04 -2.07060e-04 6.93970e-02 1.31380e-01 6.21530e-04 2.79540e-02 -5.45180e-04 -2.02190e-04 6.65080e-02 1.25920e-01 6.25840e-04 2.67050e-02 -4.49680e-04 -2.84160e-04 6.37440e-02 1.21910e-01 6.76810e-04 2.53510e-02 -2.73780e-04 -4.47410e-04 6.11410e-02 1.07580e-01 3.50030e-04 2.49700e-02 -7.27220e-04 4.51220e-05 5.77780e-02 1.03990e-01 4.04590e-04 2.36130e-02 -5.63100e-04 -1.06890e-04 5.52730e-02 9.92080e-02 4.10860e-04 2.24000e-02 -4.74450e-04 -1.77770e-04 5.27310e-02 9.33780e-02 3.73640e-04 2.12910e-02 -4.60470e-04 -1.72880e-04 5.01260e-02 8.44140e-02 1.82530e-04 2.02760e-02 -2.43380e-04 -3.43880e-04 4.70980e-02 8.23000e-02 2.86850e-04 1.90510e-02 -2.42060e-04 -3.33260e-04 4.50560e-02 7.60210e-02 2.22110e-04 1.80160e-02 -3.54380e-04 -2.11210e-04 4.24840e-02 7.19740e-02 2.39690e-04 1.69380e-02 -4.05120e-04 -1.53270e-04 4.02830e-02 6.70890e-02 2.09740e-04 1.58810e-02 -3.91430e-04 -1.48350e-04 3.79740e-02 6.23860e-02 1.81120e-04 1.48420e-02 -3.77790e-04 -1.43420e-04 3.57290e-02 5.78630e-02 1.53810e-04 1.38210e-02 -3.64210e-04 -1.38480e-04 3.35480e-02 5.35180e-02 1.27770e-04 1.28190e-02 -3.50690e-04 -1.33530e-04 3.14330e-02 5.01270e-02 1.32220e-04 1.18620e-02 -2.96930e-04 -1.60770e-04 2.95520e-02 4.53550e-02 6.32330e-05 1.08520e-02 -1.99390e-04 -2.10840e-04 2.73820e-02 4.36400e-02 1.36380e-04 1.00560e-02 -1.97560e-04 -2.02550e-04 2.59950e-02 3.98740e-02 1.42910e-04 9.22380e-03 -4.17780e-04 -4.40530e-05 2.41950e-02 3.43970e-02 1.54070e-05 8.16110e-03 -2.83940e-04 -1.08580e-04 2.18810e-02 3.10840e-02 -3.72510e-06 7.30760e-03 -2.70750e-04 -1.03530e-04 2.01810e-02 2.84960e-02 -5.39840e-07 6.53850e-03 -2.31600e-04 -1.14860e-04 1.87130e-02 2.49570e-02 -5.41080e-05 5.66330e-03 -1.62270e-04 -1.34590e-04 1.69760e-02 2.21410e-02 -7.01400e-05 4.89860e-03 -1.55570e-04 -1.23170e-04 1.54910e-02 1.94900e-02 -8.53120e-05 4.16460e-03 -1.48680e-04 -1.12110e-04 1.40790e-02 1.65260e-02 -1.64970e-04 3.73700e-03 -1.36360e-04 -9.85980e-05 1.29350e-02 1.31870e-02 -3.21940e-04 3.59190e-03 -1.18770e-04 -8.26140e-05 1.20410e-02 1.25180e-02 -1.12010e-04 2.17080e-03 -1.78780e-04 -6.72110e-05 1.02970e-02 1.05170e-02 -1.24810e-04 1.56420e-03 -1.65280e-04 -6.17300e-05 9.17760e-03 9.57000e-03 -8.94340e-05 1.21470e-03 -1.59370e-04 -5.95100e-05 8.52330e-03 7.26700e-03 -1.39780e-04 5.19820e-04 -1.29120e-04 -5.21420e-05 7.28070e-03 5.48320e-03 -1.76530e-04 -6.88220e-05 -9.26700e-05 -4.40390e-05 6.25240e-03 4.75310e-03 -1.51930e-04 -3.29750e-04 -8.84840e-05 -3.93270e-05 5.75850e-03 2.94900e-03 -1.85630e-04 -9.65020e-04 -9.09570e-05 -3.13840e-05 4.69360e-03 1.48230e-03 -2.37380e-04 -1.57090e-03 -5.66520e-05 -1.58470e-05 3.73420e-03 1.07560e-03 -2.15070e-04 -1.74550e-03 -5.18300e-05 -1.19850e-05 3.41600e-03 3.96620e-04 -2.12280e-04 -2.07890e-03 -4.20950e-05 -5.31450e-06 2.89260e-03 -1.06700e-04 -1.95410e-04 -2.37900e-03 -3.35930e-05 4.87610e-07 2.44060e-03 -3.37240e-04 -1.69940e-04 -2.51000e-03 -2.97990e-05 3.42280e-06 2.22900e-03 -5.95770e-04 -9.79200e-05 -2.89080e-03 -1.18480e-05 4.78210e-06 1.75430e-03 -6.62740e-04 -8.92630e-05 -3.13880e-03 -7.93450e-06 9.54280e-06 1.57900e-03 -6.86130e-04 -9.75800e-05 -3.27920e-03 -6.86010e-06 1.28170e-05 1.55610e-03 9.24560e-01 5.38820e-01 5.12710e-01 2.88900e-09 6.14910e-10 1.95120e-01 1.00420e+00 3.07030e-01 2.15440e-01 1.04930e-09 1.02380e-09 1.38970e-01 9.80440e-01 7.98880e-02 -6.17140e-03 -1.70350e-09 1.12480e-09 6.39970e-02 9.58820e-01 5.63320e-02 -1.02200e-02 -2.86490e-09 1.00460e-09 5.88960e-02 9.38020e-01 3.58530e-02 -1.31460e-02 -3.58910e-09 8.41330e-10 7.03950e-02 9.17530e-01 2.65460e-02 -9.38500e-03 -4.15660e-09 6.91650e-10 8.06650e-02 8.82850e-01 1.53000e-02 -7.00070e-03 -5.39860e-09 4.28340e-10 1.00900e-01 8.72350e-01 1.51420e-02 -3.92350e-03 -5.25360e-09 4.07500e-10 9.75710e-02 8.49560e-01 1.23910e-02 -1.20400e-03 -5.80080e-09 2.57260e-10 1.04470e-01 8.27040e-01 9.88310e-03 9.65460e-04 -6.34690e-09 9.73270e-11 1.10780e-01 8.05060e-01 8.70910e-03 3.59690e-03 -6.86950e-09 -7.02510e-11 1.16550e-01 7.83400e-01 7.44130e-03 5.86230e-03 -7.37170e-09 -2.45660e-10 1.21900e-01 7.66210e-01 7.38610e-03 7.82950e-03 2.19710e-04 -3.90270e-04 1.23680e-01 7.52880e-01 6.17000e-03 7.36270e-03 6.87760e-04 -1.17130e-03 1.22380e-01 7.21100e-01 5.95290e-03 1.33240e-02 -8.65310e-09 -7.92350e-10 1.35080e-01 7.01010e-01 5.52220e-03 1.56310e-02 -8.99650e-09 -9.75060e-10 1.38570e-01 6.81320e-01 5.33420e-03 1.80290e-02 -9.29020e-09 -1.15360e-09 1.41580e-01 6.61900e-01 5.03060e-03 2.02400e-02 -9.53650e-09 -1.32680e-09 1.44170e-01 6.42850e-01 4.87030e-03 2.24660e-02 -9.73120e-09 -1.49230e-09 1.46330e-01 6.13120e-01 4.37060e-03 2.77150e-02 6.17880e-04 -1.09420e-03 1.54500e-01 5.94770e-01 3.96490e-03 2.94620e-02 -6.11190e-04 1.07130e-03 1.55530e-01 5.87570e-01 4.28340e-03 2.84230e-02 -6.12930e-04 1.05460e-03 1.50470e-01 5.69810e-01 4.13760e-03 3.02230e-02 -6.08610e-04 1.02980e-03 1.51120e-01 5.52370e-01 3.96290e-03 3.18830e-02 -6.03980e-04 1.00440e-03 1.51460e-01 5.24930e-01 3.40900e-03 3.63140e-02 -1.01250e-08 -2.45380e-09 1.56240e-01 5.18500e-01 3.66370e-03 3.48820e-02 -9.76130e-09 -2.35320e-09 1.51210e-01 5.02070e-01 3.52710e-03 3.62090e-02 -9.61190e-09 -2.42630e-09 1.50670e-01 4.85980e-01 3.38170e-03 3.74060e-02 -9.44090e-09 -2.48710e-09 1.49880e-01 4.70230e-01 3.25050e-03 3.84920e-02 -9.25530e-09 -2.53700e-09 1.48850e-01 4.54800e-01 3.11530e-03 3.94530e-02 -9.06230e-09 -2.57740e-09 1.47610e-01 4.39720e-01 2.98990e-03 4.03010e-02 -8.86840e-09 -2.61020e-09 1.46150e-01 4.24960e-01 2.86330e-03 4.10290e-02 -8.67990e-09 -2.63750e-09 1.44510e-01 4.10530e-01 2.74410e-03 4.16450e-02 -8.50200e-09 -2.66110e-09 1.42700e-01 4.05240e-01 2.93210e-03 3.98260e-02 -8.18200e-09 -2.52920e-09 1.38220e-01 3.82660e-01 2.51240e-03 4.25420e-02 -8.19520e-09 -2.70450e-09 1.38600e-01 3.69200e-01 2.40110e-03 4.28290e-02 -8.07250e-09 -2.72710e-09 1.36340e-01 3.56070e-01 2.29450e-03 4.30140e-02 -7.97230e-09 -2.75190e-09 1.33960e-01 3.43240e-01 2.19010e-03 4.30980e-02 -7.89480e-09 -2.77970e-09 1.31470e-01 3.30730e-01 2.08970e-03 4.30870e-02 -7.83820e-09 -2.81100e-09 1.28880e-01 3.18520e-01 1.99190e-03 4.29830e-02 -7.79950e-09 -2.84590e-09 1.26200e-01 3.14130e-01 2.16810e-03 4.10450e-02 -7.59340e-09 -2.73070e-09 1.22130e-01 2.94990e-01 1.80610e-03 4.25150e-02 -7.75660e-09 -2.92330e-09 1.20620e-01 2.83670e-01 1.71790e-03 4.21590e-02 -7.74080e-09 -2.96290e-09 1.17740e-01 2.72640e-01 1.63230e-03 4.17270e-02 -7.72070e-09 -3.00050e-09 1.14810e-01 2.61890e-01 1.54970e-03 4.12240e-02 -7.69040e-09 -3.03360e-09 1.11830e-01 2.51410e-01 1.46980e-03 4.06530e-02 -7.64430e-09 -3.06010e-09 1.08810e-01 2.47650e-01 1.62910e-03 3.87470e-02 -7.45980e-09 -2.95330e-09 1.05170e-01 2.31280e-01 1.31810e-03 3.93250e-02 -7.48720e-09 -3.08410e-09 1.02710e-01 2.21610e-01 1.24620e-03 3.85780e-02 -7.36970e-09 -3.07820e-09 9.96390e-02 2.12200e-01 1.17680e-03 3.77800e-02 -7.22340e-09 -3.05840e-09 9.65570e-02 2.03050e-01 1.10980e-03 3.69350e-02 -7.04810e-09 -3.02420e-09 9.34730e-02 1.94140e-01 1.04520e-03 3.60480e-02 -6.84450e-09 -2.97500e-09 9.03920e-02 1.80070e-01 7.77980e-04 3.59700e-02 -6.61930e-09 -2.97590e-09 8.74340e-02 1.77070e-01 9.22960e-04 3.41630e-02 -6.36260e-09 -2.83400e-09 8.42630e-02 1.68880e-01 8.65150e-04 3.31730e-02 -6.09260e-09 -2.74490e-09 8.12240e-02 1.60930e-01 8.09470e-04 3.21560e-02 -5.81020e-09 -2.64630e-09 7.82080e-02 1.53210e-01 7.55870e-04 3.11150e-02 -5.52140e-09 -2.54110e-09 7.52180e-02 1.45720e-01 7.04290e-04 3.00550e-02 -5.23230e-09 -2.43220e-09 7.22590e-02 1.38440e-01 6.54680e-04 2.89770e-02 -4.94860e-09 -2.32280e-09 6.93350e-02 1.31380e-01 6.06980e-04 2.78870e-02 -4.67530e-09 -2.21550e-09 6.64480e-02 1.24540e-01 5.61150e-04 2.67870e-02 -4.41650e-09 -2.11260e-09 6.36020e-02 1.21920e-01 6.78400e-04 2.53390e-02 -4.20360e-09 -1.98970e-09 6.11220e-02 1.15350e-01 6.31500e-04 2.42730e-02 -2.65180e-04 2.24790e-04 5.83960e-02 1.01510e-01 2.82210e-04 2.37060e-02 -2.46200e-04 2.03800e-04 5.49550e-02 9.80180e-02 3.46190e-04 2.24130e-02 -8.17380e-05 6.62320e-05 5.25440e-02 8.99250e-02 2.15070e-04 2.14050e-02 2.26650e-04 -1.78960e-04 4.96490e-02 8.66430e-02 2.76160e-04 2.01780e-02 7.52230e-05 -5.80320e-05 4.73810e-02 8.23080e-02 2.88120e-04 1.90410e-02 -3.13220e-09 -1.59800e-09 4.50400e-02 7.70530e-02 2.55390e-04 1.79590e-02 -3.01250e-09 -1.55310e-09 4.26100e-02 7.19840e-02 2.24090e-04 1.68900e-02 -2.90130e-09 -1.51250e-09 4.02400e-02 6.70990e-02 1.94200e-04 1.58350e-02 -2.79570e-09 -1.47450e-09 3.79320e-02 6.23960e-02 1.65660e-04 1.47970e-02 -2.69320e-09 -1.43740e-09 3.56880e-02 5.78720e-02 1.38440e-04 1.37780e-02 -2.59140e-09 -1.39940e-09 3.35090e-02 5.35260e-02 1.12500e-04 1.27780e-02 -2.48830e-09 -1.35890e-09 3.13950e-02 4.93570e-02 8.78150e-05 1.18000e-02 -2.38240e-09 -1.31480e-09 2.93490e-02 4.53610e-02 6.43400e-05 1.08450e-02 -2.27240e-09 -1.26640e-09 2.73700e-02 4.16320e-02 -4.12740e-05 1.00620e-02 2.20100e-05 -1.62150e-05 2.56750e-02 3.40740e-02 -6.04050e-04 9.46430e-03 1.09620e-04 -7.74420e-05 2.36500e-02 3.44030e-02 8.47050e-07 8.12800e-03 -1.91700e-09 -1.09530e-09 2.18500e-02 3.10890e-02 -1.81270e-05 7.27610e-03 -1.79330e-09 -1.03150e-09 2.01500e-02 2.79420e-02 -3.60710e-05 6.45250e-03 -1.67050e-09 -9.66060e-10 1.85220e-02 2.49610e-02 -5.30340e-05 5.65820e-03 -1.55120e-09 -9.00100e-10 1.69660e-02 2.21450e-02 -6.90680e-05 4.89390e-03 -1.43800e-09 -8.34840e-10 1.54820e-02 1.94930e-02 -8.42450e-05 4.16040e-03 -1.33280e-09 -7.71370e-10 1.40700e-02 1.68010e-02 -1.26590e-04 3.57550e-03 1.19800e-05 -1.39760e-06 1.28150e-02 1.43820e-02 -1.54050e-04 2.94720e-03 4.27330e-05 -6.89680e-06 1.15790e-02 1.35950e-02 -7.02190e-05 2.37420e-03 6.49720e-05 -1.11800e-05 1.07000e-02 1.08430e-02 -1.21140e-04 1.61940e-03 -1.74350e-05 1.92860e-06 9.29220e-03 9.56780e-03 -1.03010e-04 1.19560e-03 -5.23650e-05 3.66270e-06 8.50210e-03 6.99870e-03 -1.63340e-04 4.34010e-04 -8.70190e-10 -4.63140e-10 7.14150e-03 5.48420e-03 -1.75740e-04 -7.05970e-05 -8.07900e-10 -4.22190e-10 6.24590e-03 4.34010e-03 -1.75740e-04 -4.71230e-04 8.89160e-06 1.33980e-06 5.53410e-03 2.41470e-03 -2.32100e-04 -1.17920e-03 1.99940e-05 5.13010e-06 4.37560e-03 1.77910e-03 -2.18620e-04 -1.44330e-03 6.63000e-06 2.12500e-06 3.91530e-03 1.07630e-03 -2.14890e-04 -1.74640e-03 -5.32050e-10 -2.60910e-10 3.41170e-03 3.97300e-04 -2.12240e-04 -2.07960e-03 -4.52580e-10 -2.17640e-10 2.88890e-03 -1.06090e-04 -1.95490e-04 -2.37950e-03 -3.80150e-10 -1.76400e-10 2.43770e-03 -4.00260e-04 -1.62280e-04 -2.60220e-03 -2.46230e-06 1.39060e-06 2.11270e-03 -5.68160e-04 -1.22820e-04 -2.76900e-03 -7.53940e-06 4.19630e-06 1.88270e-03 -6.61690e-04 -9.78120e-05 -3.13830e-03 -1.65490e-10 -7.80400e-11 1.57680e-03 -6.85090e-04 -1.06200e-04 -3.27680e-03 -1.19430e-10 -7.63360e-11 1.55410e-03 9.19280e-01 5.30220e-01 5.04140e-01 -2.61210e-02 -2.24980e-03 1.92320e-01 1.00260e+00 3.04300e-01 2.14390e-01 -2.42200e-02 -1.54590e-03 1.36440e-01 9.81120e-01 7.63290e-02 -6.54800e-03 -1.72500e-02 -7.69930e-04 6.25260e-02 9.58540e-01 5.27690e-02 -1.08790e-02 -1.05000e-02 -1.56270e-04 5.81160e-02 9.38360e-01 3.38460e-02 -1.25170e-02 -5.55540e-03 4.17300e-04 6.98990e-02 9.16520e-01 2.45350e-02 -9.76180e-03 -2.40850e-03 8.34220e-04 8.01440e-02 8.82020e-01 1.19890e-02 -9.09060e-03 3.64200e-05 1.03960e-03 1.00600e-01 8.71440e-01 1.41100e-02 -4.18930e-03 5.14690e-04 1.03150e-03 9.71410e-02 8.49200e-01 1.19800e-02 -9.68590e-04 1.06660e-03 9.75820e-04 1.04160e-01 8.26620e-01 9.36780e-03 8.57330e-04 1.31590e-03 8.89300e-04 1.10560e-01 8.04970e-01 8.48760e-03 3.74590e-03 1.42000e-03 7.96370e-04 1.16440e-01 7.83350e-01 7.16560e-03 5.86350e-03 1.42920e-03 7.11940e-04 1.21860e-01 7.62420e-01 6.77520e-03 8.58820e-03 1.41080e-03 6.38560e-04 1.26770e-01 7.53000e-01 5.85780e-03 7.28960e-03 1.35790e-03 5.88900e-04 1.22450e-01 7.21350e-01 5.84250e-03 1.34420e-02 1.33020e-03 5.31740e-04 1.35190e-01 7.01260e-01 5.40630e-03 1.57280e-02 1.28900e-03 4.95180e-04 1.38700e-01 6.81600e-01 5.24380e-03 1.81500e-02 1.25490e-03 4.66390e-04 1.41740e-01 6.62180e-01 4.94130e-03 2.03550e-02 1.22270e-03 4.44710e-04 1.44340e-01 6.43130e-01 4.79360e-03 2.25900e-02 1.19580e-03 4.27590e-04 1.46510e-01 6.13390e-01 4.30360e-03 2.78440e-02 1.16320e-03 4.14250e-04 1.54680e-01 6.05940e-01 4.41660e-03 2.66770e-02 1.14880e-03 4.03660e-04 1.49640e-01 5.87820e-01 4.22190e-03 2.85490e-02 1.12790e-03 3.94900e-04 1.50650e-01 5.70050e-01 4.08130e-03 3.03510e-02 1.10870e-03 3.87300e-04 1.51300e-01 5.52590e-01 3.91080e-03 3.20110e-02 1.09020e-03 3.80650e-04 1.51630e-01 5.24940e-01 3.39850e-03 3.63160e-02 5.09960e-04 1.38300e-03 1.56290e-01 5.15240e-01 3.52100e-03 3.59310e-02 8.65860e-04 7.01880e-04 1.52830e-01 5.02260e-01 3.48670e-03 3.63360e-02 1.03870e-03 3.63400e-04 1.50840e-01 4.86150e-01 3.34490e-03 3.75320e-02 1.02240e-03 3.58160e-04 1.50040e-01 4.70390e-01 3.21700e-03 3.86170e-02 1.00640e-03 3.53040e-04 1.49010e-01 4.54950e-01 3.08510e-03 3.95760e-02 9.90550e-04 3.48020e-04 1.47760e-01 4.39850e-01 2.96270e-03 4.04230e-02 9.74980e-04 3.43050e-04 1.46300e-01 4.25090e-01 2.83920e-03 4.11490e-02 9.59530e-04 3.38140e-04 1.44660e-01 4.10650e-01 2.72260e-03 4.17640e-02 9.44240e-04 3.33260e-04 1.42840e-01 4.05350e-01 2.91310e-03 3.99450e-02 9.36630e-04 3.28610e-04 1.38360e-01 3.82760e-01 2.49620e-03 4.26580e-02 9.13890e-04 3.23560e-04 1.38730e-01 3.69290e-01 2.38740e-03 4.29430e-02 8.98810e-04 3.18730e-04 1.36470e-01 3.56150e-01 2.28300e-03 4.31260e-02 8.83780e-04 3.13900e-04 1.34090e-01 3.43310e-01 2.18090e-03 4.32090e-02 8.68780e-04 3.09080e-04 1.31590e-01 3.30790e-01 2.08260e-03 4.31960e-02 8.53800e-04 3.04260e-04 1.29000e-01 3.18580e-01 1.98670e-03 4.30900e-02 8.38840e-04 2.99430e-04 1.26320e-01 3.14180e-01 2.16430e-03 4.11510e-02 8.31680e-04 2.95590e-04 1.22240e-01 2.95040e-01 1.80450e-03 4.26180e-02 8.08970e-04 2.89760e-04 1.20730e-01 2.83710e-01 1.71790e-03 4.22600e-02 7.94070e-04 2.84920e-04 1.17840e-01 2.72680e-01 1.63380e-03 4.18260e-02 7.79170e-04 2.80080e-04 1.14910e-01 2.61920e-01 1.55270e-03 4.13210e-02 7.64300e-04 2.75230e-04 1.11930e-01 2.51440e-01 1.47410e-03 4.07470e-02 7.49450e-04 2.70370e-04 1.08910e-01 2.47680e-01 1.63440e-03 3.88410e-02 7.42500e-04 2.67070e-04 1.05260e-01 2.31300e-01 1.32480e-03 3.94160e-02 7.19820e-04 2.60650e-04 1.02800e-01 2.21630e-01 1.25390e-03 3.86670e-02 7.05050e-04 2.55790e-04 9.97250e-02 2.12220e-01 1.18550e-03 3.78660e-02 6.90320e-04 2.50920e-04 9.66400e-02 2.03060e-01 1.11940e-03 3.70200e-02 6.75610e-04 2.46050e-04 9.35530e-02 1.94150e-01 1.05560e-03 3.61310e-02 6.60950e-04 2.41180e-04 9.04700e-02 1.80080e-01 7.89190e-04 3.60490e-02 6.38440e-04 2.34300e-04 8.75080e-02 1.77070e-01 9.34750e-04 3.42420e-02 6.31730e-04 2.31430e-04 8.43360e-02 1.68880e-01 8.77550e-04 3.32490e-02 6.17190e-04 2.26560e-04 8.12940e-02 1.60930e-01 8.22410e-04 3.22300e-02 6.02690e-04 2.21680e-04 7.82760e-02 1.53210e-01 7.69290e-04 3.11870e-02 5.88230e-04 2.16810e-04 7.52840e-02 1.45710e-01 7.18140e-04 3.01250e-02 5.73830e-04 2.11930e-04 7.23230e-02 1.38440e-01 6.68910e-04 2.90460e-02 5.59480e-04 2.07060e-04 6.93970e-02 1.31380e-01 6.21530e-04 2.79540e-02 5.45170e-04 2.02180e-04 6.65080e-02 1.25920e-01 6.25840e-04 2.67050e-02 4.49670e-04 2.84160e-04 6.37440e-02 1.21910e-01 6.76810e-04 2.53510e-02 2.73780e-04 4.47400e-04 6.11410e-02 1.11460e-01 4.90080e-04 2.46280e-02 5.02570e-04 1.87540e-04 5.80970e-02 1.05240e-01 4.49660e-04 2.35140e-02 4.88480e-04 1.82660e-04 5.53880e-02 9.56090e-02 2.46480e-04 2.25630e-02 2.53020e-04 3.78750e-04 5.22910e-02 8.99150e-02 2.30580e-04 2.14590e-02 4.52750e-04 1.70210e-04 4.96970e-02 8.77420e-02 3.37950e-04 2.01870e-02 4.46540e-04 1.67980e-04 4.75780e-02 8.22980e-02 3.03760e-04 1.90930e-02 4.32680e-04 1.63080e-04 4.50870e-02 7.70430e-02 2.71020e-04 1.80090e-02 4.18870e-04 1.58180e-04 4.26550e-02 7.19740e-02 2.39690e-04 1.69380e-02 4.05120e-04 1.53260e-04 4.02830e-02 6.70890e-02 2.09740e-04 1.58810e-02 3.91420e-04 1.48340e-04 3.79740e-02 6.23860e-02 1.81120e-04 1.48420e-02 3.77790e-04 1.43410e-04 3.57290e-02 5.78630e-02 1.53810e-04 1.38210e-02 3.64210e-04 1.38480e-04 3.35480e-02 5.35180e-02 1.27770e-04 1.28190e-02 3.50690e-04 1.33530e-04 3.14330e-02 4.93480e-02 1.02960e-04 1.18390e-02 3.37230e-04 1.28560e-04 2.93850e-02 4.53530e-02 7.93480e-05 1.08820e-02 3.23820e-04 1.23590e-04 2.74060e-02 4.09950e-02 -2.76120e-05 1.00220e-02 3.23310e-04 1.05440e-04 2.55020e-02 3.79380e-02 -1.06490e-04 9.30760e-03 3.32070e-04 8.61600e-05 2.40190e-02 3.43970e-02 1.54070e-05 8.16110e-03 2.83940e-04 1.08570e-04 2.18810e-02 3.10840e-02 -3.72520e-06 7.30760e-03 2.70750e-04 1.03530e-04 2.01810e-02 2.79380e-02 -2.18270e-05 6.48250e-03 2.57600e-04 9.84630e-05 1.85520e-02 2.49580e-02 -3.89440e-05 5.68670e-03 2.44500e-04 9.33700e-05 1.69940e-02 2.21430e-02 -5.51260e-05 4.92090e-03 2.31410e-04 8.82440e-05 1.55090e-02 1.94920e-02 -7.04380e-05 4.18580e-03 2.18340e-04 8.30780e-05 1.40960e-02 1.70050e-02 -8.49530e-05 3.48210e-03 2.05240e-04 7.78610e-05 1.27570e-02 1.46800e-02 -9.87740e-05 2.81030e-03 1.92070e-04 7.25780e-05 1.14900e-02 1.35960e-02 -5.66330e-05 2.39620e-03 1.86430e-04 7.04870e-05 1.07240e-02 1.14980e-02 -8.77500e-05 1.77210e-03 1.23660e-04 7.55080e-05 9.57280e-03 8.67850e-03 -1.37320e-04 9.90740e-04 1.51460e-04 5.61030e-05 8.13210e-03 7.00170e-03 -1.49690e-04 4.50820e-04 1.37220e-04 5.02900e-05 7.16080e-03 5.48720e-03 -1.61970e-04 -5.52710e-05 1.22430e-04 4.42510e-05 6.26370e-03 4.13590e-03 -1.74100e-04 -5.27280e-04 1.07000e-04 3.79510e-05 5.44130e-03 2.41670e-03 -2.18240e-04 -1.16790e-03 8.22600e-05 2.76350e-05 4.38920e-03 1.92840e-03 -1.95500e-04 -1.36840e-03 7.44980e-05 2.46020e-05 4.02080e-03 1.07650e-03 -2.01510e-04 -1.73730e-03 5.81310e-05 1.77500e-05 3.42240e-03 3.96570e-04 -1.99830e-04 -2.07220e-03 4.27400e-05 1.11260e-05 2.89780e-03 -1.07560e-04 -1.84420e-04 -2.37370e-03 2.94040e-05 5.11840e-06 2.44470e-03 -4.34010e-04 -1.48830e-04 -2.64420e-03 1.89780e-05 -9.52420e-08 2.06130e-03 -5.87630e-04 -1.00500e-04 -2.84860e-03 8.90440e-06 -2.73280e-06 1.79910e-03 -6.64320e-04 -8.09430e-05 -3.13860e-03 -4.04080e-06 -5.99530e-06 1.57980e-03 -6.88160e-04 -8.91080e-05 -3.28050e-03 -5.65570e-06 -1.02850e-05 1.55650e-03 9.20830e-01 5.30770e-01 5.05020e-01 -5.54520e-02 -4.89850e-03 1.82560e-01 1.00290e+00 2.93150e-01 2.09360e-01 -5.03140e-02 -3.94180e-03 1.28410e-01 9.82060e-01 6.34240e-02 -9.41970e-03 -3.36290e-02 -2.44440e-03 5.80150e-02 9.59670e-01 4.33370e-02 -1.05270e-02 -1.84110e-02 -8.77670e-04 5.60960e-02 9.35910e-01 2.68000e-02 -1.27960e-02 -8.73420e-03 6.02610e-04 6.83390e-02 8.98930e-01 1.21600e-02 -1.01170e-02 -4.41700e-04 4.28090e-04 9.22810e-02 8.85540e-01 1.20710e-02 -8.04820e-03 4.42640e-04 1.33960e-03 9.13650e-02 8.69250e-01 1.21520e-02 -3.81120e-03 1.29400e-03 1.72740e-03 9.59100e-02 8.47360e-01 1.02940e-02 -1.05850e-03 2.14180e-03 1.60240e-03 1.03240e-01 8.25650e-01 8.37300e-03 1.12500e-03 2.52720e-03 1.43990e-03 1.09990e-01 8.04440e-01 7.60750e-03 3.84900e-03 2.65530e-03 1.27690e-03 1.16150e-01 7.83340e-01 6.58680e-03 6.14570e-03 2.66360e-03 1.13160e-03 1.21810e-01 7.62670e-01 6.24950e-03 8.82110e-03 2.60820e-03 1.01100e-03 1.26910e-01 7.53450e-01 5.55560e-03 7.70290e-03 2.56760e-03 9.34090e-04 1.22650e-01 7.21980e-01 5.47940e-03 1.37540e-02 2.45670e-03 8.36890e-04 1.35570e-01 7.02000e-01 5.10710e-03 1.60850e-02 2.38450e-03 7.77670e-04 1.39160e-01 6.82380e-01 4.96400e-03 1.85080e-02 2.31980e-03 7.33290e-04 1.42240e-01 6.62970e-01 4.69610e-03 2.07360e-02 2.26260e-03 6.99180e-04 1.44870e-01 6.43910e-01 4.56400e-03 2.29730e-02 2.21230e-03 6.73640e-04 1.47060e-01 6.14140e-01 4.09280e-03 2.82340e-02 2.14910e-03 6.54190e-04 1.55250e-01 6.06660e-01 4.22260e-03 2.70700e-02 2.12560e-03 6.38140e-04 1.50200e-01 5.88510e-01 4.04430e-03 2.89470e-02 2.08690e-03 6.25330e-04 1.51210e-01 5.70700e-01 3.91600e-03 3.07480e-02 2.05080e-03 6.14640e-04 1.51860e-01 5.53200e-01 3.75890e-03 3.24080e-02 2.01590e-03 6.05190e-04 1.52180e-01 5.36060e-01 3.63290e-03 3.39730e-02 1.98260e-03 5.96680e-04 1.52180e-01 5.09040e-01 3.16350e-03 3.82940e-02 1.93510e-03 5.90750e-04 1.56350e-01 5.02760e-01 3.36800e-03 3.67270e-02 1.91850e-03 5.81130e-04 1.51350e-01 4.86610e-01 3.23660e-03 3.79200e-02 1.88740e-03 5.73780e-04 1.50540e-01 4.70810e-01 3.11830e-03 3.90010e-02 1.85690e-03 5.66600e-04 1.49500e-01 4.55340e-01 2.99570e-03 3.99570e-02 1.82680e-03 5.59500e-04 1.48230e-01 4.40210e-01 2.88220e-03 4.07990e-02 1.79710e-03 5.52480e-04 1.46760e-01 4.25410e-01 2.76720e-03 4.15210e-02 1.76760e-03 5.45480e-04 1.45110e-01 4.10950e-01 2.65880e-03 4.21310e-02 1.73850e-03 5.38500e-04 1.43270e-01 4.05630e-01 2.85530e-03 4.03080e-02 1.72430e-03 5.31270e-04 1.38790e-01 3.83000e-01 2.44750e-03 4.30140e-02 1.68060e-03 5.24520e-04 1.39140e-01 3.69510e-01 2.34570e-03 4.32940e-02 1.65180e-03 5.17490e-04 1.36870e-01 3.56340e-01 2.24800e-03 4.34720e-02 1.62320e-03 5.10450e-04 1.34470e-01 3.43490e-01 2.15210e-03 4.35480e-02 1.59460e-03 5.03370e-04 1.31970e-01 3.30950e-01 2.05980e-03 4.35300e-02 1.56610e-03 4.96250e-04 1.29360e-01 3.18710e-01 1.96960e-03 4.34180e-02 1.53770e-03 4.89100e-04 1.26670e-01 3.14310e-01 2.15140e-03 4.14760e-02 1.52450e-03 4.83240e-04 1.22590e-01 2.95140e-01 1.79770e-03 4.29340e-02 1.48100e-03 4.74680e-04 1.21060e-01 2.83800e-01 1.71570e-03 4.25700e-02 1.45270e-03 4.67410e-04 1.18170e-01 2.72750e-01 1.63610e-03 4.21300e-02 1.42450e-03 4.60110e-04 1.15220e-01 2.61980e-01 1.55900e-03 4.16180e-02 1.39640e-03 4.52770e-04 1.12230e-01 2.51490e-01 1.48420e-03 4.10380e-02 1.36830e-03 4.45400e-04 1.09200e-01 2.43430e-01 1.49560e-03 4.00250e-02 1.44180e-03 2.52320e-04 1.05990e-01 2.37630e-01 1.58860e-03 3.86550e-02 1.61740e-03 -1.18260e-04 1.02700e-01 2.21640e-01 1.27400e-03 3.89380e-02 1.28460e-03 4.23100e-04 9.99890e-02 2.12220e-01 1.20830e-03 3.81320e-02 1.25690e-03 4.15620e-04 9.68960e-02 2.03060e-01 1.14480e-03 3.72790e-02 1.22930e-03 4.08110e-04 9.38010e-02 1.94140e-01 1.08340e-03 3.63840e-02 1.20170e-03 4.00570e-04 9.07100e-02 1.80060e-01 8.19400e-04 3.62930e-02 1.15920e-03 3.89640e-04 8.77370e-02 1.77050e-01 9.66630e-04 3.44820e-02 1.14700e-03 3.85440e-04 8.45610e-02 1.68860e-01 9.11180e-04 3.34840e-02 1.11980e-03 3.77840e-04 8.15120e-02 1.60900e-01 8.57620e-04 3.24580e-02 1.09280e-03 3.70220e-04 7.84870e-02 1.53180e-01 8.05910e-04 3.14100e-02 1.06580e-03 3.62590e-04 7.54880e-02 1.45680e-01 7.56000e-04 3.03410e-02 1.03900e-03 3.54930e-04 7.25210e-02 1.38400e-01 7.07850e-04 2.92560e-02 1.01230e-03 3.47260e-04 6.95880e-02 1.31330e-01 6.61420e-04 2.81580e-02 9.85700e-04 3.39560e-04 6.66930e-02 1.28650e-01 7.82700e-04 2.66650e-02 9.74170e-04 3.36140e-04 6.41320e-02 1.17850e-01 5.73530e-04 2.59350e-02 9.32950e-04 3.24110e-04 6.10290e-02 1.11420e-01 5.32000e-04 2.48150e-02 9.06780e-04 3.16360e-04 5.82660e-02 1.05190e-01 4.92020e-04 2.36950e-02 8.80740e-04 3.08580e-04 5.55520e-02 9.91620e-02 4.53560e-04 2.25760e-02 8.54840e-04 3.00780e-04 5.28890e-02 8.98690e-02 2.73350e-04 2.16260e-02 8.14360e-04 2.88230e-04 4.98480e-02 8.76970e-02 3.81040e-04 2.03520e-02 8.03440e-04 2.85110e-04 4.77270e-02 8.22530e-02 3.46910e-04 1.92520e-02 7.77950e-04 2.77230e-04 4.52310e-02 7.69990e-02 3.14160e-04 1.81630e-02 7.52600e-04 2.69330e-04 4.27940e-02 7.19310e-02 2.82750e-04 1.70860e-02 7.27390e-04 2.61390e-04 4.04190e-02 6.70480e-02 2.52650e-04 1.60250e-02 7.02320e-04 2.53430e-04 3.81050e-02 6.23470e-02 2.23830e-04 1.49800e-02 6.77380e-04 2.45430e-04 3.58560e-02 5.78260e-02 1.96270e-04 1.39540e-02 6.52590e-04 2.37390e-04 3.36710e-02 5.34830e-02 1.69920e-04 1.29470e-02 6.27930e-04 2.29320e-04 3.15520e-02 4.93160e-02 1.44780e-04 1.19630e-02 6.03410e-04 2.21200e-04 2.95010e-02 4.53230e-02 1.20800e-04 1.10010e-02 5.79020e-04 2.13050e-04 2.75170e-02 4.15030e-02 9.79590e-05 1.00630e-02 5.54770e-04 2.04840e-04 2.56020e-02 3.98490e-02 1.67900e-04 9.30630e-03 5.44880e-04 2.02060e-04 2.42790e-02 3.43760e-02 5.56010e-05 8.26500e-03 5.06660e-04 1.88290e-04 2.19820e-02 3.10650e-02 3.60250e-05 7.40680e-03 4.82790e-04 1.79930e-04 2.02780e-02 2.79220e-02 1.74790e-05 6.57700e-03 4.59040e-04 1.71500e-04 1.86450e-02 2.49460e-02 -7.53640e-08 5.77660e-03 4.35380e-04 1.63010e-04 1.70840e-02 2.21340e-02 -1.66750e-05 5.00630e-03 4.11810e-04 1.54440e-04 1.55960e-02 1.94860e-02 -3.23720e-05 4.26670e-03 3.88280e-04 1.45780e-04 1.41800e-02 1.70020e-02 -4.72230e-05 3.55850e-03 3.64760e-04 1.37000e-04 1.28370e-02 1.46810e-02 -6.13100e-05 2.88220e-03 3.41150e-04 1.28090e-04 1.15670e-02 1.28830e-02 -4.74740e-05 2.32680e-03 3.28430e-04 1.13240e-04 1.05240e-02 1.15150e-02 -9.58750e-06 1.89320e-03 3.27610e-04 9.52990e-05 9.69150e-03 8.68790e-03 -9.99870e-05 1.04930e-03 2.68680e-04 1.00120e-04 8.19820e-03 7.01290e-03 -1.12110e-04 5.04900e-04 2.43370e-04 9.01750e-05 7.22280e-03 5.49940e-03 -1.24000e-04 -5.72650e-06 2.17090e-04 7.97870e-05 6.32150e-03 4.14790e-03 -1.35700e-04 -4.82400e-04 1.89640e-04 6.88720e-05 5.49430e-03 2.42720e-03 -1.79510e-04 -1.13080e-03 1.44670e-04 5.04110e-05 4.43380e-03 1.93670e-03 -1.56920e-04 -1.33320e-03 1.31290e-04 4.53610e-05 4.06260e-03 1.08170e-03 -1.63960e-04 -1.70730e-03 1.01420e-04 3.30370e-05 3.45800e-03 3.98350e-04 -1.64860e-04 -2.04740e-03 7.28800e-05 2.09270e-05 2.92690e-03 -1.08670e-04 -1.53750e-04 -2.35420e-03 4.81090e-05 1.00310e-05 2.46800e-03 -4.37210e-04 -1.22740e-04 -2.62990e-03 2.91790e-05 1.31920e-06 2.07910e-03 -5.99970e-04 -7.49990e-05 -2.88280e-03 1.64360e-05 -5.64550e-06 1.76650e-03 -6.65910e-04 -6.73490e-05 -3.13870e-03 1.00360e-05 -1.22660e-05 1.58640e-03 -6.88350e-04 -7.47160e-05 -3.28410e-03 9.00140e-06 -1.69460e-05 1.56210e-03 9.15870e-01 5.08390e-01 4.84320e-01 -9.55910e-02 -8.71050e-03 1.62270e-01 1.00750e+00 2.68230e-01 1.99930e-01 -8.12620e-02 -8.68960e-03 1.13110e-01 9.87530e-01 3.68310e-02 -1.43650e-02 -4.36220e-02 -5.52900e-03 5.14400e-02 9.53700e-01 2.76670e-02 -1.17260e-02 -1.84970e-02 -1.72140e-03 5.31660e-02 9.29550e-01 1.83210e-02 -1.09110e-02 -8.40470e-03 5.98130e-04 6.53220e-02 8.96760e-01 1.64800e-02 -2.75930e-03 7.05290e-04 1.79980e-03 8.97230e-02 8.86120e-01 1.16720e-02 -5.36700e-03 5.65210e-04 1.75920e-03 8.52010e-02 8.65240e-01 8.91570e-03 -3.56250e-03 2.14110e-03 1.68640e-03 9.38940e-02 8.45050e-01 8.13290e-03 -4.70130e-04 2.99590e-03 1.49940e-03 1.01960e-01 8.24530e-01 6.67360e-03 1.65570e-03 3.30560e-03 1.30940e-03 1.09310e-01 8.04340e-01 6.33210e-03 4.52230e-03 3.43420e-03 1.12600e-03 1.15980e-01 7.83940e-01 5.54650e-03 6.86040e-03 3.39030e-03 9.80160e-04 1.22030e-01 7.63790e-01 5.38320e-03 9.60370e-03 3.32660e-03 8.56790e-04 1.27420e-01 7.54780e-01 4.80480e-03 8.53290e-03 3.20050e-03 7.72780e-04 1.23280e-01 7.23620e-01 4.81310e-03 1.46150e-02 3.13090e-03 6.93580e-04 1.36440e-01 7.03740e-01 4.50870e-03 1.69770e-02 3.03630e-03 6.42800e-04 1.40130e-01 6.84140e-01 4.40950e-03 1.94150e-02 2.96080e-03 6.04270e-04 1.43280e-01 6.64730e-01 4.18590e-03 2.16590e-02 2.88690e-03 5.78100e-04 1.45950e-01 6.45620e-01 4.08410e-03 2.39010e-02 2.82560e-03 5.58750e-04 1.48160e-01 6.15750e-01 3.63890e-03 2.91580e-02 2.74540e-03 5.51420e-04 1.56360e-01 6.08240e-01 3.80040e-03 2.80010e-02 2.71380e-03 5.36150e-04 1.51300e-01 5.90010e-01 3.64890e-03 2.98760e-02 2.66240e-03 5.29470e-04 1.52300e-01 5.72120e-01 3.54240e-03 3.16710e-02 2.61520e-03 5.24210e-04 1.52930e-01 5.54540e-01 3.40860e-03 3.33260e-02 2.56830e-03 5.20160e-04 1.53230e-01 5.37310e-01 3.30260e-03 3.48820e-02 2.52390e-03 5.16620e-04 1.53220e-01 5.10180e-01 2.85380e-03 3.91900e-02 2.45830e-03 5.18560e-04 1.57360e-01 5.03850e-01 3.07690e-03 3.76170e-02 2.43710e-03 5.10450e-04 1.52340e-01 4.87630e-01 2.96430e-03 3.88000e-02 2.39480e-03 5.07490e-04 1.51510e-01 4.71760e-01 2.86320e-03 3.98690e-02 2.35340e-03 5.04470e-04 1.50440e-01 4.56220e-01 2.75790e-03 4.08140e-02 2.31230e-03 5.01380e-04 1.49150e-01 4.41030e-01 2.66040e-03 4.16440e-02 2.27190e-03 4.98180e-04 1.47660e-01 4.26170e-01 2.56120e-03 4.23530e-02 2.23170e-03 4.94850e-04 1.45980e-01 4.11640e-01 2.46770e-03 4.29500e-02 2.19190e-03 4.91370e-04 1.44120e-01 4.06300e-01 2.67680e-03 4.11190e-02 2.17370e-03 4.85770e-04 1.39620e-01 3.83590e-01 2.28460e-03 4.38060e-02 2.11310e-03 4.83960e-04 1.39940e-01 3.70050e-01 2.19610e-03 4.40720e-02 2.07390e-03 4.80010e-04 1.37650e-01 3.56830e-01 2.11100e-03 4.42360e-02 2.03500e-03 4.75910e-04 1.35230e-01 3.43930e-01 2.02720e-03 4.42980e-02 1.99620e-03 4.71640e-04 1.32700e-01 3.31350e-01 1.94630e-03 4.42650e-02 1.95770e-03 4.67220e-04 1.30070e-01 3.19080e-01 1.86710e-03 4.41380e-02 1.91920e-03 4.62640e-04 1.27360e-01 3.14650e-01 2.05760e-03 4.21870e-02 1.90240e-03 4.58370e-04 1.23270e-01 2.95440e-01 1.71550e-03 4.36250e-02 1.84280e-03 4.53050e-04 1.21710e-01 2.84060e-01 1.64290e-03 4.32460e-02 1.80490e-03 4.48050e-04 1.18790e-01 2.72980e-01 1.57220e-03 4.27910e-02 1.76710e-03 4.42910e-04 1.15820e-01 2.62180e-01 1.50350e-03 4.22640e-02 1.72950e-03 4.37640e-04 1.12820e-01 2.51670e-01 1.43670e-03 4.16700e-02 1.69210e-03 4.32260e-04 1.09770e-01 2.41430e-01 1.37190e-03 4.10120e-02 1.65490e-03 4.26760e-04 1.06700e-01 2.37730e-01 1.53800e-03 3.91100e-02 1.63930e-03 4.23580e-04 1.03110e-01 2.21760e-01 1.24780e-03 3.95250e-02 1.58120e-03 4.15440e-04 1.00510e-01 2.12320e-01 1.18840e-03 3.87040e-02 1.54460e-03 4.09630e-04 9.73980e-02 2.03130e-01 1.13080e-03 3.78370e-02 1.50830e-03 4.03720e-04 9.42870e-02 1.94200e-01 1.07490e-03 3.69270e-02 1.47220e-03 3.97730e-04 9.11810e-02 1.80100e-01 8.16620e-04 3.68150e-02 1.41530e-03 3.88080e-04 8.81860e-02 1.77080e-01 9.68090e-04 3.49970e-02 1.40070e-03 3.85480e-04 8.50030e-02 1.68880e-01 9.17150e-04 3.39840e-02 1.36530e-03 3.79240e-04 8.19400e-02 1.60910e-01 8.67770e-04 3.29450e-02 1.33020e-03 3.72920e-04 7.89010e-02 1.53180e-01 8.19960e-04 3.18820e-02 1.29530e-03 3.66520e-04 7.58900e-02 1.45670e-01 7.73660e-04 3.08000e-02 1.26070e-03 3.60060e-04 7.29100e-02 1.38380e-01 7.28850e-04 2.97020e-02 1.22640e-03 3.53520e-04 6.99650e-02 1.31310e-01 6.85490e-04 2.85900e-02 1.19230e-03 3.46910e-04 6.70580e-02 1.28620e-01 8.09480e-04 2.70910e-02 1.17890e-03 3.45180e-04 6.44920e-02 1.17810e-01 6.03040e-04 2.63410e-02 1.12500e-03 3.33470e-04 6.13720e-02 1.11380e-01 5.63890e-04 2.52090e-02 1.09170e-03 3.26650e-04 5.85980e-02 1.05150e-01 5.26080e-04 2.40760e-02 1.05870e-03 3.19760e-04 5.58730e-02 9.91160e-02 4.89590e-04 2.29440e-02 1.02590e-03 3.12800e-04 5.32000e-02 8.98220e-02 3.11110e-04 2.19760e-02 9.73430e-04 3.00140e-04 5.01450e-02 8.76480e-02 4.20460e-04 2.06960e-02 9.61240e-04 2.98660e-04 4.80190e-02 8.22030e-02 3.87780e-04 1.95840e-02 9.29300e-04 2.91470e-04 4.55140e-02 7.69490e-02 3.56320e-04 1.84830e-02 8.97620e-04 2.84210e-04 4.30680e-02 7.18820e-02 3.26050e-04 1.73950e-02 8.66220e-04 2.76870e-04 4.06840e-02 6.70000e-02 2.96960e-04 1.63220e-02 8.35070e-04 2.69460e-04 3.83620e-02 6.23000e-02 2.69030e-04 1.52660e-02 8.04190e-04 2.61950e-04 3.61040e-02 5.77810e-02 2.42230e-04 1.42290e-02 7.73570e-04 2.54360e-04 3.39110e-02 5.34400e-02 2.16550e-04 1.32110e-02 7.43210e-04 2.46680e-04 3.17850e-02 4.92760e-02 1.91960e-04 1.22160e-02 7.13100e-04 2.38910e-04 2.97250e-02 4.52860e-02 1.68450e-04 1.12430e-02 6.83250e-04 2.31040e-04 2.77340e-02 4.14700e-02 1.46010e-04 1.02950e-02 6.53650e-04 2.23080e-04 2.58120e-02 3.98170e-02 2.16510e-04 9.53330e-03 6.43370e-04 2.21800e-04 2.44860e-02 3.43500e-02 1.04220e-04 8.47630e-03 5.95170e-04 2.06820e-04 2.21770e-02 3.10440e-02 8.48420e-05 7.60810e-03 5.66280e-04 1.98530e-04 2.04660e-02 2.79060e-02 6.64510e-05 6.76840e-03 5.37620e-04 1.90110e-04 1.88270e-02 2.49340e-02 4.90220e-05 5.95830e-03 5.09160e-04 1.81560e-04 1.72590e-02 2.21270e-02 3.25300e-05 5.17830e-03 4.80890e-04 1.72880e-04 1.57640e-02 1.94850e-02 1.69450e-05 4.42920e-03 4.52760e-04 1.64030e-04 1.43410e-02 1.70060e-02 2.23090e-06 3.71160e-03 4.24730e-04 1.55010e-04 1.29910e-02 1.46900e-02 -1.16630e-05 3.02610e-03 3.96720e-04 1.45770e-04 1.17150e-02 1.25360e-02 -2.47880e-05 2.37300e-03 3.68620e-04 1.36290e-04 1.05120e-02 1.15230e-02 1.44370e-05 1.98580e-03 3.59380e-04 1.34270e-04 9.79740e-03 8.71250e-03 -4.90520e-05 1.16590e-03 3.11450e-04 1.16330e-04 8.32570e-03 7.04140e-03 -6.03760e-05 6.12480e-04 2.81910e-04 1.05680e-04 7.34310e-03 5.53070e-03 -7.12640e-05 9.27570e-05 2.51330e-04 9.44310e-05 6.43390e-03 4.18040e-03 -8.17940e-05 -3.93150e-04 2.19380e-04 8.24550e-05 5.59810e-03 2.45860e-03 -1.24350e-04 -1.05640e-03 1.64570e-04 6.06340e-05 4.52270e-03 1.96490e-03 -1.01160e-04 -1.26330e-03 1.50710e-04 5.58980e-05 4.14600e-03 1.10410e-03 -1.08730e-04 -1.64760e-03 1.14600e-04 4.13880e-05 3.52930e-03 4.13220e-04 -1.12320e-04 -1.99840e-03 7.91240e-05 2.66710e-05 2.98520e-03 -1.02070e-04 -1.07840e-04 -2.31620e-03 4.73360e-05 1.30540e-05 2.51350e-03 -4.37530e-04 -8.65400e-05 -2.60150e-03 2.38890e-05 3.24150e-06 2.11350e-03 -6.05070e-04 -4.53810e-05 -2.86280e-03 9.97110e-06 -1.28230e-06 1.78970e-03 -6.73120e-04 -4.12990e-05 -3.13270e-03 2.88470e-06 -3.31600e-06 1.59890e-03 -6.95140e-04 -4.98160e-05 -3.28880e-03 6.49010e-07 -5.30680e-06 1.57100e-03 9.37050e-01 4.70960e-01 4.54650e-01 -1.61580e-01 -1.19750e-02 1.27270e-01 1.02420e+00 1.92890e-01 1.60500e-01 -1.04610e-01 -1.14990e-02 8.88280e-02 9.59310e-01 -1.11820e-03 -3.23310e-02 -2.89840e-02 -5.90490e-03 4.11610e-02 9.29600e-01 1.68510e-02 -9.98870e-03 -1.32490e-02 -1.16850e-03 4.62790e-02 9.07590e-01 7.72680e-03 -1.44570e-02 -5.21980e-03 4.95850e-04 5.78180e-02 8.84070e-01 9.90350e-03 -4.89930e-03 -3.77140e-04 1.07590e-03 8.49600e-02 8.74770e-01 6.67370e-03 -7.02810e-03 9.48370e-04 1.03050e-03 8.11830e-02 8.57770e-01 5.27500e-03 -4.65830e-03 2.13680e-03 8.86770e-04 9.14870e-02 8.40430e-01 5.21600e-03 -1.31280e-03 2.76300e-03 7.45570e-04 1.00770e-01 8.22010e-01 4.27770e-03 1.05330e-03 3.03440e-03 6.00980e-04 1.09080e-01 8.03350e-01 4.31220e-03 4.17760e-03 3.13400e-03 4.98520e-04 1.16450e-01 7.83960e-01 3.76070e-03 6.66650e-03 3.12340e-03 4.10720e-04 1.23010e-01 7.64500e-01 3.77700e-03 9.57970e-03 3.07470e-03 3.52610e-04 1.28770e-01 7.55750e-01 3.27580e-03 8.55050e-03 3.02040e-03 3.05590e-04 1.24780e-01 7.24990e-01 3.42490e-03 1.48020e-02 2.92750e-03 2.80590e-04 1.38220e-01 7.05220e-01 3.20120e-03 1.72370e-02 2.85300e-03 2.62400e-04 1.42010e-01 6.85650e-01 3.16060e-03 1.97390e-02 2.78440e-03 2.53550e-04 1.45220e-01 6.66210e-01 2.99770e-03 2.20330e-02 2.71930e-03 2.49780e-04 1.47920e-01 6.47040e-01 2.94110e-03 2.43150e-02 2.65860e-03 2.50340e-04 1.50130e-01 6.17050e-01 2.55010e-03 2.96160e-02 2.57490e-03 2.64220e-04 1.58320e-01 6.09480e-01 2.74690e-03 2.84770e-02 2.54560e-03 2.57690e-04 1.53250e-01 5.91150e-01 2.63930e-03 3.03760e-02 2.49240e-03 2.62900e-04 1.54220e-01 5.73150e-01 2.56920e-03 3.21890e-02 2.44060e-03 2.68370e-04 1.54820e-01 5.55470e-01 2.47480e-03 3.38610e-02 2.39020e-03 2.73820e-04 1.55090e-01 5.38140e-01 2.40340e-03 3.54310e-02 2.34060e-03 2.78960e-04 1.55040e-01 5.10870e-01 1.99760e-03 3.97570e-02 2.26630e-03 2.91930e-04 1.59120e-01 5.04500e-01 2.24690e-03 3.81890e-02 2.24430e-03 2.88080e-04 1.54080e-01 4.88190e-01 2.16810e-03 3.93810e-02 2.19740e-03 2.91950e-04 1.53200e-01 4.72230e-01 2.09840e-03 4.04580e-02 2.15110e-03 2.95290e-04 1.52090e-01 4.56620e-01 2.02470e-03 4.14090e-02 2.10550e-03 2.98160e-04 1.50760e-01 4.41350e-01 1.95710e-03 4.22440e-02 2.06040e-03 3.00530e-04 1.49230e-01 4.26420e-01 1.88770e-03 4.29580e-02 2.01590e-03 3.02440e-04 1.47510e-01 4.11830e-01 1.82260e-03 4.35580e-02 1.97190e-03 3.03880e-04 1.45610e-01 4.06450e-01 2.05210e-03 4.17270e-02 1.95390e-03 3.01390e-04 1.41080e-01 3.83650e-01 1.69440e-03 4.44180e-02 1.88540e-03 3.05480e-04 1.41350e-01 3.70060e-01 1.63220e-03 4.46850e-02 1.84280e-03 3.05680e-04 1.39010e-01 3.56800e-01 1.57250e-03 4.48480e-02 1.80070e-03 3.05480e-04 1.36560e-01 3.43860e-01 1.51340e-03 4.49100e-02 1.75900e-03 3.04930e-04 1.33990e-01 3.31230e-01 1.45640e-03 4.48750e-02 1.71780e-03 3.04030e-04 1.31330e-01 3.18920e-01 1.40040e-03 4.47470e-02 1.67700e-03 3.02820e-04 1.28580e-01 3.14480e-01 1.60630e-03 4.27930e-02 1.66160e-03 3.01080e-04 1.24460e-01 2.95220e-01 1.29290e-03 4.42280e-02 1.59670e-03 2.99500e-04 1.22860e-01 2.83820e-01 1.24130e-03 4.38450e-02 1.55730e-03 2.97430e-04 1.19900e-01 2.72710e-01 1.19080e-03 4.33860e-02 1.51830e-03 2.95120e-04 1.16900e-01 2.61890e-01 1.14180e-03 4.28550e-02 1.47970e-03 2.92580e-04 1.13860e-01 2.51360e-01 1.09400e-03 4.22560e-02 1.44170e-03 2.89840e-04 1.10790e-01 2.41100e-01 1.04750e-03 4.15930e-02 1.40410e-03 2.86890e-04 1.07690e-01 2.37400e-01 1.22540e-03 3.96870e-02 1.39120e-03 2.86090e-04 1.04080e-01 2.21400e-01 9.58130e-04 4.00950e-02 1.33030e-03 2.80500e-04 1.01430e-01 2.11960e-01 9.15240e-04 3.92680e-02 1.29420e-03 2.77060e-04 9.82960e-02 2.02760e-01 8.73550e-04 3.83940e-02 1.25850e-03 2.73500e-04 9.51580e-02 1.93830e-01 8.32980e-04 3.74780e-02 1.22330e-03 2.69800e-04 9.20250e-02 1.79720e-01 5.94720e-04 3.73570e-02 1.16510e-03 2.62290e-04 8.89920e-02 1.76700e-01 7.55250e-04 3.55340e-02 1.15440e-03 2.62080e-04 8.57970e-02 1.68500e-01 7.18030e-04 3.45150e-02 1.12070e-03 2.58080e-04 8.27100e-02 1.60530e-01 6.81880e-04 3.34680e-02 1.08750e-03 2.53980e-04 7.96470e-02 1.52800e-01 6.46790e-04 3.23980e-02 1.05470e-03 2.49810e-04 7.66130e-02 1.45290e-01 6.12730e-04 3.13090e-02 1.02250e-03 2.45560e-04 7.36110e-02 1.38010e-01 5.79700e-04 3.02020e-02 9.90670e-04 2.41250e-04 7.06450e-02 1.30950e-01 5.47660e-04 2.90830e-02 9.59360e-04 2.36870e-04 6.77170e-02 1.28270e-01 6.78380e-04 2.75800e-02 9.50960e-04 2.37780e-04 6.51400e-02 1.17470e-01 4.86530e-04 2.68180e-02 8.98130e-04 2.27950e-04 6.19910e-02 1.11040e-01 4.57400e-04 2.56780e-02 8.68220e-04 2.23410e-04 5.91980e-02 1.04820e-01 4.29210e-04 2.45360e-02 8.38760e-04 2.18830e-04 5.64550e-02 9.87990e-02 4.01950e-04 2.33970e-02 8.09760e-04 2.14190e-04 5.37640e-02 8.95220e-02 2.35830e-04 2.24160e-02 7.59450e-04 2.03430e-04 5.06820e-02 8.73530e-02 3.50130e-04 2.11310e-02 7.53090e-04 2.04790e-04 4.85480e-02 8.19220e-02 3.25540e-04 2.00110e-02 7.25410e-04 2.00020e-04 4.60260e-02 7.66800e-02 3.01830e-04 1.89010e-02 6.98160e-04 1.95200e-04 4.35640e-02 7.16260e-02 2.78980e-04 1.78040e-02 6.71340e-04 1.90340e-04 4.11640e-02 6.67580e-02 2.56960e-04 1.67220e-02 6.44930e-04 1.85430e-04 3.88270e-02 6.20720e-02 2.35780e-04 1.56570e-02 6.18940e-04 1.80470e-04 3.65540e-02 5.75680e-02 2.15420e-04 1.46100e-02 5.93340e-04 1.75460e-04 3.43460e-02 5.32420e-02 1.95880e-04 1.35840e-02 5.68140e-04 1.70400e-04 3.22050e-02 4.90930e-02 1.77130e-04 1.25780e-02 5.43330e-04 1.65280e-04 3.01320e-02 4.51190e-02 1.59170e-04 1.15960e-02 5.18890e-04 1.60100e-04 2.81270e-02 4.13180e-02 1.41990e-04 1.06390e-02 4.94830e-04 1.54850e-04 2.61910e-02 3.96730e-02 2.15290e-04 9.87210e-03 4.91420e-04 1.56810e-04 2.48570e-02 3.42300e-02 1.09930e-04 8.80030e-03 4.47770e-04 1.44140e-04 2.25300e-02 3.09400e-02 9.50300e-05 7.92200e-03 4.24760e-04 1.38670e-04 2.08050e-02 2.78180e-02 8.08730e-05 7.07220e-03 4.02080e-04 1.33110e-04 1.91530e-02 2.48620e-02 6.74460e-05 6.25170e-03 3.79710e-04 1.27470e-04 1.75730e-02 2.20720e-02 5.47380e-05 5.46130e-03 3.57630e-04 1.21710e-04 1.60650e-02 1.94460e-02 4.27370e-05 4.70160e-03 3.35820e-04 1.15840e-04 1.46300e-02 1.69840e-02 3.14250e-05 3.97320e-03 3.14230e-04 1.09840e-04 1.32680e-02 1.46840e-02 2.07820e-05 3.27670e-03 2.92800e-04 1.03670e-04 1.19790e-02 1.25460e-02 1.07890e-05 2.61250e-03 2.71470e-04 9.73220e-05 1.07640e-02 1.15410e-02 5.16540e-05 2.21970e-03 2.70020e-04 9.88960e-05 1.00440e-02 8.75260e-03 -7.38360e-06 1.38260e-03 2.28560e-04 8.38570e-05 8.55400e-03 7.09560e-03 -1.56440e-05 8.17250e-04 2.06650e-04 7.66080e-05 7.55880e-03 5.59760e-03 -2.34120e-05 2.85240e-04 1.84100e-04 6.88910e-05 6.63650e-03 4.25790e-03 -3.07360e-05 -2.13470e-04 1.60630e-04 6.05860e-05 5.78680e-03 2.54720e-03 -6.89190e-05 -8.97550e-04 1.14420e-04 4.23220e-05 4.68810e-03 2.05350e-03 -4.40040e-05 -1.11190e-03 1.09870e-04 4.16890e-05 4.30200e-03 1.19070e-03 -4.95700e-05 -1.51250e-03 8.24860e-05 3.09610e-05 3.66510e-03 4.91060e-04 -5.35140e-05 -1.88170e-03 5.46500e-05 1.96510e-05 3.09750e-03 -4.01020e-05 -5.36370e-05 -2.22040e-03 2.83790e-05 8.79680e-06 2.59880e-03 -3.97960e-04 -4.61020e-05 -2.52980e-03 8.21500e-06 1.12350e-06 2.17190e-03 -5.86170e-04 -2.02500e-05 -2.80940e-03 -3.14410e-07 1.80700e-06 1.82340e-03 -6.67210e-04 -1.90510e-05 -3.09340e-03 -4.08340e-06 9.04360e-06 1.60820e-03 -6.88660e-04 -2.85380e-05 -3.26100e-03 -7.44570e-06 1.39830e-05 1.56950e-03 1.01700e+00 4.45560e-01 4.27620e-01 -2.40530e-01 -1.28280e-02 1.00080e-01 1.04620e+00 1.32650e-01 1.19910e-01 -1.09900e-01 -9.30190e-03 6.64270e-02 9.12420e-01 -1.36160e-02 -4.25800e-02 -5.12550e-03 -3.28430e-03 2.64370e-02 9.13110e-01 1.69990e-02 -7.41410e-03 -1.45690e-02 1.06980e-03 3.56570e-02 8.88270e-01 2.10120e-03 -2.13800e-02 -1.30870e-03 1.64530e-03 4.95470e-02 8.75980e-01 -1.45370e-03 -1.63680e-02 1.24490e-03 2.20090e-03 8.16300e-02 8.67150e-01 3.50600e-03 -1.16680e-02 1.38790e-03 1.80140e-03 7.83040e-02 8.54670e-01 3.94680e-03 -7.00550e-03 1.22870e-03 1.69070e-03 9.03930e-02 8.38370e-01 3.08810e-03 -4.68590e-03 2.48350e-03 1.58010e-03 1.00700e-01 8.21900e-01 2.87930e-03 -1.31720e-03 2.39900e-03 1.48580e-03 1.09880e-01 8.03820e-01 2.64210e-03 1.55810e-03 2.76940e-03 1.42600e-03 1.17780e-01 7.85210e-01 2.40410e-03 4.54410e-03 2.67970e-03 1.36940e-03 1.24760e-01 7.65970e-01 2.33810e-03 7.46050e-03 2.75170e-03 1.33530e-03 1.30780e-01 7.57430e-01 2.18210e-03 6.84390e-03 2.66430e-03 1.29280e-03 1.26890e-01 7.26720e-01 2.13050e-03 1.30420e-02 2.64530e-03 1.28190e-03 1.40540e-01 7.06960e-01 1.99640e-03 1.56570e-02 2.57300e-03 1.26250e-03 1.44400e-01 6.87330e-01 1.97490e-03 1.82510e-02 2.52100e-03 1.24790e-03 1.47650e-01 6.67810e-01 1.87370e-03 2.06730e-02 2.45630e-03 1.23440e-03 1.50370e-01 6.48540e-01 1.84700e-03 2.30430e-02 2.39720e-03 1.22210e-03 1.52580e-01 6.18400e-01 1.50960e-03 2.84750e-02 2.30680e-03 1.21690e-03 1.60750e-01 6.10770e-01 1.73460e-03 2.73850e-02 2.27730e-03 1.19810e-03 1.55660e-01 5.92320e-01 1.66810e-03 2.93670e-02 2.21990e-03 1.18600e-03 1.56590e-01 5.74210e-01 1.63190e-03 3.12540e-02 2.16180e-03 1.17280e-03 1.57160e-01 5.56430e-01 1.57430e-03 3.29980e-02 2.10650e-03 1.15950e-03 1.57390e-01 5.39000e-01 1.53570e-03 3.46340e-02 2.05070e-03 1.14510e-03 1.57300e-01 5.11590e-01 1.17620e-03 3.90520e-02 1.96910e-03 1.13300e-03 1.61320e-01 5.05160e-01 1.44450e-03 3.75170e-02 1.94420e-03 1.11470e-03 1.56250e-01 4.88760e-01 1.39710e-03 3.87670e-02 1.89310e-03 1.09870e-03 1.55340e-01 4.72720e-01 1.35730e-03 3.98990e-02 1.84210e-03 1.08190e-03 1.54180e-01 4.57030e-01 1.31310e-03 4.09030e-02 1.79310e-03 1.06470e-03 1.52810e-01 4.41680e-01 1.27370e-03 4.17880e-02 1.74450e-03 1.04680e-03 1.51220e-01 4.26680e-01 1.23190e-03 4.25490e-02 1.69750e-03 1.02860e-03 1.49460e-01 4.12030e-01 1.19330e-03 4.31940e-02 1.65100e-03 1.00980e-03 1.47510e-01 4.06610e-01 1.43920e-03 4.13880e-02 1.63250e-03 9.93290e-04 1.42960e-01 3.83740e-01 1.11600e-03 4.41380e-02 1.56150e-03 9.71370e-04 1.43160e-01 3.70090e-01 1.07800e-03 4.44440e-02 1.51830e-03 9.51700e-04 1.40780e-01 3.56780e-01 1.04160e-03 4.46440e-02 1.47580e-03 9.31730e-04 1.38280e-01 3.43790e-01 1.00530e-03 4.47400e-02 1.43430e-03 9.11580e-04 1.35660e-01 3.31130e-01 9.70170e-04 4.47380e-02 1.39370e-03 8.91200e-04 1.32960e-01 3.18780e-01 9.35330e-04 4.46410e-02 1.35400e-03 8.70720e-04 1.30160e-01 3.14310e-01 1.15440e-03 4.27060e-02 1.34050e-03 8.55920e-04 1.26020e-01 2.95010e-01 8.68160e-04 4.41790e-02 1.27710e-03 8.29420e-04 1.24350e-01 2.83580e-01 8.35690e-04 4.38230e-02 1.23990e-03 8.08680e-04 1.21360e-01 2.72450e-01 8.03730e-04 4.33890e-02 1.20360e-03 7.87940e-04 1.18320e-01 2.61610e-01 7.72570e-04 4.28810e-02 1.16810e-03 7.67200e-04 1.15230e-01 2.51050e-01 7.41980e-04 4.23040e-02 1.13340e-03 7.46510e-04 1.12120e-01 2.40780e-01 7.12140e-04 4.16620e-02 1.09950e-03 7.25880e-04 1.08980e-01 2.37070e-01 8.99770e-04 3.97680e-02 1.09070e-03 7.13560e-04 1.05350e-01 2.21050e-01 6.54340e-04 4.02010e-02 1.03400e-03 6.84930e-04 1.02650e-01 2.11590e-01 6.26400e-04 3.93910e-02 1.00240e-03 6.64640e-04 9.94740e-02 2.02390e-01 5.99130e-04 3.85330e-02 9.71520e-04 6.44510e-04 9.63000e-02 1.93450e-01 5.72460e-04 3.76320e-02 9.41360e-04 6.24560e-04 9.31310e-02 1.79340e-01 3.53120e-04 3.75290e-02 8.88430e-04 5.95460e-04 9.00490e-02 1.76310e-01 5.21050e-04 3.57150e-02 8.83130e-04 5.85230e-04 8.68330e-02 1.68110e-01 4.96270e-04 3.47070e-02 8.55030e-04 5.65890e-04 8.37130e-02 1.60140e-01 4.72100e-04 3.36710e-02 8.27590e-04 5.46790e-04 8.06170e-02 1.52410e-01 4.48550e-04 3.26110e-02 8.00790e-04 5.27940e-04 7.75510e-02 1.44910e-01 4.25590e-04 3.15310e-02 7.74610e-04 5.09340e-04 7.45180e-02 1.37630e-01 4.03230e-04 3.04330e-02 7.49040e-04 4.91010e-04 7.15210e-02 1.30570e-01 3.81470e-04 2.93220e-02 7.24060e-04 4.72960e-04 6.85640e-02 1.27880e-01 5.17680e-04 2.78230e-02 7.21820e-04 4.65560e-04 6.59690e-02 1.17100e-01 3.39700e-04 2.70690e-02 6.75800e-04 4.37710e-04 6.27800e-02 1.10680e-01 3.19680e-04 2.59350e-02 6.52480e-04 4.20530e-04 5.99590e-02 1.04460e-01 3.00240e-04 2.47980e-02 6.29700e-04 4.03650e-04 5.71890e-02 9.84520e-02 2.81370e-04 2.36620e-02 6.07420e-04 3.87080e-04 5.44710e-02 8.91910e-02 1.27040e-04 2.26860e-02 5.64160e-04 3.60170e-04 5.13530e-02 8.70260e-02 2.45320e-04 2.14030e-02 5.64310e-04 3.54880e-04 4.92040e-02 8.16050e-02 2.28130e-04 2.02850e-02 5.43450e-04 3.39250e-04 4.66580e-02 7.63750e-02 2.11500e-04 1.91760e-02 5.23030e-04 3.23930e-04 4.41720e-02 7.13330e-02 1.95410e-04 1.80810e-02 5.03030e-04 3.08940e-04 4.17490e-02 6.64770e-02 1.79880e-04 1.69990e-02 4.83450e-04 2.94260e-04 3.93880e-02 6.18040e-02 1.64880e-04 1.59340e-02 4.64250e-04 2.79900e-04 3.70930e-02 5.73130e-02 1.50430e-04 1.48860e-02 4.45430e-04 2.65850e-04 3.48640e-02 5.30000e-02 1.36510e-04 1.38590e-02 4.26970e-04 2.52120e-04 3.27010e-02 4.88650e-02 1.23130e-04 1.28520e-02 4.08860e-04 2.38710e-04 3.06070e-02 4.49050e-02 1.10270e-04 1.18670e-02 3.91070e-04 2.25600e-04 2.85820e-02 4.11190e-02 9.79410e-05 1.09070e-02 3.73600e-04 2.12810e-04 2.66260e-02 3.94800e-02 1.73520e-04 1.01390e-02 3.76630e-04 2.10860e-04 2.52810e-02 3.40600e-02 7.48550e-05 9.06150e-03 3.39520e-04 1.88120e-04 2.29260e-02 3.07850e-02 6.40860e-05 8.17890e-03 3.22880e-04 1.76230e-04 2.11840e-02 2.76780e-02 5.38320e-05 7.32430e-03 3.06490e-04 1.64620e-04 1.95130e-02 2.47370e-02 4.40880e-05 6.49850e-03 2.90330e-04 1.53300e-04 1.79150e-02 2.19620e-02 3.48490e-05 5.70230e-03 2.74380e-04 1.42260e-04 1.63900e-02 1.93520e-02 2.61110e-05 4.93640e-03 2.58600e-04 1.31490e-04 1.49380e-02 1.69050e-02 1.78650e-05 4.20130e-03 2.42980e-04 1.20970e-04 1.35590e-02 1.46210e-02 1.01030e-05 3.49760e-03 2.27470e-04 1.10690e-04 1.22540e-02 1.24990e-02 2.82110e-06 2.82570e-03 2.12010e-04 1.00620e-04 1.10230e-02 1.15010e-02 4.49110e-05 2.42880e-03 2.16580e-04 1.00910e-04 1.02940e-02 8.73640e-03 -1.03500e-05 1.57870e-03 1.80940e-04 8.10160e-05 8.78170e-03 7.09470e-03 -1.62660e-05 1.00400e-03 1.65100e-04 7.13780e-05 7.77110e-03 5.61130e-03 -2.17270e-05 4.62090e-04 1.48850e-04 6.17670e-05 6.83340e-03 4.28530e-03 -2.67570e-05 -4.73210e-05 1.31960e-04 5.20840e-05 5.96800e-03 2.59190e-03 -6.13360e-05 -7.48560e-04 9.29870e-05 3.18500e-05 4.84550e-03 2.10220e-03 -3.52110e-05 -9.69900e-04 9.53590e-05 3.20870e-05 4.44930e-03 1.24490e-03 -3.81530e-05 -1.38440e-03 7.53780e-05 2.16240e-05 3.79250e-03 5.44810e-04 -3.99130e-05 -1.77000e-03 5.42380e-05 1.08580e-05 3.20140e-03 6.12200e-06 -3.82320e-05 -2.12690e-03 3.36280e-05 7.50020e-07 2.67430e-03 -3.68940e-04 -3.26740e-05 -2.45920e-03 1.53500e-05 -6.93590e-06 2.21390e-03 -5.73480e-04 -1.23190e-05 -2.75970e-03 1.00960e-05 -4.49030e-06 1.83230e-03 -6.60090e-04 -1.10480e-05 -3.05400e-03 8.75160e-06 9.36060e-06 1.59320e-03 -6.78100e-04 -2.13910e-05 -3.22590e-03 4.38390e-06 2.01820e-05 1.54750e-03 6.98380e-01 3.26930e-01 3.22880e-01 1.90830e-01 -1.55960e-03 4.92110e-03 7.12630e-01 1.11470e-01 1.22400e-01 7.85140e-02 -5.38260e-03 2.27480e-02 6.54820e-01 -5.36920e-03 -3.05250e-02 -1.11700e-02 -3.24560e-03 3.39860e-02 6.60660e-01 5.17350e-03 -2.03470e-02 1.39980e-03 -4.28830e-03 3.65340e-02 6.44550e-01 -9.15650e-04 -2.78200e-02 -2.50810e-03 -5.17320e-03 4.92700e-02 6.28370e-01 -5.35210e-03 -2.39070e-02 -1.79370e-03 -4.99220e-03 7.47030e-02 6.22630e-01 -1.57870e-04 -1.86020e-02 -1.84690e-03 -4.80770e-03 7.31020e-02 6.11890e-01 3.28080e-04 -1.37300e-02 -1.47660e-03 -4.39850e-03 8.32350e-02 5.99330e-01 -3.06310e-04 -1.08550e-02 -1.96300e-03 -4.14530e-03 9.19550e-02 5.87160e-01 -1.15300e-04 -6.97800e-03 -1.77900e-03 -3.84520e-03 9.94840e-02 5.73810e-01 -4.37780e-04 -3.96970e-03 -1.86670e-03 -3.64760e-03 1.05880e-01 5.34150e-01 -4.27450e-03 -5.22120e-03 -1.64240e-03 -3.40180e-03 1.06950e-01 4.67300e-01 -1.37700e-02 -1.28930e-02 -1.58450e-03 -3.15190e-03 1.02850e-01 5.32510e-01 -3.90510e-04 5.40990e-03 -1.56710e-03 -3.16060e-03 1.19920e-01 5.18260e-01 -4.74300e-04 8.15680e-03 -1.50730e-03 -3.05310e-03 1.23190e-01 5.04150e-01 -4.09740e-04 1.09120e-02 -1.41950e-03 -2.94980e-03 1.25910e-01 4.90000e-01 -4.50920e-04 1.34370e-02 -1.36070e-03 -2.86450e-03 1.28130e-01 4.67390e-01 -8.49390e-04 1.88670e-02 -1.29470e-03 -2.76990e-03 1.36600e-01 4.62170e-01 -4.22900e-04 1.82020e-02 -1.23830e-03 -2.70890e-03 1.31290e-01 4.48530e-01 -3.89060e-04 2.04130e-02 -1.18060e-03 -2.63730e-03 1.32310e-01 4.35060e-01 -3.94900e-04 2.24670e-02 -1.13230e-03 -2.57070e-03 1.33010e-01 4.21840e-01 -3.69410e-04 2.44260e-02 -1.08210e-03 -2.50470e-03 1.33420e-01 4.08820e-01 -3.68290e-04 2.62450e-02 -1.03780e-03 -2.44150e-03 1.33540e-01 3.96050e-01 -3.48310e-04 2.79610e-02 -9.93010e-04 -2.37850e-03 1.33420e-01 3.83500e-01 -3.43340e-04 2.95460e-02 -9.52420e-04 -2.31720e-03 1.33060e-01 3.63170e-01 -5.96070e-04 3.39140e-02 -9.01700e-04 -2.24400e-03 1.36760e-01 3.59160e-01 -3.20050e-04 3.23800e-02 -8.74790e-04 -2.19620e-03 1.31700e-01 3.47370e-01 -3.06270e-04 3.36250e-02 -8.38170e-04 -2.13660e-03 1.30730e-01 3.35810e-01 -2.98320e-04 3.47530e-02 -8.04100e-04 -2.07790e-03 1.29590e-01 3.24510e-01 -2.86350e-04 3.57710e-02 -7.70860e-04 -2.01960e-03 1.28280e-01 3.13460e-01 -2.78060e-04 3.66760e-02 -7.39710e-04 -1.96220e-03 1.26830e-01 3.02650e-01 -2.67420e-04 3.74750e-02 -7.09490e-04 -1.90530e-03 1.25240e-01 2.92090e-01 -2.59140e-04 3.81650e-02 -6.81020e-04 -1.84920e-03 1.23520e-01 2.69140e-01 -2.08150e-03 3.61420e-02 -6.26760e-04 -1.75410e-03 1.18160e-01 2.33710e-01 -5.78250e-03 3.14380e-02 -5.44770e-04 -1.62170e-03 1.09370e-01 2.61880e-01 -2.32670e-04 3.96240e-02 -6.02470e-04 -1.68520e-03 1.17710e-01 2.52280e-01 -2.24920e-04 3.99150e-02 -5.78710e-04 -1.63210e-03 1.15590e-01 2.42930e-01 -2.16820e-04 4.01150e-02 -5.55900e-04 -1.57970e-03 1.13400e-01 2.33800e-01 -2.09430e-04 4.02250e-02 -5.34220e-04 -1.52820e-03 1.11130e-01 2.31050e-01 -1.57660e-05 3.83150e-02 -5.25630e-04 -1.49190e-03 1.07180e-01 2.16230e-01 -1.94890e-04 4.01920e-02 -4.93660e-04 -1.42750e-03 1.06420e-01 2.07780e-01 -1.87870e-04 4.00570e-02 -4.74740e-04 -1.37850e-03 1.03990e-01 1.99550e-01 -1.81250e-04 3.98470e-02 -4.56730e-04 -1.33030e-03 1.01520e-01 1.91540e-01 -1.74680e-04 3.95660e-02 -4.39500e-04 -1.28300e-03 9.90170e-02 1.83730e-01 -1.68430e-04 3.92180e-02 -4.23100e-04 -1.23660e-03 9.64880e-02 1.76140e-01 -1.62280e-04 3.88070e-02 -4.07440e-04 -1.19110e-03 9.39380e-02 1.73870e-01 1.94920e-06 3.69410e-02 -4.04710e-04 -1.16110e-03 9.05500e-02 1.61560e-01 -1.50600e-04 3.78080e-02 -3.78280e-04 -1.10270e-03 8.87950e-02 1.54570e-01 -1.45050e-04 3.72290e-02 -3.64710e-04 -1.05990e-03 8.62130e-02 1.47770e-01 -1.39620e-04 3.66000e-02 -3.51770e-04 -1.01790e-03 8.36290e-02 1.41160e-01 -1.34390e-04 3.59270e-02 -3.39440e-04 -9.76910e-04 8.10490e-02 1.34740e-01 -1.29300e-04 3.52110e-02 -3.27670e-04 -9.36790e-04 7.84750e-02 1.24210e-01 -2.61420e-04 3.54290e-02 -3.04370e-04 -8.83270e-04 7.62590e-02 1.22440e-01 -1.19590e-04 3.36690e-02 -3.05760e-04 -8.59270e-04 7.33650e-02 1.16560e-01 -1.14950e-04 3.28480e-02 -2.95550e-04 -8.21870e-04 7.08350e-02 1.10860e-01 -1.10450e-04 3.19990e-02 -2.85810e-04 -7.85370e-04 6.83260e-02 1.05320e-01 -1.06100e-04 3.11250e-02 -2.76510e-04 -7.49770e-04 6.58410e-02 9.99530e-02 -1.01880e-04 3.02280e-02 -2.67630e-04 -7.15060e-04 6.33830e-02 9.82620e-02 1.92780e-05 2.87040e-02 -2.71150e-04 -6.94950e-04 6.09370e-02 8.97080e-02 -9.38170e-05 2.83780e-02 -2.51020e-04 -6.48300e-04 5.85560e-02 8.48270e-02 -8.99790e-05 2.74310e-02 -2.43240e-04 -6.16240e-04 5.61920e-02 8.01010e-02 -8.62600e-05 2.64720e-02 -2.35790e-04 -5.85060e-04 5.38640e-02 7.25010e-02 -1.87060e-04 2.59050e-02 -2.16650e-04 -5.41540e-04 5.14350e-02 7.11100e-02 -7.91780e-05 2.45290e-02 -2.21780e-04 -5.25280e-04 4.93240e-02 6.68390e-02 -7.58100e-05 2.35500e-02 -2.15180e-04 -4.96670e-04 4.71150e-02 6.27160e-02 -7.25560e-05 2.25690e-02 -2.08820e-04 -4.68900e-04 4.49480e-02 5.87370e-02 -6.94100e-05 2.15880e-02 -2.02690e-04 -4.41970e-04 4.28260e-02 5.49010e-02 -6.63710e-05 2.06090e-02 -1.96770e-04 -4.15860e-04 4.07490e-02 5.12060e-02 -6.34400e-05 1.96340e-02 -1.91030e-04 -3.90570e-04 3.87180e-02 4.76500e-02 -6.06120e-05 1.86640e-02 -1.85470e-04 -3.66100e-04 3.67350e-02 4.42310e-02 -5.78880e-05 1.77010e-02 -1.80060e-04 -3.42420e-04 3.48010e-02 4.09480e-02 -5.52630e-05 1.67480e-02 -1.74790e-04 -3.19540e-04 3.29160e-02 3.77990e-02 -5.27380e-05 1.58050e-02 -1.69640e-04 -2.97440e-04 3.10820e-02 3.47820e-02 -5.03120e-05 1.48730e-02 -1.64600e-04 -2.76110e-04 2.92990e-02 3.18960e-02 -4.79820e-05 1.39550e-02 -1.59650e-04 -2.55550e-04 2.75670e-02 2.91400e-02 -4.57490e-05 1.30510e-02 -1.54770e-04 -2.35750e-04 2.58880e-02 2.65130e-02 -4.36110e-05 1.21620e-02 -1.49960e-04 -2.16690e-04 2.42620e-02 2.54950e-02 1.90400e-05 1.13970e-02 -1.57430e-04 -2.09080e-04 2.30840e-02 2.16400e-02 -3.96140e-05 1.04360e-02 -1.40470e-04 -1.80770e-04 2.11690e-02 1.93920e-02 -3.77570e-05 9.60020e-03 -1.35770e-04 -1.63890e-04 1.97040e-02 1.72690e-02 -3.59930e-05 8.78370e-03 -1.31060e-04 -1.47720e-04 1.82930e-02 1.52690e-02 -3.43230e-05 7.98720e-03 -1.26350e-04 -1.32240e-04 1.69370e-02 1.33920e-02 -3.27480e-05 7.21150e-03 -1.21600e-04 -1.17450e-04 1.56360e-02 1.16380e-02 -3.12680e-05 6.45730e-03 -1.16810e-04 -1.03340e-04 1.43900e-02 1.00060e-02 -2.98880e-05 5.72500e-03 -1.11930e-04 -8.98790e-05 1.31990e-02 8.49390e-03 -2.86080e-05 5.01520e-03 -1.06950e-04 -7.70650e-05 1.20630e-02 7.10270e-03 -2.74330e-05 4.32830e-03 -1.01820e-04 -6.48770e-05 1.09830e-02 5.83120e-03 -2.63690e-05 3.66470e-03 -9.64650e-05 -5.32890e-05 9.95750e-03 5.27440e-03 5.69960e-06 3.25810e-03 -1.04000e-04 -5.10840e-05 9.34010e-03 3.64430e-03 -2.45710e-05 2.40880e-03 -8.47800e-05 -3.17970e-05 8.07180e-03 2.72710e-03 -2.38180e-05 1.81690e-03 -7.82250e-05 -2.18170e-05 7.21040e-03 1.92540e-03 -2.31730e-05 1.24920e-03 -7.09420e-05 -1.22480e-05 6.40210e-03 1.23760e-03 -2.24700e-05 7.05720e-04 -6.28520e-05 -3.07230e-06 5.64540e-03 6.60530e-04 -2.17710e-05 1.85960e-04 -5.36310e-05 5.85750e-06 4.93780e-03 -1.60280e-05 -3.47140e-05 -5.37390e-04 -2.95770e-05 2.20410e-05 3.99600e-03 -1.76540e-04 -1.85470e-05 -7.84910e-04 -3.25140e-05 2.24830e-05 3.65580e-03 -4.47040e-04 -1.32690e-05 -1.23820e-03 -2.31310e-05 2.86210e-05 3.07260e-03 -6.31140e-04 -7.49040e-06 -1.67960e-03 -1.71640e-05 3.11920e-05 2.52800e-03 -7.19780e-04 1.20300e-05 -2.10570e-03 -3.05530e-05 2.14990e-05 2.03720e-03 -7.40060e-04 -2.12380e-05 -2.60880e-03 -4.24470e-05 1.06620e-05 1.67630e-03 -7.15750e-04 -6.57280e-05 -2.94320e-03 -3.93910e-05 1.24250e-05 1.57900e-03 6.48810e-01 3.59930e-01 3.56270e-01 1.29750e-01 9.55780e-04 2.78530e-02 7.11000e-01 1.70770e-01 1.70590e-01 7.47020e-02 -7.92390e-04 4.70070e-02 7.02010e-01 9.62830e-03 -1.27780e-02 7.11750e-03 -1.87520e-03 5.50390e-02 6.73810e-01 2.30210e-03 -2.27990e-02 -9.91740e-04 -3.33010e-03 5.02020e-02 6.56620e-01 2.61900e-03 -2.12970e-02 -1.03800e-03 -4.50130e-03 5.89480e-02 6.33440e-01 9.32270e-04 -1.67260e-02 -1.60620e-03 -4.24720e-03 7.86820e-02 6.27340e-01 1.28030e-03 -1.51490e-02 -2.04680e-03 -4.08170e-03 7.65430e-02 6.14100e-01 6.56110e-04 -1.21520e-02 -2.36460e-03 -3.56830e-03 8.47950e-02 6.00810e-01 4.86230e-04 -8.75450e-03 -2.35540e-03 -3.13790e-03 9.21560e-02 5.87510e-01 3.35980e-04 -5.65560e-03 -2.32420e-03 -2.73360e-03 9.87420e-02 5.73760e-01 1.29680e-04 -2.62410e-03 -2.18400e-03 -2.41870e-03 1.04480e-01 5.33320e-01 -4.34250e-03 -4.79570e-03 -1.97040e-03 -2.33320e-03 1.05150e-01 4.65680e-01 -1.44880e-02 -1.33060e-02 -1.64250e-03 -2.45450e-03 1.00740e-01 5.31740e-01 5.01640e-05 6.06200e-03 -1.78720e-03 -1.77850e-03 1.17560e-01 5.17510e-01 -3.90390e-05 8.70840e-03 -1.67760e-03 -1.64860e-03 1.20700e-01 5.03420e-01 7.99900e-06 1.13320e-02 -1.58880e-03 -1.54190e-03 1.23360e-01 4.89340e-01 -4.51980e-05 1.37750e-02 -1.51180e-03 -1.45760e-03 1.25550e-01 4.66840e-01 -4.40580e-04 1.90990e-02 -1.43420e-03 -1.37410e-03 1.34020e-01 4.61670e-01 -4.12270e-05 1.83890e-02 -1.39170e-03 -1.32760e-03 1.28720e-01 4.48130e-01 -1.71050e-05 2.05370e-02 -1.34280e-03 -1.27580e-03 1.29770e-01 4.34750e-01 -3.48820e-05 2.25400e-02 -1.29860e-03 -1.23020e-03 1.30500e-01 4.21610e-01 -1.87710e-05 2.44510e-02 -1.25840e-03 -1.18820e-03 1.30940e-01 4.08680e-01 -2.87140e-05 2.62270e-02 -1.22100e-03 -1.14950e-03 1.31110e-01 3.95990e-01 -1.80790e-05 2.79030e-02 -1.18590e-03 -1.11260e-03 1.31030e-01 3.83530e-01 -2.34980e-05 2.94520e-02 -1.15280e-03 -1.07750e-03 1.30710e-01 3.63310e-01 -2.83250e-04 3.37730e-02 -1.10970e-03 -1.03820e-03 1.34480e-01 3.59340e-01 -1.93960e-05 3.22190e-02 -1.09110e-03 -1.01060e-03 1.29450e-01 3.47620e-01 -1.48510e-05 3.34340e-02 -1.06210e-03 -9.78540e-04 1.28530e-01 3.36130e-01 -1.63480e-05 3.45330e-02 -1.03420e-03 -9.47250e-04 1.27430e-01 3.24890e-01 -1.34270e-05 3.55250e-02 -1.00730e-03 -9.16630e-04 1.26180e-01 3.13890e-01 -1.42110e-05 3.64050e-02 -9.81270e-04 -8.86700e-04 1.24770e-01 3.03140e-01 -1.23770e-05 3.71800e-02 -9.55990e-04 -8.57400e-04 1.23230e-01 2.92630e-01 -1.28190e-05 3.78480e-02 -9.31490e-04 -8.28740e-04 1.21560e-01 2.69570e-01 -2.05070e-03 3.55780e-02 -8.36110e-04 -8.59420e-04 1.16240e-01 2.33900e-01 -6.17300e-03 3.04050e-02 -6.66950e-04 -9.47050e-04 1.07470e-01 2.62530e-01 -1.14130e-05 3.92500e-02 -8.61720e-04 -7.46440e-04 1.15900e-01 2.52970e-01 -1.16740e-05 3.95240e-02 -8.39620e-04 -7.20230e-04 1.13820e-01 2.43640e-01 -1.14090e-05 3.97080e-02 -8.17990e-04 -6.94600e-04 1.11670e-01 2.34540e-01 -1.16800e-05 3.98040e-02 -7.96870e-04 -6.69580e-04 1.09450e-01 2.31810e-01 1.75950e-04 3.78860e-02 -7.88670e-04 -6.51640e-04 1.05530e-01 2.17010e-01 -1.19520e-05 3.97470e-02 -7.55960e-04 -6.21300e-04 1.04820e-01 2.08580e-01 -1.20830e-05 3.96000e-02 -7.36140e-04 -5.98050e-04 1.02440e-01 2.00370e-01 -1.24230e-05 3.93800e-02 -7.16740e-04 -5.75370e-04 1.00010e-01 1.92360e-01 -1.26670e-05 3.90910e-02 -6.97720e-04 -5.53270e-04 9.75490e-02 1.84570e-01 -1.30430e-05 3.87350e-02 -6.79100e-04 -5.31740e-04 9.50610e-02 1.76980e-01 -1.33650e-05 3.83160e-02 -6.60830e-04 -5.10780e-04 9.25500e-02 1.74720e-01 1.46620e-04 3.64470e-02 -6.55690e-04 -4.97230e-04 8.91860e-02 1.62400e-01 -1.41450e-05 3.73060e-02 -6.25380e-04 -4.70540e-04 8.74850e-02 1.55410e-01 -1.45700e-05 3.67210e-02 -6.08170e-04 -4.51240e-04 8.49400e-02 1.48610e-01 -1.49780e-05 3.60890e-02 -5.91290e-04 -4.32490e-04 8.23930e-02 1.42000e-01 -1.54150e-05 3.54120e-02 -5.74740e-04 -4.14280e-04 7.98480e-02 1.35570e-01 -1.58410e-05 3.46940e-02 -5.58500e-04 -3.96590e-04 7.73100e-02 1.25030e-01 -1.55530e-04 3.49100e-02 -5.29720e-04 -3.72440e-04 7.51420e-02 1.23260e-01 -1.67150e-05 3.31480e-02 -5.26930e-04 -3.62770e-04 7.22670e-02 1.17370e-01 -1.71530e-05 3.23270e-02 -5.11590e-04 -3.46610e-04 6.97700e-02 1.11660e-01 -1.75820e-05 3.14780e-02 -4.96530e-04 -3.30950e-04 6.72930e-02 1.06110e-01 -1.80090e-05 3.06040e-02 -4.81760e-04 -3.15780e-04 6.48400e-02 1.00730e-01 -1.84260e-05 2.97080e-02 -4.67250e-04 -3.01080e-04 6.24120e-02 9.90300e-02 1.00420e-04 2.81850e-02 -4.65830e-04 -2.93820e-04 5.99840e-02 9.04530e-02 -1.92370e-05 2.78620e-02 -4.39030e-04 -2.73060e-04 5.76450e-02 8.55550e-02 -1.96280e-05 2.69170e-02 -4.25300e-04 -2.59720e-04 5.53100e-02 8.08120e-02 -2.00060e-05 2.59610e-02 -4.11820e-04 -2.46820e-04 5.30100e-02 7.31850e-02 -1.26900e-04 2.54000e-02 -3.85800e-04 -2.27420e-04 5.06190e-02 7.17840e-02 -2.07270e-05 2.40260e-02 -3.85570e-04 -2.22270e-04 4.85240e-02 6.74940e-02 -2.10680e-05 2.30520e-02 -3.72790e-04 -2.10600e-04 4.63410e-02 6.33510e-02 -2.13970e-05 2.20760e-02 -3.60230e-04 -1.99320e-04 4.42000e-02 5.93510e-02 -2.17100e-05 2.11000e-02 -3.47890e-04 -1.88420e-04 4.21030e-02 5.54940e-02 -2.20100e-05 2.01270e-02 -3.35760e-04 -1.77890e-04 4.00510e-02 5.17780e-02 -2.22960e-05 1.91580e-02 -3.23840e-04 -1.67720e-04 3.80450e-02 4.82000e-02 -2.25680e-05 1.81950e-02 -3.12120e-04 -1.57890e-04 3.60860e-02 4.47590e-02 -2.28260e-05 1.72390e-02 -3.00600e-04 -1.48390e-04 3.41750e-02 4.14530e-02 -2.30690e-05 1.62930e-02 -2.89270e-04 -1.39220e-04 3.23130e-02 3.82800e-02 -2.32990e-05 1.53580e-02 -2.78120e-04 -1.30360e-04 3.05010e-02 3.52410e-02 -2.35150e-05 1.44350e-02 -2.67160e-04 -1.21800e-04 2.87400e-02 3.23320e-02 -2.37170e-05 1.35260e-02 -2.56360e-04 -1.13530e-04 2.70300e-02 2.95520e-02 -2.39060e-05 1.26310e-02 -2.45740e-04 -1.05540e-04 2.53730e-02 2.69010e-02 -2.40830e-05 1.17520e-02 -2.35280e-04 -9.78160e-05 2.37670e-02 2.58700e-02 3.78790e-05 1.09920e-02 -2.37520e-04 -9.68490e-05 2.26020e-02 2.19810e-02 -2.44010e-05 1.00460e-02 -2.14820e-04 -8.31240e-05 2.07160e-02 1.97090e-02 -2.45460e-05 9.22120e-03 -2.04810e-04 -7.61330e-05 1.92710e-02 1.75620e-02 -2.46820e-05 8.41590e-03 -1.94930e-04 -6.93640e-05 1.78800e-02 1.55390e-02 -2.48120e-05 7.63110e-03 -1.85180e-04 -6.28030e-05 1.65440e-02 1.36390e-02 -2.49430e-05 6.86750e-03 -1.75530e-04 -5.64380e-05 1.52620e-02 1.18610e-02 -2.50730e-05 6.12580e-03 -1.65970e-04 -5.02520e-05 1.40350e-02 1.02050e-02 -2.52170e-05 5.40640e-03 -1.56470e-04 -4.42290e-05 1.28630e-02 8.66970e-03 -2.53750e-05 4.71000e-03 -1.46970e-04 -3.83470e-05 1.17460e-02 7.25510e-03 -2.55690e-05 4.03690e-03 -1.37410e-04 -3.25840e-05 1.06840e-02 5.96040e-03 -2.58050e-05 3.38760e-03 -1.27710e-04 -2.69060e-05 9.67720e-03 5.39070e-03 5.92910e-06 2.98940e-03 -1.30790e-04 -2.76470e-05 9.07040e-03 3.72830e-03 -2.65060e-05 2.16170e-03 -1.07360e-04 -1.56530e-05 7.82800e-03 2.78920e-03 -2.70240e-05 1.58560e-03 -9.63670e-05 -9.97120e-06 6.98500e-03 1.96700e-03 -2.76450e-05 1.03430e-03 -8.45320e-05 -4.15820e-06 6.19540e-03 1.26020e-03 -2.83930e-05 5.07680e-04 -7.16490e-05 1.85920e-06 5.45810e-03 6.67470e-04 -2.91070e-05 5.68760e-06 -5.76020e-05 8.14880e-06 4.77120e-03 -2.38340e-05 -4.53410e-05 -6.91690e-04 -2.83240e-05 2.11020e-05 3.86320e-03 -1.84580e-04 -2.89410e-05 -9.27240e-04 -2.73630e-05 2.10690e-05 3.53890e-03 -4.50040e-04 -2.53730e-05 -1.36100e-03 -1.42580e-05 2.62360e-05 2.98750e-03 -6.16350e-04 -1.79450e-05 -1.77970e-03 -8.44640e-06 2.74490e-05 2.47980e-03 -6.94240e-04 1.82650e-06 -2.19070e-03 -1.64250e-05 2.11810e-05 2.02440e-03 -7.27240e-04 -5.29980e-05 -2.69310e-03 -2.15890e-05 1.86670e-05 1.69350e-03 -7.19020e-04 -1.12260e-04 -3.02510e-03 -1.81040e-05 2.55990e-05 1.60610e-03 6.48550e-01 4.10080e-01 3.97540e-01 7.41870e-02 1.35300e-03 4.80260e-02 7.15830e-01 2.50690e-01 2.22760e-01 5.68850e-02 4.46450e-04 6.82980e-02 7.38840e-01 5.08350e-02 1.56220e-02 2.22300e-02 -1.60350e-03 7.55010e-02 6.99970e-01 7.89570e-03 -2.36760e-02 3.77440e-03 -3.78590e-03 6.45460e-02 6.74350e-01 8.41520e-03 -1.81500e-02 2.98040e-04 -4.92750e-03 6.99080e-02 6.05670e-01 -6.23990e-03 -2.41590e-02 -3.47710e-03 -5.18770e-03 8.50900e-02 6.18200e-01 -1.71540e-04 -1.62270e-02 -2.38270e-03 -4.73870e-03 8.34460e-02 6.19560e-01 2.68490e-03 -1.08310e-02 -2.56040e-03 -4.23010e-03 8.81630e-02 6.04170e-01 1.85960e-03 -8.05750e-03 -2.67230e-03 -3.65310e-03 9.38000e-02 5.89480e-01 1.61090e-03 -5.16430e-03 -2.57590e-03 -3.13370e-03 9.91290e-02 5.74650e-01 1.06540e-03 -2.57420e-03 -2.42000e-03 -2.69140e-03 1.03930e-01 5.33010e-01 -3.82770e-03 -5.02580e-03 -2.09830e-03 -2.55540e-03 1.03940e-01 4.63690e-01 -1.52990e-02 -1.44170e-02 -1.74020e-03 -2.69890e-03 9.89340e-02 5.31240e-01 8.06380e-04 5.57310e-03 -1.89220e-03 -1.79980e-03 1.15550e-01 5.16870e-01 6.46040e-04 8.07350e-03 -1.75900e-03 -1.61790e-03 1.18490e-01 5.02740e-01 6.91280e-04 1.06240e-02 -1.65370e-03 -1.47230e-03 1.21010e-01 4.88670e-01 6.00510e-04 1.29870e-02 -1.56630e-03 -1.35910e-03 1.23120e-01 4.66960e-01 -1.69820e-04 1.87930e-02 -1.59780e-03 -2.33490e-05 1.32220e-01 4.58540e-01 4.15700e-04 1.87810e-02 -1.47640e-03 -7.83680e-04 1.28600e-01 4.47680e-01 5.92700e-04 1.96410e-02 -1.39570e-03 -1.13040e-03 1.27320e-01 4.34400e-01 5.56880e-04 2.16210e-02 -1.35510e-03 -1.07770e-03 1.28080e-01 4.21360e-01 5.63700e-04 2.35200e-02 -1.32120e-03 -1.03090e-03 1.28560e-01 4.08530e-01 5.38390e-04 2.52860e-02 -1.28980e-03 -9.89430e-04 1.28770e-01 3.95950e-01 5.38490e-04 2.69560e-02 -1.26220e-03 -9.51010e-04 1.28730e-01 3.83580e-01 5.18990e-04 2.85010e-02 -1.23590e-03 -9.15560e-04 1.28460e-01 3.63480e-01 2.47080e-04 3.28140e-02 -1.20330e-03 -8.75860e-04 1.32300e-01 3.59570e-01 4.98260e-04 3.12640e-02 -1.18880e-03 -8.50080e-04 1.27300e-01 3.47920e-01 4.90890e-04 3.24800e-02 -1.16710e-03 -8.19490e-04 1.26430e-01 3.36510e-01 4.76200e-04 3.35800e-02 -1.14610e-03 -7.90210e-04 1.25380e-01 3.25340e-01 4.66840e-04 3.45740e-02 -1.12600e-03 -7.61920e-04 1.24180e-01 3.14410e-01 4.53010e-04 3.54570e-02 -1.10630e-03 -7.34690e-04 1.22820e-01 3.03720e-01 4.42340e-04 3.62360e-02 -1.08720e-03 -7.08330e-04 1.21330e-01 2.93260e-01 4.28960e-04 3.69080e-02 -1.06850e-03 -6.82880e-04 1.19710e-01 2.70100e-01 -1.79780e-03 3.45550e-02 -9.53030e-04 -7.24210e-04 1.14320e-01 2.34150e-01 -6.28540e-03 2.92050e-02 -7.38880e-04 -8.29210e-04 1.05390e-01 2.63310e-01 3.92410e-04 3.83270e-02 -1.01420e-03 -6.11380e-04 1.14180e-01 2.53790e-01 3.79490e-04 3.86070e-02 -9.96520e-04 -5.89080e-04 1.12160e-01 2.44490e-01 3.67300e-04 3.87980e-02 -9.79010e-04 -5.67500e-04 1.10050e-01 2.35420e-01 3.54560e-04 3.89010e-02 -9.61590e-04 -5.46630e-04 1.07870e-01 2.32700e-01 5.32300e-04 3.69890e-02 -9.54360e-04 -5.31630e-04 1.03980e-01 2.17940e-01 3.29750e-04 3.88590e-02 -9.27090e-04 -5.06890e-04 1.03330e-01 2.09530e-01 3.17540e-04 3.87210e-02 -9.09970e-04 -4.87990e-04 1.00990e-01 2.01330e-01 3.05210e-04 3.85100e-02 -8.92900e-04 -4.69710e-04 9.85990e-02 1.93340e-01 2.93140e-04 3.82290e-02 -8.75900e-04 -4.52040e-04 9.61770e-02 1.85550e-01 2.81060e-04 3.78820e-02 -8.58960e-04 -4.34950e-04 9.37270e-02 1.77970e-01 2.69200e-04 3.74720e-02 -8.42070e-04 -4.18420e-04 9.12540e-02 1.75710e-01 4.21050e-04 3.56090e-02 -8.36030e-04 -4.07610e-04 8.79100e-02 1.63400e-01 2.45780e-04 3.64810e-02 -8.08440e-04 -3.87010e-04 8.62600e-02 1.56410e-01 2.34270e-04 3.59060e-02 -7.91690e-04 -3.72090e-04 8.37500e-02 1.49600e-01 2.22950e-04 3.52840e-02 -7.75000e-04 -3.57670e-04 8.12360e-02 1.42990e-01 2.11770e-04 3.46170e-02 -7.58360e-04 -3.43730e-04 7.87250e-02 1.36550e-01 2.00780e-04 3.39090e-02 -7.41770e-04 -3.30270e-04 7.62180e-02 1.26000e-01 4.70250e-05 3.41380e-02 -7.14000e-04 -3.12120e-04 7.40940e-02 1.24220e-01 1.79320e-04 3.23840e-02 -7.08750e-04 -3.04680e-04 7.12370e-02 1.18320e-01 1.68860e-04 3.15730e-02 -6.92320e-04 -2.92530e-04 6.87690e-02 1.12590e-01 1.58600e-04 3.07350e-02 -6.75940e-04 -2.80780e-04 6.63210e-02 1.07020e-01 1.48530e-04 2.98710e-02 -6.59620e-04 -2.69430e-04 6.38950e-02 1.01620e-01 1.38670e-04 2.89860e-02 -6.43370e-04 -2.58450e-04 6.14940e-02 9.76120e-02 1.97280e-04 2.77970e-02 -6.27940e-04 -3.60220e-04 5.90300e-02 9.48670e-02 3.19340e-04 2.63620e-02 -6.12840e-04 -5.69020e-04 5.65480e-02 8.63890e-02 1.10310e-04 2.62280e-02 -5.94970e-04 -2.27630e-04 5.44690e-02 8.16250e-02 1.01290e-04 2.52830e-02 -5.78980e-04 -2.18010e-04 5.21940e-02 7.39640e-02 -1.77740e-05 2.47380e-02 -5.51440e-04 -2.03590e-04 4.98380e-02 7.25500e-02 8.38840e-05 2.33710e-02 -5.47190e-04 -1.99670e-04 4.77550e-02 6.82350e-02 7.55140e-05 2.24080e-02 -5.31410e-04 -1.90920e-04 4.55950e-02 6.40660e-02 6.73680e-05 2.14440e-02 -5.15700e-04 -1.82430e-04 4.34770e-02 6.00410e-02 5.94470e-05 2.04800e-02 -5.00070e-04 -1.74180e-04 4.14020e-02 5.61580e-02 5.17510e-05 1.95190e-02 -4.84520e-04 -1.66180e-04 3.93710e-02 5.24140e-02 4.42830e-05 1.85620e-02 -4.69050e-04 -1.58390e-04 3.73860e-02 4.88090e-02 3.70440e-05 1.76110e-02 -4.53670e-04 -1.50810e-04 3.54470e-02 4.53400e-02 3.00330e-05 1.66690e-02 -4.38370e-04 -1.43430e-04 3.35570e-02 4.20060e-02 2.32540e-05 1.57350e-02 -4.23160e-04 -1.36240e-04 3.17150e-02 3.88060e-02 1.67060e-05 1.48130e-02 -4.08040e-04 -1.29210e-04 2.99230e-02 3.57370e-02 1.03900e-05 1.39030e-02 -3.93010e-04 -1.22340e-04 2.81810e-02 3.28000e-02 4.30600e-06 1.30070e-02 -3.78070e-04 -1.15620e-04 2.64900e-02 2.99920e-02 -1.54550e-06 1.21260e-02 -3.63220e-04 -1.09040e-04 2.48510e-02 2.73120e-02 -7.16590e-06 1.12610e-02 -3.48460e-04 -1.02580e-04 2.32640e-02 2.62650e-02 5.23110e-05 1.05090e-02 -3.45510e-04 -1.01350e-04 2.21090e-02 2.38230e-02 4.53030e-05 9.55730e-03 -3.64110e-04 -1.97740e-04 2.05060e-02 2.00340e-02 -2.26470e-05 8.77250e-03 -3.04740e-04 -8.38320e-05 1.88230e-02 1.78590e-02 -2.73570e-05 7.98200e-03 -2.90340e-04 -7.77510e-05 1.74500e-02 1.58070e-02 -3.18500e-05 7.21220e-03 -2.76000e-04 -7.17330e-05 1.61310e-02 1.38780e-02 -3.61390e-05 6.46390e-03 -2.61730e-04 -6.57640e-05 1.48670e-02 1.20720e-02 -4.02310e-05 5.73770e-03 -2.47480e-04 -5.98260e-05 1.36580e-02 1.03880e-02 -4.41520e-05 5.03420e-03 -2.33230e-04 -5.38990e-05 1.25030e-02 8.82560e-03 -4.79220e-05 4.35390e-03 -2.18900e-04 -4.79610e-05 1.14040e-02 7.38390e-03 -5.15820e-05 3.69740e-03 -2.04410e-04 -4.19820e-05 1.03590e-02 6.06250e-03 -5.51700e-05 3.06490e-03 -1.89630e-04 -3.59260e-05 9.37000e-03 5.47830e-03 -2.49620e-05 2.67640e-03 -1.86840e-04 -3.52090e-05 8.77300e-03 3.77960e-03 -6.23530e-05 1.87380e-03 -1.58540e-04 -2.34020e-05 7.55660e-03 2.81710e-03 -6.60460e-05 1.31560e-03 -1.41770e-04 -1.68190e-05 6.73200e-03 1.97360e-03 -6.97920e-05 7.82740e-04 -1.23880e-04 -9.93250e-06 5.96160e-03 1.24880e-03 -7.34950e-05 2.75200e-04 -1.04700e-04 -2.68440e-06 5.24470e-03 6.42450e-04 -7.66960e-05 -2.06950e-04 -8.42990e-05 4.94270e-06 4.58000e-03 -5.78150e-05 -9.46210e-05 -8.73350e-04 -4.96860e-05 1.85330e-05 3.70860e-03 -2.16460e-04 -7.68620e-05 -1.09610e-03 -4.30830e-05 2.05200e-05 3.40020e-03 -4.72650e-04 -6.85690e-05 -1.50530e-03 -2.67410e-05 2.69820e-05 2.87960e-03 -6.22690e-04 -4.81920e-05 -1.89430e-03 -1.91960e-05 3.02550e-05 2.40160e-03 -6.92850e-04 -2.55940e-05 -2.28400e-03 -1.96650e-05 3.17900e-05 1.97500e-03 -7.28520e-04 -1.13090e-04 -2.77070e-03 -2.12210e-05 3.87830e-05 1.67950e-03 -7.27940e-04 -1.95730e-04 -3.08650e-03 -2.15490e-05 4.92790e-05 1.60810e-03 6.52630e-01 4.35070e-01 4.17550e-01 4.07100e-02 9.08980e-04 6.03680e-02 7.13360e-01 2.80770e-01 2.36050e-01 3.45320e-02 2.86210e-04 7.98570e-02 7.40730e-01 8.05360e-02 2.56270e-02 1.98970e-02 -1.17590e-03 8.53150e-02 7.11590e-01 2.20830e-02 -2.06980e-02 7.84750e-03 -2.74670e-03 7.29980e-02 6.83200e-01 1.40350e-02 -1.99320e-02 2.14200e-03 -3.69390e-03 7.67140e-02 5.33660e-01 -3.11940e-02 -4.90080e-02 -2.59690e-03 -4.36770e-03 9.11020e-02 6.11080e-01 1.65740e-04 -1.71420e-02 -2.12300e-03 -3.83070e-03 9.28440e-02 6.22690e-01 4.89300e-03 -1.08620e-02 -1.84470e-03 -3.41810e-03 9.12060e-02 6.05900e-01 3.34270e-03 -8.45100e-03 -2.03310e-03 -2.99000e-03 9.57180e-02 5.90230e-01 2.83810e-03 -5.61150e-03 -2.05750e-03 -2.55550e-03 1.00110e-01 5.74630e-01 2.01630e-03 -3.23330e-03 -1.94240e-03 -2.18580e-03 1.04190e-01 5.32470e-01 -3.08110e-03 -5.77110e-03 -1.74660e-03 -1.99940e-03 1.03700e-01 4.62650e-01 -1.50110e-02 -1.54250e-02 -1.39150e-03 -1.97160e-03 9.82780e-02 5.30140e-01 1.48800e-03 4.61320e-03 -1.54840e-03 -1.40290e-03 1.14560e-01 5.15650e-01 1.27980e-03 7.04020e-03 -1.43670e-03 -1.24190e-03 1.17300e-01 5.01470e-01 1.30510e-03 9.54840e-03 -1.35260e-03 -1.11370e-03 1.19690e-01 4.87400e-01 1.18850e-03 1.18730e-02 -1.28070e-03 -1.01450e-03 1.21720e-01 4.73610e-01 1.20650e-03 1.41980e-02 -1.22670e-03 -9.35230e-04 1.23410e-01 4.27620e-01 -2.51020e-03 1.67910e-02 -1.19100e-03 -4.68700e-04 1.28700e-01 4.35160e-01 -4.30600e-04 1.76900e-02 -1.15370e-03 -6.52960e-04 1.25670e-01 4.33380e-01 1.08870e-03 2.04610e-02 -1.11480e-03 -7.77900e-04 1.26600e-01 4.20420e-01 1.08470e-03 2.23630e-02 -1.08940e-03 -7.40930e-04 1.27090e-01 4.07670e-01 1.04580e-03 2.41330e-02 -1.06640e-03 -7.08630e-04 1.27330e-01 3.95170e-01 1.03470e-03 2.58110e-02 -1.04630e-03 -6.79460e-04 1.27310e-01 3.74430e-01 9.09510e-04 2.99230e-02 -7.19520e-04 -1.74100e-03 1.31290e-01 3.68060e-01 9.35660e-04 2.96340e-02 -9.05710e-04 -9.87370e-04 1.27940e-01 3.59020e-01 9.57620e-04 3.01500e-02 -9.94210e-04 -6.04650e-04 1.25970e-01 3.47450e-01 9.38610e-04 3.13780e-02 -9.78890e-04 -5.82510e-04 1.25130e-01 3.36110e-01 9.11570e-04 3.24910e-02 -9.64090e-04 -5.61420e-04 1.24120e-01 3.25010e-01 8.90440e-04 3.34990e-02 -9.49880e-04 -5.41220e-04 1.22940e-01 3.14140e-01 8.64400e-04 3.43960e-02 -9.36000e-04 -5.21850e-04 1.21620e-01 3.03500e-01 8.41920e-04 3.51890e-02 -9.22470e-04 -5.03230e-04 1.20150e-01 2.93100e-01 8.16490e-04 3.58760e-02 -9.09130e-04 -4.85330e-04 1.18570e-01 2.78040e-01 -4.54810e-04 3.38430e-02 -9.05960e-04 -3.15920e-04 1.13670e-01 2.34520e-01 -5.94540e-03 2.86640e-02 -9.21470e-04 3.09050e-04 1.04500e-01 2.63290e-01 7.44610e-04 3.73410e-02 -8.69950e-04 -4.35480e-04 1.13130e-01 2.53810e-01 7.20010e-04 3.76380e-02 -8.57010e-04 -4.20060e-04 1.11130e-01 2.44560e-01 6.96330e-04 3.78450e-02 -8.44080e-04 -4.05190e-04 1.09050e-01 2.35520e-01 6.72160e-04 3.79650e-02 -8.31140e-04 -3.90850e-04 1.06900e-01 2.32820e-01 8.40240e-04 3.60630e-02 -8.25420e-04 -3.80470e-04 1.03030e-01 2.18110e-01 6.24920e-04 3.79560e-02 -8.05180e-04 -3.63680e-04 1.02420e-01 2.09720e-01 6.01720e-04 3.78350e-02 -7.92130e-04 -3.50820e-04 1.00100e-01 2.01550e-01 5.78510e-04 3.76400e-02 -7.79030e-04 -3.38400e-04 9.77390e-02 1.93580e-01 5.55740e-04 3.73760e-02 -7.65890e-04 -3.26430e-04 9.53420e-02 1.85810e-01 5.33090e-04 3.70460e-02 -7.52680e-04 -3.14880e-04 9.29160e-02 1.78250e-01 5.10830e-04 3.66530e-02 -7.39430e-04 -3.03730e-04 9.04660e-02 1.76000e-01 6.54440e-04 3.48010e-02 -7.34050e-04 -2.96350e-04 8.71350e-02 1.63710e-01 4.67090e-04 3.56960e-02 -7.12760e-04 -2.82590e-04 8.55180e-02 1.56730e-01 4.45670e-04 3.51380e-02 -6.99350e-04 -2.72570e-04 8.30290e-02 1.49930e-01 4.24620e-04 3.45320e-02 -6.85900e-04 -2.62890e-04 8.05360e-02 1.43330e-01 4.03870e-04 3.38820e-02 -6.72400e-04 -2.53540e-04 7.80450e-02 1.36900e-01 3.83490e-04 3.31900e-02 -6.58860e-04 -2.44520e-04 7.55580e-02 1.26350e-01 2.18270e-04 3.34430e-02 -6.36930e-04 -2.32430e-04 7.34620e-02 1.24580e-01 3.43760e-04 3.16980e-02 -6.31680e-04 -2.27370e-04 7.06150e-02 1.18680e-01 3.24440e-04 3.09040e-02 -6.18050e-04 -2.19220e-04 6.81650e-02 1.12950e-01 3.05500e-04 3.00810e-02 -6.04390e-04 -2.11330e-04 6.57340e-02 1.07380e-01 2.86930e-04 2.92340e-02 -5.90710e-04 -2.03700e-04 6.33250e-02 1.01980e-01 2.68750e-04 2.83650e-02 -5.77020e-04 -1.96310e-04 6.09410e-02 9.67470e-02 2.50960e-04 2.74760e-02 -5.63310e-04 -1.89150e-04 5.85850e-02 9.28180e-02 2.82470e-04 2.63250e-02 -5.10910e-04 -2.92980e-04 5.62120e-02 9.00770e-02 3.58740e-04 2.49660e-02 -4.20200e-04 -5.01770e-04 5.38660e-02 8.19750e-02 1.99970e-04 2.47240e-02 -5.22140e-04 -1.68930e-04 5.17030e-02 7.43050e-02 7.12780e-05 2.42000e-02 -4.99640e-04 -1.59160e-04 4.93680e-02 7.28880e-02 1.67990e-04 2.28430e-02 -4.94710e-04 -1.56380e-04 4.72930e-02 6.85660e-02 1.52620e-04 2.18950e-02 -4.81000e-04 -1.50350e-04 4.51460e-02 6.43900e-02 1.37660e-04 2.09450e-02 -4.67310e-04 -1.44470e-04 4.30410e-02 6.03560e-02 1.23110e-04 1.99960e-02 -4.53640e-04 -1.38730e-04 4.09790e-02 4.35420e-02 -1.44000e-03 1.83160e-02 -2.72990e-04 -3.15710e-04 3.64460e-02 4.84880e-02 -4.22290e-04 1.77540e-02 -3.22850e-04 -3.20230e-04 3.60800e-02 4.91430e-02 8.67990e-05 1.70440e-02 -3.43620e-04 -3.13860e-04 3.49630e-02 4.56630e-02 7.21930e-05 1.61200e-02 -3.35180e-04 -2.96350e-04 3.30870e-02 4.23170e-02 5.80650e-05 1.52050e-02 -3.26630e-04 -2.79300e-04 3.12610e-02 3.91040e-02 4.44150e-05 1.43010e-02 -3.17950e-04 -2.62700e-04 2.94830e-02 3.60230e-02 3.12430e-05 1.34100e-02 -3.09140e-04 -2.46550e-04 2.77560e-02 3.14630e-02 -2.44620e-04 1.24940e-02 -2.82160e-04 -2.24490e-04 2.58200e-02 2.53730e-02 -8.00590e-04 1.15520e-02 -2.37050e-04 -1.96120e-04 2.36940e-02 2.75180e-02 8.15690e-07 1.09190e-02 -3.18700e-04 -8.68920e-05 2.29590e-02 2.64650e-02 5.74240e-05 1.01750e-02 -3.14400e-04 -8.56610e-05 2.18100e-02 2.30000e-02 -4.68690e-07 9.27590e-03 -2.86210e-04 -1.09230e-04 2.00680e-02 2.02320e-02 -3.77410e-05 8.38640e-03 -2.53600e-04 -1.58560e-04 1.84810e-02 1.92920e-02 1.04360e-05 7.75490e-03 -2.50950e-04 -1.51380e-04 1.74980e-02 1.59470e-02 -4.45550e-05 6.93810e-03 -2.52900e-04 -6.29360e-05 1.58790e-02 1.40050e-02 -5.24420e-05 6.20320e-03 -2.39840e-04 -5.81540e-05 1.46260e-02 1.21860e-02 -5.99730e-05 5.49040e-03 -2.26790e-04 -5.33470e-05 1.34270e-02 1.04880e-02 -6.71860e-05 4.80020e-03 -2.13690e-04 -4.85000e-05 1.22820e-02 8.91200e-03 -7.41230e-05 4.13320e-03 -2.00490e-04 -4.35940e-05 1.11930e-02 7.45690e-03 -8.08490e-05 3.48990e-03 -1.87110e-04 -3.86060e-05 1.01590e-02 6.12260e-03 -8.74300e-05 2.87070e-03 -1.73440e-04 -3.35090e-05 9.18080e-03 5.53160e-03 -5.90230e-05 2.48940e-03 -1.68970e-04 -3.22970e-05 8.58940e-03 4.37210e-03 -8.83490e-05 1.87210e-03 -1.53050e-04 -4.72190e-05 7.66750e-03 2.84220e-03 -1.07070e-04 1.16090e-03 -1.29140e-04 -1.72120e-05 6.57590e-03 1.98960e-03 -1.13610e-04 6.41100e-04 -1.12740e-04 -1.13210e-05 5.81760e-03 1.25780e-03 -1.19790e-04 1.46740e-04 -9.53880e-05 -5.16000e-06 5.11350e-03 6.46910e-04 -1.24850e-04 -3.22220e-04 -7.73310e-05 1.24330e-06 4.46270e-03 -5.51950e-05 -1.42510e-04 -9.68020e-04 -4.90650e-05 1.19290e-05 3.61340e-03 -2.12700e-04 -1.23680e-04 -1.18400e-03 -4.25800e-05 1.40860e-05 3.31370e-03 -4.66050e-04 -1.09860e-04 -1.57770e-03 -2.95340e-05 1.96890e-05 2.80870e-03 -6.14500e-04 -8.31210e-05 -1.95130e-03 -2.17380e-05 2.45730e-05 2.34520e-03 -6.83510e-04 -6.39640e-05 -2.32550e-03 -1.82770e-05 3.06440e-05 1.93560e-03 -7.17180e-04 -1.61140e-04 -2.78630e-03 -1.91540e-05 4.01140e-05 1.65780e-03 -7.16430e-04 -2.50380e-04 -3.08220e-03 -2.23670e-05 4.88260e-05 1.59310e-03 6.47750e-01 4.34590e-01 4.15060e-01 1.86650e-02 3.35330e-04 6.67000e-02 7.10350e-01 2.92930e-01 2.41220e-01 1.64170e-02 -1.29300e-04 8.58230e-02 7.40770e-01 9.51330e-02 3.03770e-02 1.05820e-02 -7.88680e-04 9.06660e-02 7.12930e-01 3.11860e-02 -2.03540e-02 5.23160e-03 -1.52090e-03 7.72030e-02 6.86920e-01 1.95830e-02 -1.97510e-02 2.05200e-03 -1.99220e-03 8.04790e-02 6.62710e-01 1.15130e-02 -1.83850e-02 3.95830e-04 -2.17060e-03 8.47320e-02 6.02570e-01 5.74580e-03 -1.12490e-02 -1.07100e-03 -1.98050e-03 9.95130e-02 5.91750e-01 1.03570e-03 -1.51350e-02 -1.08210e-03 -1.77540e-03 9.30150e-02 5.74340e-01 -1.06920e-03 -1.26630e-02 -1.28670e-03 -1.49270e-03 9.62200e-02 5.74640e-01 2.07840e-03 -7.23810e-03 -1.39380e-03 -9.37310e-04 9.86130e-02 5.74690e-01 2.40810e-03 -3.42060e-03 -1.64050e-03 -2.31480e-04 1.04470e-01 5.32000e-01 -3.04500e-03 -6.33190e-03 -1.44070e-03 -5.64570e-05 1.03740e-01 4.62110e-01 -1.47670e-02 -1.57230e-02 -1.24000e-03 5.47370e-07 9.80950e-02 5.29360e-01 1.76220e-03 4.05790e-03 -8.52620e-04 -8.08490e-04 1.14130e-01 5.14790e-01 1.54100e-03 6.46240e-03 -7.94480e-04 -7.13840e-04 1.16720e-01 5.00570e-01 1.54500e-03 8.92770e-03 -7.46100e-04 -6.39050e-04 1.19010e-01 4.86500e-01 1.42110e-03 1.12350e-02 -7.07470e-04 -5.80790e-04 1.20980e-01 4.72720e-01 1.43020e-03 1.35400e-02 -6.76770e-04 -5.34480e-04 1.22630e-01 3.78660e-01 -9.24610e-03 1.02270e-02 -8.50740e-04 6.05110e-04 1.22730e-01 4.05910e-01 -4.22250e-03 1.47390e-02 -7.55010e-04 8.14610e-05 1.24220e-01 4.21330e-01 -3.06070e-04 1.88910e-02 -6.57320e-04 -2.86930e-04 1.25490e-01 4.19700e-01 1.28780e-03 2.16840e-02 -6.01780e-04 -4.21910e-04 1.26280e-01 4.07000e-01 1.24390e-03 2.34550e-02 -5.89530e-04 -4.03510e-04 1.26520e-01 3.94550e-01 1.22840e-03 2.51360e-02 -5.78800e-04 -3.86950e-04 1.26530e-01 3.74300e-01 9.77850e-04 2.96750e-02 -5.65620e-04 -3.69050e-04 1.30890e-01 3.70320e-01 1.17070e-03 2.81510e-02 -5.59900e-04 -3.57950e-04 1.25860e-01 3.58550e-01 1.13690e-03 2.94900e-02 -5.51370e-04 -3.44890e-04 1.25230e-01 3.47020e-01 1.11320e-03 3.07250e-02 -5.43360e-04 -3.32480e-04 1.24400e-01 3.35720e-01 1.08130e-03 3.18450e-02 -5.35640e-04 -3.20710e-04 1.23410e-01 3.24660e-01 1.05530e-03 3.28610e-02 -5.28250e-04 -3.09430e-04 1.22250e-01 3.13830e-01 1.02440e-03 3.37650e-02 -5.21020e-04 -2.98640e-04 1.20940e-01 3.03240e-01 9.97020e-04 3.45670e-02 -5.13980e-04 -2.88260e-04 1.19500e-01 2.92870e-01 9.66670e-04 3.52630e-02 -5.07040e-04 -2.78290e-04 1.17920e-01 2.89680e-01 1.15460e-03 3.34610e-02 -5.03510e-04 -2.70740e-04 1.13620e-01 2.72830e-01 9.08620e-04 3.63540e-02 -4.93370e-04 -2.59440e-04 1.14440e-01 2.63160e-01 8.80130e-04 3.67550e-02 -4.86600e-04 -2.50520e-04 1.12540e-01 2.53700e-01 8.50690e-04 3.70610e-02 -4.79820e-04 -2.41930e-04 1.10560e-01 2.44470e-01 8.22200e-04 3.72780e-02 -4.73030e-04 -2.33650e-04 1.08500e-01 2.35460e-01 7.93260e-04 3.74080e-02 -4.66220e-04 -2.25650e-04 1.06360e-01 2.28690e-01 8.36640e-04 3.67630e-02 -3.51290e-04 -4.41400e-04 1.03570e-01 2.24020e-01 9.45410e-04 3.54240e-02 -1.27090e-04 -8.72940e-04 1.00260e-01 2.09720e-01 7.08830e-04 3.73080e-02 -4.45590e-04 -2.03310e-04 9.96040e-02 2.01570e-01 6.81070e-04 3.71230e-02 -4.38620e-04 -1.96370e-04 9.72570e-02 1.93610e-01 6.53810e-04 3.68700e-02 -4.31610e-04 -1.89670e-04 9.48740e-02 1.85860e-01 6.26730e-04 3.65500e-02 -4.24560e-04 -1.83200e-04 9.24620e-02 1.78310e-01 6.00110e-04 3.61670e-02 -4.17450e-04 -1.76950e-04 9.00260e-02 1.76070e-01 7.39850e-04 3.43210e-02 -4.14430e-04 -1.72780e-04 8.67020e-02 1.63800e-01 5.47870e-04 3.52310e-02 -4.03110e-04 -1.65070e-04 8.51030e-02 1.56830e-01 5.22310e-04 3.46830e-02 -3.95870e-04 -1.59430e-04 8.26260e-02 1.50040e-01 4.97180e-04 3.40880e-02 -3.88580e-04 -1.53970e-04 8.01460e-02 1.43440e-01 4.72430e-04 3.34480e-02 -3.81260e-04 -1.48690e-04 7.76660e-02 1.37020e-01 4.48120e-04 3.27670e-02 -3.73900e-04 -1.43580e-04 7.51900e-02 1.26490e-01 2.78470e-04 3.30330e-02 -3.62120e-04 -1.36790e-04 7.31100e-02 1.24720e-01 4.00770e-04 3.12950e-02 -3.59070e-04 -1.33850e-04 7.02690e-02 1.18820e-01 3.77750e-04 3.05100e-02 -3.51610e-04 -1.29210e-04 6.78290e-02 1.13090e-01 3.55190e-04 2.96980e-02 -3.44120e-04 -1.24710e-04 6.54080e-02 1.07530e-01 3.33090e-04 2.88610e-02 -3.36600e-04 -1.20350e-04 6.30090e-02 1.02140e-01 3.11450e-04 2.80010e-02 -3.29050e-04 -1.16120e-04 6.06350e-02 9.68990e-02 2.90270e-04 2.71230e-02 -3.21490e-04 -1.12000e-04 5.82870e-02 9.18200e-02 2.69570e-04 2.62280e-02 -3.13900e-04 -1.08010e-04 5.59700e-02 8.80020e-02 2.90580e-04 2.51220e-02 -2.49180e-04 -2.00650e-04 5.36750e-02 8.53240e-02 3.49650e-04 2.38590e-02 -1.28070e-04 -3.84400e-04 5.14440e-02 7.44300e-02 9.45450e-05 2.39600e-02 -4.47710e-04 1.64290e-04 4.91650e-02 7.20510e-02 1.54180e-04 2.26840e-02 -3.35390e-04 -7.83190e-06 4.70100e-02 6.87160e-02 1.73310e-04 2.15990e-02 -2.75760e-04 -8.95220e-05 4.48990e-02 6.45380e-02 1.55530e-04 2.06580e-02 -2.68110e-04 -8.60850e-05 4.28010e-02 5.79260e-02 3.74610e-05 1.98990e-02 -1.22650e-04 -2.86720e-04 4.04740e-02 5.40310e-02 -1.90420e-04 1.86230e-02 -1.61070e-04 -1.93870e-04 3.82230e-02 5.10250e-02 -1.19660e-04 1.77430e-02 -2.17540e-04 -9.97810e-05 3.64170e-02 4.92310e-02 8.93890e-05 1.69200e-02 -2.37490e-04 -7.30180e-05 3.48510e-02 4.57480e-02 7.41060e-05 1.60010e-02 -2.29850e-04 -6.98960e-05 3.29790e-02 4.23990e-02 5.93280e-05 1.50900e-02 -2.22210e-04 -6.68200e-05 3.11560e-02 3.91830e-02 4.50550e-05 1.41910e-02 -2.14580e-04 -6.37870e-05 2.93810e-02 3.60980e-02 3.12860e-05 1.33030e-02 -2.06970e-04 -6.07920e-05 2.76570e-02 3.24590e-02 -9.54460e-05 1.24050e-02 -1.81510e-04 -7.18510e-05 2.58660e-02 2.93570e-02 -1.59300e-04 1.15180e-02 -1.35990e-04 -1.16570e-04 2.41860e-02 2.62930e-02 -2.26800e-04 1.07040e-02 -1.02790e-04 -1.50730e-04 2.25770e-02 2.09770e-02 -6.83440e-04 9.91510e-03 -8.63100e-05 -1.34760e-04 2.07120e-02 2.26060e-02 -2.99990e-05 9.09420e-03 -1.69110e-04 -4.62240e-05 1.98120e-02 2.02860e-02 -4.07640e-05 8.30540e-03 -1.61590e-04 -4.33600e-05 1.84010e-02 1.85140e-02 -3.42280e-05 7.57120e-03 -1.38480e-04 -6.29370e-05 1.71600e-02 1.60330e-02 -6.88410e-05 6.75350e-03 -9.72480e-05 -9.77710e-05 1.57130e-02 1.40830e-02 -7.86090e-05 6.02820e-03 -9.42000e-05 -8.79350e-05 1.44660e-02 1.22560e-02 -8.79560e-05 5.32490e-03 -9.09630e-05 -7.84770e-05 1.32740e-02 1.05510e-02 -9.69330e-05 4.64430e-03 -8.75190e-05 -6.93900e-05 1.21370e-02 9.81730e-03 -6.17830e-05 4.18130e-03 -8.66860e-05 -6.42400e-05 1.14110e-02 7.49750e-03 -1.04220e-04 3.37920e-03 -1.08660e-04 -2.30740e-05 1.00510e-02 6.15700e-03 -1.12170e-04 2.76760e-03 -1.00730e-04 -2.00340e-05 9.07830e-03 5.56300e-03 -8.46550e-05 2.39050e-03 -9.77500e-05 -1.90970e-05 8.48990e-03 4.02410e-03 -1.20840e-04 1.68170e-03 -8.05080e-05 -1.93590e-05 7.39860e-03 2.86360e-03 -1.47320e-04 1.06060e-03 -6.07570e-05 -2.23760e-05 6.47460e-03 2.42030e-03 -1.28380e-04 7.60250e-04 -5.85950e-05 -1.86770e-05 6.01540e-03 1.27040e-03 -1.51270e-04 8.10030e-05 -5.55870e-05 -3.38040e-06 5.04330e-03 3.81780e-04 -1.88510e-04 -5.98860e-04 -3.85440e-05 -1.06070e-06 4.12620e-03 1.69530e-04 -1.70190e-04 -8.29640e-04 -3.58610e-05 1.73890e-06 3.79800e-03 -1.99990e-04 -1.64200e-04 -1.23830e-03 -3.01680e-05 6.53270e-06 3.25770e-03 -3.56390e-04 -1.59060e-04 -1.67600e-03 -2.66150e-05 8.91210e-06 2.80770e-03 -3.73420e-04 -1.58930e-04 -2.14220e-03 -2.47730e-05 9.12240e-06 2.43800e-03 -6.73650e-04 -8.98700e-05 -2.34080e-03 -1.16430e-05 1.86440e-05 1.91360e-03 -7.09900e-04 -1.89990e-04 -2.78790e-03 -1.17890e-05 2.46010e-05 1.64380e-03 -7.11210e-04 -2.82360e-04 -3.07480e-03 -1.31660e-05 2.96750e-05 1.58200e-03 6.51200e-01 4.41810e-01 4.21840e-01 2.30990e-09 4.40930e-10 6.86610e-02 7.10920e-01 2.95780e-01 2.42270e-01 9.92710e-11 9.41900e-10 8.78320e-02 7.40300e-01 9.90690e-02 3.12210e-02 -3.03170e-09 1.28040e-09 9.22800e-02 7.13760e-01 3.45640e-02 -1.94960e-02 -3.91650e-09 1.32090e-09 7.86710e-02 6.87260e-01 2.11620e-02 -2.03630e-02 -4.14260e-09 1.24870e-09 8.16060e-02 6.63850e-01 1.29760e-02 -1.80610e-02 -4.26970e-09 1.15740e-09 8.58110e-02 5.43820e-01 5.96110e-03 -8.81560e-03 -2.56450e-04 3.63570e-04 9.97850e-02 5.28320e-01 -7.74120e-03 -2.23070e-02 -7.27260e-04 4.39550e-04 9.38670e-02 5.09530e-01 -1.15190e-02 -2.12980e-02 -5.58970e-04 6.42150e-04 9.53070e-02 5.11680e-01 -1.98500e-03 -1.18360e-02 -5.67430e-04 7.41990e-04 9.02510e-02 5.74560e-01 2.63870e-03 -3.69860e-03 -5.59080e-09 5.49840e-10 1.04730e-01 5.59180e-01 2.40790e-03 -1.00130e-03 -5.90920e-09 3.92970e-10 1.08070e-01 5.46770e-01 1.75990e-03 1.36500e-04 1.62350e-04 -3.71190e-04 1.08370e-01 5.37940e-01 2.78690e-03 1.69800e-03 5.05630e-04 -1.12200e-03 1.06120e-01 5.14550e-01 1.59650e-03 6.28610e-03 -6.76990e-09 -1.09930e-10 1.16560e-01 5.00320e-01 1.61150e-03 8.76080e-03 -7.01000e-09 -2.80890e-10 1.18810e-01 4.86240e-01 1.47450e-03 1.10450e-02 -7.21890e-09 -4.49920e-10 1.20750e-01 4.72460e-01 1.48780e-03 1.33520e-02 -7.39570e-09 -6.15490e-10 1.22390e-01 4.58860e-01 1.40370e-03 1.54990e-02 -7.53760e-09 -7.76000e-10 1.23720e-01 3.66210e-01 -9.96520e-03 1.09350e-02 -3.78170e-04 1.10650e-03 1.22840e-01 4.05990e-01 -2.37960e-03 1.74290e-02 -4.09330e-04 1.09630e-03 1.24780e-01 4.19490e-01 1.33810e-03 2.14820e-02 -4.25950e-04 1.07990e-03 1.26030e-01 4.06810e-01 1.29240e-03 2.32520e-02 -4.23620e-04 1.05760e-03 1.26270e-01 3.94370e-01 1.27630e-03 2.49350e-02 -4.22370e-04 1.03470e-03 1.26280e-01 3.74140e-01 1.02660e-03 2.94760e-02 -7.90630e-09 -1.75740e-09 1.30650e-01 3.70170e-01 1.21620e-03 2.79520e-02 -7.56750e-09 -1.66720e-09 1.25620e-01 3.58410e-01 1.18100e-03 2.92920e-02 -7.45590e-09 -1.75210e-09 1.24990e-01 3.46900e-01 1.15630e-03 3.05290e-02 -7.32730e-09 -1.82580e-09 1.24170e-01 3.35610e-01 1.12300e-03 3.16500e-02 -7.18740e-09 -1.88910e-09 1.23180e-01 3.24560e-01 1.09590e-03 3.26680e-02 -7.04150e-09 -1.94310e-09 1.22030e-01 3.13750e-01 1.06360e-03 3.35740e-02 -6.89510e-09 -1.98900e-09 1.20730e-01 3.03160e-01 1.03510e-03 3.43780e-02 -6.75290e-09 -2.02830e-09 1.19290e-01 2.92810e-01 1.00340e-03 3.50760e-02 -6.61890e-09 -2.06260e-09 1.17720e-01 2.89620e-01 1.19020e-03 3.32760e-02 -6.32570e-09 -1.93840e-09 1.13420e-01 2.72790e-01 9.42850e-04 3.61730e-02 -6.38920e-09 -2.12240e-09 1.14250e-01 2.63120e-01 9.13120e-04 3.65760e-02 -6.29800e-09 -2.15080e-09 1.12360e-01 2.53680e-01 8.82390e-04 3.68850e-02 -6.22450e-09 -2.17990e-09 1.10380e-01 2.44450e-01 8.52670e-04 3.71050e-02 -6.16890e-09 -2.21070e-09 1.08320e-01 2.35450e-01 8.22470e-04 3.72370e-02 -6.12970e-09 -2.24390e-09 1.06190e-01 2.26670e-01 7.93000e-04 3.72860e-02 -6.10460e-09 -2.27980e-09 1.04000e-01 2.24050e-01 9.50060e-04 3.53880e-02 -5.90690e-09 -2.16640e-09 1.00210e-01 2.09730e-01 7.34380e-04 3.71460e-02 -6.08090e-09 -2.35800e-09 9.94480e-02 2.01580e-01 7.05420e-04 3.69650e-02 -6.07260e-09 -2.39840e-09 9.71060e-02 1.93630e-01 6.76980e-04 3.67140e-02 -6.06010e-09 -2.43760e-09 9.47280e-02 1.85890e-01 6.48740e-04 3.63970e-02 -6.03850e-09 -2.47390e-09 9.23210e-02 1.78340e-01 6.20980e-04 3.60180e-02 -6.00360e-09 -2.50520e-09 8.98880e-02 1.76110e-01 7.59640e-04 3.41730e-02 -5.82710e-09 -2.40340e-09 8.65670e-02 1.63830e-01 5.66510e-04 3.50870e-02 -5.88010e-09 -2.54540e-09 8.49740e-02 1.56870e-01 5.39850e-04 3.45430e-02 -5.78660e-09 -2.55070e-09 8.25010e-02 1.50090e-01 5.13660e-04 3.39500e-02 -5.67010e-09 -2.54420e-09 8.00240e-02 1.43490e-01 4.87860e-04 3.33140e-02 -5.53020e-09 -2.52520e-09 7.75480e-02 1.37070e-01 4.62520e-04 3.26360e-02 -5.36770e-09 -2.49320e-09 7.50760e-02 1.26530e-01 2.91740e-04 3.29070e-02 -5.21010e-09 -2.52090e-09 7.30010e-02 1.24760e-01 4.13170e-04 3.11700e-02 -4.98360e-09 -2.39190e-09 7.01610e-02 1.18870e-01 3.89180e-04 3.03890e-02 -4.76920e-09 -2.32500e-09 6.77240e-02 1.13140e-01 3.65680e-04 2.95790e-02 -4.54570e-09 -2.24990e-09 6.53070e-02 1.07580e-01 3.42640e-04 2.87450e-02 -4.31850e-09 -2.16890e-09 6.29110e-02 1.02190e-01 3.20100e-04 2.78890e-02 -4.09260e-09 -2.08460e-09 6.05390e-02 9.69520e-02 2.98040e-04 2.70130e-02 -3.87280e-09 -1.99960e-09 5.81950e-02 9.18730e-02 2.76470e-04 2.61210e-02 -3.66300e-09 -1.91610e-09 5.58800e-02 8.69500e-02 2.55410e-04 2.52160e-02 -3.46660e-09 -1.83620e-09 5.35960e-02 8.53500e-02 3.51380e-04 2.38310e-02 -3.28820e-09 -1.72580e-09 5.14170e-02 7.39900e-02 -3.99900e-04 2.27530e-02 -1.79010e-04 2.61780e-04 4.81420e-02 7.01540e-02 8.50600e-05 2.28150e-02 -1.73270e-04 2.40430e-04 4.68190e-02 6.78260e-02 1.40540e-04 2.16160e-02 -5.74700e-05 7.84240e-05 4.47650e-02 6.18750e-02 5.38030e-05 2.08540e-02 1.58220e-04 -2.14070e-04 4.25300e-02 5.96830e-02 1.06110e-04 1.97130e-02 5.24590e-05 -6.97180e-05 4.06000e-02 5.66550e-02 1.22220e-04 1.86970e-02 -2.53980e-09 -1.45730e-09 3.86650e-02 5.28970e-02 1.05260e-04 1.77670e-02 -2.45790e-09 -1.42700e-09 3.67020e-02 4.92770e-02 8.88270e-05 1.68420e-02 -2.38130e-09 -1.39940e-09 3.47850e-02 4.57920e-02 7.29150e-05 1.59250e-02 -2.30760e-09 -1.37320e-09 3.29150e-02 4.24420e-02 5.75300e-05 1.50180e-02 -2.23430e-09 -1.34680e-09 3.10940e-02 3.92240e-02 4.26710e-05 1.41210e-02 -2.15930e-09 -1.31860e-09 2.93210e-02 3.61380e-02 2.83370e-05 1.32360e-02 -2.08090e-09 -1.28720e-09 2.75990e-02 3.31810e-02 1.45310e-05 1.23650e-02 -1.99790e-09 -1.25130e-09 2.59280e-02 3.03540e-02 1.25030e-06 1.15090e-02 -1.90950e-09 -1.21020e-09 2.43080e-02 2.70780e-02 -1.03230e-04 1.06760e-02 1.36560e-05 -1.28100e-05 2.26630e-02 2.47310e-02 -1.98420e-04 9.91850e-03 3.17320e-05 -2.86680e-05 2.12950e-02 2.26360e-02 -3.54560e-05 9.03980e-03 -1.61270e-09 -1.05460e-09 1.97630e-02 2.03150e-02 -4.66630e-05 8.25350e-03 -1.50700e-09 -9.93870e-10 1.83550e-02 1.81180e-02 -5.73720e-05 7.48710e-03 -1.40100e-09 -9.30470e-10 1.70000e-02 1.60440e-02 -6.75990e-05 6.74130e-03 -1.29740e-09 -8.65760e-10 1.56990e-02 1.40940e-02 -7.73720e-05 6.01690e-03 -1.19840e-09 -8.01210e-10 1.44530e-02 1.22650e-02 -8.67240e-05 5.31440e-03 -1.10590e-09 -7.37910e-10 1.32610e-02 1.05590e-02 -9.57080e-05 4.63450e-03 -1.02140e-09 -6.76990e-10 1.21250e-02 9.25820e-03 -8.97780e-05 4.04250e-03 1.28750e-05 -1.05160e-05 1.11620e-02 8.28580e-03 -7.18100e-05 3.54520e-03 3.87540e-05 -2.90840e-05 1.03640e-02 6.40200e-03 -1.08430e-04 2.80390e-03 -1.00150e-05 7.29370e-06 9.15870e-03 5.57370e-03 -9.39460e-05 2.35950e-03 -3.02510e-05 1.96890e-05 8.45850e-03 3.84690e-03 -1.37890e-04 1.59040e-03 -7.10430e-10 -4.27210e-10 7.27020e-03 2.86790e-03 -1.46320e-04 1.05530e-03 -6.61250e-10 -3.87260e-10 6.46540e-03 2.14850e-03 -1.45550e-04 6.15230e-04 4.36040e-06 -2.62780e-06 5.81280e-03 9.30190e-04 -1.86140e-04 -1.46940e-04 8.72950e-06 -5.56040e-06 4.74510e-03 5.69930e-04 -1.74650e-04 -4.66640e-04 2.95640e-06 -1.38330e-06 4.29340e-03 1.72060e-04 -1.69700e-04 -8.32660e-04 -4.43420e-10 -2.39530e-10 3.79160e-03 -1.97820e-04 -1.63840e-04 -1.24080e-03 -3.75170e-10 -2.01240e-10 3.25220e-03 -4.10010e-04 -1.51550e-04 -1.64700e-03 -8.00570e-07 -4.37020e-07 2.77710e-03 -5.54880e-04 -1.25140e-04 -2.01690e-03 -4.02640e-06 -9.57750e-07 2.33060e-03 -6.55940e-04 -9.03490e-05 -2.16600e-03 -7.16890e-06 -1.06160e-06 2.07640e-03 -7.07310e-04 -1.99480e-04 -2.78740e-03 -1.06780e-10 -9.61150e-11 1.63920e-03 -7.08550e-04 -2.91900e-04 -3.07060e-03 -6.64750e-11 -8.82270e-11 1.57810e-03 6.47750e-01 4.34590e-01 4.15060e-01 -1.86650e-02 -3.35330e-04 6.67000e-02 7.10350e-01 2.92930e-01 2.41220e-01 -1.64170e-02 1.29310e-04 8.58230e-02 7.40770e-01 9.51330e-02 3.03770e-02 -1.05820e-02 7.88680e-04 9.06660e-02 7.12930e-01 3.11860e-02 -2.03540e-02 -5.23160e-03 1.52090e-03 7.72030e-02 6.86920e-01 1.95830e-02 -1.97510e-02 -2.05200e-03 1.99220e-03 8.04790e-02 6.62710e-01 1.15130e-02 -1.83850e-02 -3.95840e-04 2.17060e-03 8.47320e-02 6.33010e-01 7.95290e-03 -1.09740e-02 6.62090e-04 2.07240e-03 9.99450e-02 6.24140e-01 6.11040e-03 -1.12850e-02 8.81670e-04 1.93420e-03 9.31840e-02 6.06870e-01 4.40030e-03 -8.50850e-03 1.05930e-03 1.70140e-03 9.70820e-02 5.90540e-01 3.44180e-03 -5.98090e-03 1.09560e-03 1.46970e-03 1.00930e-01 5.74570e-01 2.54820e-03 -3.53230e-03 1.06210e-03 1.25780e-03 1.04560e-01 5.59240e-01 2.25660e-03 -9.47110e-04 9.93460e-04 1.07730e-03 1.08030e-01 5.44070e-01 1.81980e-03 1.48930e-03 9.21830e-04 9.28460e-04 1.11210e-01 5.17660e-01 -6.20350e-04 2.11870e-04 9.01290e-04 6.13600e-04 1.08290e-01 4.38540e-01 -1.29570e-02 -9.01550e-03 1.05360e-03 -3.32590e-04 1.03330e-01 5.00570e-01 1.54500e-03 8.92770e-03 7.46080e-04 6.39050e-04 1.19010e-01 4.86500e-01 1.42110e-03 1.12350e-02 7.07450e-04 5.80790e-04 1.20980e-01 4.72720e-01 1.43020e-03 1.35400e-02 6.76750e-04 5.34480e-04 1.22630e-01 4.59110e-01 1.35170e-03 1.56970e-02 6.52050e-04 4.97850e-04 1.23970e-01 4.37330e-01 9.68050e-04 2.07500e-02 6.27710e-04 4.61420e-04 1.31040e-01 4.32610e-01 1.29640e-03 1.97830e-02 6.15630e-04 4.43130e-04 1.25790e-01 4.19700e-01 1.28780e-03 2.16840e-02 6.01760e-04 4.21910e-04 1.26280e-01 4.07000e-01 1.24390e-03 2.34550e-02 5.89510e-04 4.03510e-04 1.26520e-01 3.94550e-01 1.22840e-03 2.51360e-02 5.78780e-04 3.86950e-04 1.26530e-01 3.74130e-01 1.01630e-03 2.95000e-02 1.80060e-04 1.38400e-03 1.30720e-01 3.67620e-01 1.09340e-03 2.90510e-02 4.28590e-04 6.92390e-04 1.27250e-01 3.58550e-01 1.13690e-03 2.94900e-02 5.51350e-04 3.44880e-04 1.25230e-01 3.47020e-01 1.11320e-03 3.07250e-02 5.43350e-04 3.32480e-04 1.24400e-01 3.35720e-01 1.08130e-03 3.18450e-02 5.35630e-04 3.20710e-04 1.23410e-01 3.24660e-01 1.05530e-03 3.28610e-02 5.28230e-04 3.09430e-04 1.22250e-01 3.13830e-01 1.02440e-03 3.37650e-02 5.21000e-04 2.98640e-04 1.20940e-01 3.03240e-01 9.97020e-04 3.45670e-02 5.13970e-04 2.88260e-04 1.19500e-01 2.92870e-01 9.66670e-04 3.52630e-02 5.07020e-04 2.78290e-04 1.17920e-01 2.89680e-01 1.15460e-03 3.34610e-02 5.03500e-04 2.70730e-04 1.13620e-01 2.72830e-01 9.08620e-04 3.63540e-02 4.93360e-04 2.59430e-04 1.14440e-01 2.63160e-01 8.80130e-04 3.67550e-02 4.86580e-04 2.50520e-04 1.12540e-01 2.53700e-01 8.50690e-04 3.70610e-02 4.79800e-04 2.41930e-04 1.10560e-01 2.44470e-01 8.22200e-04 3.72780e-02 4.73020e-04 2.33640e-04 1.08500e-01 2.35460e-01 7.93260e-04 3.74080e-02 4.66210e-04 2.25650e-04 1.06360e-01 2.26670e-01 7.65020e-04 3.74540e-02 4.59370e-04 2.17940e-04 1.04160e-01 2.24050e-01 9.23400e-04 3.55540e-02 4.56280e-04 2.12410e-04 1.00370e-01 2.09720e-01 7.08830e-04 3.73080e-02 4.45580e-04 2.03310e-04 9.96040e-02 2.01570e-01 6.81070e-04 3.71230e-02 4.38610e-04 1.96370e-04 9.72570e-02 1.93610e-01 6.53810e-04 3.68700e-02 4.31600e-04 1.89670e-04 9.48740e-02 1.85860e-01 6.26730e-04 3.65500e-02 4.24550e-04 1.83200e-04 9.24620e-02 1.78310e-01 6.00110e-04 3.61670e-02 4.17440e-04 1.76940e-04 9.00260e-02 1.76070e-01 7.39850e-04 3.43210e-02 4.14420e-04 1.72770e-04 8.67020e-02 1.63800e-01 5.47870e-04 3.52310e-02 4.03090e-04 1.65070e-04 8.51030e-02 1.56830e-01 5.22310e-04 3.46830e-02 3.95850e-04 1.59420e-04 8.26260e-02 1.50040e-01 4.97180e-04 3.40880e-02 3.88570e-04 1.53970e-04 8.01460e-02 1.43440e-01 4.72430e-04 3.34480e-02 3.81250e-04 1.48690e-04 7.76660e-02 1.37020e-01 4.48120e-04 3.27670e-02 3.73890e-04 1.43580e-04 7.51900e-02 1.26490e-01 2.78470e-04 3.30330e-02 3.62110e-04 1.36790e-04 7.31100e-02 1.24720e-01 4.00770e-04 3.12950e-02 3.59060e-04 1.33850e-04 7.02690e-02 1.18820e-01 3.77750e-04 3.05100e-02 3.51600e-04 1.29210e-04 6.78290e-02 1.13090e-01 3.55190e-04 2.96980e-02 3.44110e-04 1.24710e-04 6.54080e-02 1.07530e-01 3.33090e-04 2.88610e-02 3.36590e-04 1.20350e-04 6.30090e-02 1.02140e-01 3.11450e-04 2.80010e-02 3.29040e-04 1.16110e-04 6.06350e-02 9.68990e-02 2.90270e-04 2.71230e-02 3.21480e-04 1.12000e-04 5.82870e-02 9.18200e-02 2.69570e-04 2.62280e-02 3.13890e-04 1.08000e-04 5.59700e-02 8.80020e-02 2.90580e-04 2.51220e-02 2.49170e-04 2.00650e-04 5.36750e-02 8.53240e-02 3.49650e-04 2.38590e-02 1.28070e-04 3.84390e-04 5.14440e-02 7.75090e-02 2.10350e-04 2.34710e-02 2.91050e-04 9.66350e-05 4.92160e-02 7.30390e-02 1.91590e-04 2.25370e-02 2.83410e-04 9.30350e-05 4.70370e-02 6.59200e-02 6.76370e-05 2.18590e-02 1.24080e-04 3.19420e-04 4.46760e-02 6.18250e-02 5.18100e-05 2.09420e-02 2.63410e-04 8.42100e-05 4.26040e-02 6.05020e-02 1.38250e-04 1.97180e-02 2.60450e-04 8.27190e-05 4.07470e-02 5.66060e-02 1.21460e-04 1.87810e-02 2.52790e-04 7.94240e-05 3.87360e-02 5.28500e-02 1.05170e-04 1.78480e-02 2.45140e-04 7.61910e-05 3.67700e-02 4.92310e-02 8.93890e-05 1.69200e-02 2.37490e-04 7.30160e-05 3.48510e-02 4.57480e-02 7.41060e-05 1.60010e-02 2.29840e-04 6.98930e-05 3.29790e-02 4.23990e-02 5.93280e-05 1.50900e-02 2.22200e-04 6.68180e-05 3.11560e-02 3.91830e-02 4.50550e-05 1.41910e-02 2.14580e-04 6.37850e-05 2.93810e-02 3.60980e-02 3.12860e-05 1.33030e-02 2.06960e-04 6.07900e-05 2.76570e-02 3.31440e-02 1.80230e-05 1.24300e-02 1.99360e-04 5.78280e-05 2.59840e-02 3.03180e-02 5.26490e-06 1.15710e-02 1.91770e-04 5.48950e-05 2.43620e-02 2.76210e-02 -6.98970e-06 1.07280e-02 1.84200e-04 5.19860e-05 2.27930e-02 2.65640e-02 4.83190e-05 9.98870e-03 1.81430e-04 5.10500e-05 2.16460e-02 2.26060e-02 -2.99990e-05 9.09420e-03 1.69110e-04 4.62220e-05 1.98120e-02 2.02860e-02 -4.07640e-05 8.30540e-03 1.61590e-04 4.33580e-05 1.84010e-02 1.80910e-02 -5.10500e-05 7.53650e-03 1.54090e-04 4.04990e-05 1.70450e-02 1.60200e-02 -6.08700e-05 6.78820e-03 1.46590e-04 3.76390e-05 1.57420e-02 1.40720e-02 -7.02510e-05 6.06130e-03 1.39090e-04 3.47720e-05 1.44940e-02 1.22460e-02 -7.92210e-05 5.35630e-03 1.31580e-04 3.18920e-05 1.33010e-02 1.05410e-02 -8.78310e-05 4.67400e-03 1.24030e-04 2.89890e-05 1.21630e-02 8.95890e-03 -9.61360e-05 4.01480e-03 1.16400e-04 2.60540e-05 1.10790e-02 8.27110e-03 -6.33100e-05 3.58090e-03 1.13650e-04 2.51760e-05 1.03990e-02 6.86200e-03 -8.41020e-05 2.94870e-03 7.87550e-05 4.76610e-05 9.39550e-03 4.93740e-03 -1.20090e-04 2.18040e-03 9.25420e-05 1.69170e-05 8.16080e-03 3.83870e-03 -1.28040e-04 1.61800e-03 8.39970e-05 1.37070e-05 7.29870e-03 2.86100e-03 -1.36060e-04 1.08040e-03 7.50120e-05 1.03860e-05 6.49190e-03 2.00480e-03 -1.43950e-04 5.68070e-04 6.55320e-05 6.94370e-06 5.74030e-03 9.25500e-04 -1.75230e-04 -1.27640e-04 4.97940e-05 1.04860e-06 4.76620e-03 6.58100e-04 -1.56900e-04 -3.80590e-04 4.53690e-05 -2.73070e-07 4.40010e-03 1.67730e-04 -1.58830e-04 -8.16720e-04 3.53020e-05 -3.95620e-06 3.80900e-03 -2.01970e-04 -1.53650e-04 -1.22730e-03 2.61780e-05 -7.52930e-06 3.26710e-03 -4.55410e-04 -1.36720e-04 -1.61280e-03 1.89080e-05 -1.09080e-05 2.76990e-03 -6.04260e-04 -1.08060e-04 -1.97750e-03 1.40400e-05 -1.43630e-05 2.31450e-03 -6.69610e-04 -8.40920e-05 -2.27960e-03 8.81530e-06 -1.81580e-05 1.97170e-03 -7.13050e-04 -1.80510e-04 -2.78780e-03 2.75680e-06 -2.62180e-05 1.64590e-03 -7.15380e-04 -2.72620e-04 -3.07770e-03 4.23900e-06 -3.32300e-05 1.58330e-03 6.52630e-01 4.35070e-01 4.17550e-01 -4.07100e-02 -9.08980e-04 6.03680e-02 7.13360e-01 2.80770e-01 2.36050e-01 -3.45320e-02 -2.86200e-04 7.98570e-02 7.40730e-01 8.05360e-02 2.56270e-02 -1.98970e-02 1.17590e-03 8.53150e-02 7.11590e-01 2.20830e-02 -2.06980e-02 -7.84750e-03 2.74670e-03 7.29980e-02 6.83200e-01 1.40350e-02 -1.99320e-02 -2.14200e-03 3.69390e-03 7.67140e-02 7.56810e-01 2.89700e-02 5.74650e-03 1.31650e-03 2.01450e-03 8.74990e-02 6.56530e-01 1.20750e-02 -6.89220e-03 1.85970e-03 3.38710e-03 9.26710e-02 6.22690e-01 4.89300e-03 -1.08620e-02 1.84470e-03 3.41810e-03 9.12060e-02 6.05900e-01 3.34270e-03 -8.45100e-03 2.03310e-03 2.99000e-03 9.57180e-02 5.90230e-01 2.83810e-03 -5.61150e-03 2.05750e-03 2.55550e-03 1.00110e-01 5.74630e-01 2.01630e-03 -3.23330e-03 1.94240e-03 2.18580e-03 1.04190e-01 5.59660e-01 1.89280e-03 -4.85660e-04 1.81810e-03 1.86540e-03 1.08000e-01 5.44690e-01 1.48610e-03 1.96050e-03 1.66880e-03 1.61060e-03 1.11450e-01 5.04760e-01 -2.98010e-03 -2.61920e-04 1.46750e-03 1.49940e-03 1.10070e-01 4.39250e-01 -1.30940e-02 -8.54720e-03 1.16270e-03 1.50620e-03 1.03820e-01 5.01470e-01 1.30510e-03 9.54840e-03 1.35260e-03 1.11370e-03 1.19690e-01 4.87400e-01 1.18850e-03 1.18730e-02 1.28070e-03 1.01450e-03 1.21720e-01 4.73610e-01 1.20650e-03 1.41980e-02 1.22670e-03 9.35220e-04 1.23410e-01 4.59970e-01 1.13350e-03 1.63640e-02 1.18110e-03 8.72450e-04 1.24780e-01 4.38120e-01 7.53430e-04 2.14290e-02 1.13550e-03 8.09670e-04 1.31860e-01 4.33380e-01 1.08870e-03 2.04610e-02 1.11480e-03 7.77900e-04 1.26600e-01 4.20420e-01 1.08470e-03 2.23630e-02 1.08940e-03 7.40930e-04 1.27090e-01 4.07670e-01 1.04580e-03 2.41330e-02 1.06640e-03 7.08630e-04 1.27330e-01 3.95170e-01 1.03470e-03 2.58110e-02 1.04630e-03 6.79450e-04 1.27310e-01 3.82880e-01 1.00230e-03 2.73640e-02 1.02760e-03 6.52820e-04 1.27080e-01 3.62900e-01 7.16880e-04 3.16880e-02 1.00420e-03 6.23390e-04 1.30950e-01 3.59020e-01 9.57620e-04 3.01500e-02 9.94190e-04 6.04650e-04 1.25970e-01 3.47450e-01 9.38610e-04 3.13780e-02 9.78880e-04 5.82500e-04 1.25130e-01 3.36110e-01 9.11570e-04 3.24910e-02 9.64070e-04 5.61410e-04 1.24120e-01 3.25010e-01 8.90440e-04 3.34990e-02 9.49870e-04 5.41210e-04 1.22940e-01 3.14140e-01 8.64400e-04 3.43960e-02 9.35980e-04 5.21850e-04 1.21620e-01 3.03500e-01 8.41920e-04 3.51890e-02 9.22460e-04 5.03230e-04 1.20150e-01 2.93100e-01 8.16490e-04 3.58760e-02 9.09110e-04 4.85320e-04 1.18570e-01 2.89890e-01 1.00980e-03 3.40690e-02 9.02530e-04 4.71710e-04 1.14250e-01 2.73000e-01 7.68230e-04 3.69500e-02 8.82910e-04 4.51480e-04 1.15040e-01 2.63290e-01 7.44610e-04 3.73410e-02 8.69940e-04 4.35480e-04 1.13130e-01 2.53810e-01 7.20010e-04 3.76380e-02 8.57000e-04 4.20050e-04 1.11130e-01 2.44560e-01 6.96330e-04 3.78450e-02 8.44070e-04 4.05180e-04 1.09050e-01 2.35520e-01 6.72160e-04 3.79650e-02 8.31130e-04 3.90840e-04 1.06900e-01 2.26710e-01 6.48640e-04 3.80010e-02 8.18170e-04 3.77020e-04 1.04690e-01 2.24080e-01 8.11530e-04 3.60950e-02 8.12510e-04 3.67100e-04 1.00890e-01 2.09720e-01 6.01720e-04 3.78350e-02 7.92120e-04 3.50810e-04 1.00100e-01 2.01550e-01 5.78510e-04 3.76400e-02 7.79020e-04 3.38400e-04 9.77390e-02 1.93580e-01 5.55740e-04 3.73760e-02 7.65880e-04 3.26430e-04 9.53420e-02 1.85810e-01 5.33090e-04 3.70460e-02 7.52670e-04 3.14870e-04 9.29160e-02 1.78250e-01 5.10830e-04 3.66530e-02 7.39420e-04 3.03720e-04 9.04660e-02 1.72590e-01 5.24650e-04 3.58200e-02 7.98790e-04 1.05610e-04 8.77790e-02 1.68700e-01 5.73770e-04 3.46220e-02 9.31240e-04 -2.71830e-04 8.49490e-02 1.56730e-01 4.45670e-04 3.51380e-02 6.99340e-04 2.72560e-04 8.30290e-02 1.49930e-01 4.24620e-04 3.45320e-02 6.85890e-04 2.62880e-04 8.05360e-02 1.43330e-01 4.03870e-04 3.38820e-02 6.72390e-04 2.53540e-04 7.80450e-02 1.36900e-01 3.83490e-04 3.31900e-02 6.58850e-04 2.44510e-04 7.55580e-02 1.26350e-01 2.18270e-04 3.34430e-02 6.36920e-04 2.32420e-04 7.34620e-02 1.24580e-01 3.43760e-04 3.16980e-02 6.31680e-04 2.27360e-04 7.06150e-02 1.18680e-01 3.24440e-04 3.09040e-02 6.18040e-04 2.19210e-04 6.81650e-02 1.12950e-01 3.05500e-04 3.00810e-02 6.04380e-04 2.11330e-04 6.57340e-02 1.07380e-01 2.86930e-04 2.92340e-02 5.90700e-04 2.03700e-04 6.33250e-02 1.01980e-01 2.68750e-04 2.83650e-02 5.77010e-04 1.96310e-04 6.09410e-02 9.67470e-02 2.50960e-04 2.74760e-02 5.63300e-04 1.89150e-04 5.85850e-02 9.16670e-02 2.33560e-04 2.65720e-02 5.49580e-04 1.82210e-04 5.62580e-02 9.00310e-02 3.35450e-04 2.51410e-02 5.44580e-04 1.78870e-04 5.40010e-02 8.19750e-02 1.99970e-04 2.47240e-02 5.22130e-04 1.68930e-04 5.17030e-02 7.73570e-02 1.83770e-04 2.37860e-02 5.08410e-04 1.62570e-04 4.94790e-02 7.28880e-02 1.67990e-04 2.28430e-02 4.94700e-04 1.56380e-04 4.72930e-02 6.85660e-02 1.52620e-04 2.18950e-02 4.81000e-04 1.50350e-04 4.51460e-02 6.16790e-02 3.46150e-05 2.12250e-02 4.58460e-04 1.41030e-04 4.28400e-02 6.03560e-02 1.23110e-04 1.99960e-02 4.53640e-04 1.38730e-04 4.09790e-02 5.64640e-02 1.08980e-04 1.90500e-02 4.39990e-04 1.33120e-04 3.89610e-02 5.27110e-02 9.52730e-05 1.81070e-02 4.26370e-04 1.27630e-04 3.69880e-02 4.90960e-02 8.19850e-05 1.71710e-02 4.12770e-04 1.22250e-04 3.50620e-02 4.56160e-02 6.91170e-05 1.62430e-02 3.99210e-04 1.16970e-04 3.31840e-02 4.22720e-02 5.66730e-05 1.53230e-02 3.85690e-04 1.11780e-04 3.13540e-02 3.90600e-02 4.46530e-05 1.44150e-02 3.72200e-04 1.06680e-04 2.95730e-02 3.59800e-02 3.30570e-05 1.35190e-02 3.58760e-04 1.01640e-04 2.78430e-02 3.30310e-02 2.18850e-05 1.26370e-02 3.45360e-04 9.66740e-05 2.61630e-02 3.02100e-02 1.11390e-05 1.17700e-02 3.32000e-04 9.17590e-05 2.45350e-02 2.75180e-02 8.15660e-07 1.09190e-02 3.18700e-04 8.68900e-05 2.29590e-02 2.64650e-02 5.74240e-05 1.01750e-02 3.14400e-04 8.56590e-05 2.18100e-02 2.25150e-02 -1.85660e-05 9.26840e-03 2.92240e-04 7.72580e-05 1.99660e-02 2.02020e-02 -2.76320e-05 8.47140e-03 2.79080e-04 7.24760e-05 1.85500e-02 1.80130e-02 -3.62920e-05 7.69440e-03 2.65970e-04 6.77050e-05 1.71880e-02 1.59480e-02 -4.45560e-05 6.93810e-03 2.52900e-04 6.29340e-05 1.58790e-02 1.40050e-02 -5.24420e-05 6.20320e-03 2.39840e-04 5.81520e-05 1.46260e-02 1.21860e-02 -5.99730e-05 5.49040e-03 2.26780e-04 5.33460e-05 1.34270e-02 1.04880e-02 -6.71860e-05 4.80020e-03 2.13680e-04 4.84990e-05 1.22820e-02 8.91200e-03 -7.41230e-05 4.13320e-03 2.00480e-04 4.35930e-05 1.11930e-02 7.71020e-03 -6.14130e-05 3.57720e-03 1.91650e-04 2.87800e-05 1.02930e-02 6.80790e-03 -3.16040e-05 3.13730e-03 1.88140e-04 6.74380e-06 9.57110e-03 4.90870e-03 -9.39560e-05 2.27590e-03 1.59330e-04 2.82680e-05 8.25730e-03 3.81530e-03 -1.00490e-04 1.70590e-03 1.44620e-04 2.28490e-05 7.38910e-03 2.84220e-03 -1.07070e-04 1.16090e-03 1.29140e-04 1.72110e-05 6.57590e-03 1.98960e-03 -1.13610e-04 6.41100e-04 1.12740e-04 1.13200e-05 5.81760e-03 9.14060e-04 -1.43380e-04 -6.54340e-05 8.45870e-05 7.87740e-07 4.83280e-03 6.46910e-04 -1.24850e-04 -3.22210e-04 7.73300e-05 -1.24380e-06 4.46270e-03 1.57100e-04 -1.27080e-04 -7.65660e-04 5.92790e-05 -7.75060e-06 3.86360e-03 -2.12700e-04 -1.23680e-04 -1.18400e-03 4.25800e-05 -1.40860e-05 3.31370e-03 -4.66050e-04 -1.09860e-04 -1.57770e-03 2.95340e-05 -1.96890e-05 2.80870e-03 -6.14500e-04 -8.31220e-05 -1.95130e-03 2.17380e-05 -2.45740e-05 2.34520e-03 -6.83510e-04 -6.39640e-05 -2.32550e-03 1.82770e-05 -3.06440e-05 1.93560e-03 -7.17180e-04 -1.61140e-04 -2.78630e-03 1.91540e-05 -4.01140e-05 1.65780e-03 -7.16430e-04 -2.50380e-04 -3.08220e-03 2.23670e-05 -4.88270e-05 1.59310e-03 6.48550e-01 4.10080e-01 3.97540e-01 -7.41870e-02 -1.35300e-03 4.80260e-02 7.15830e-01 2.50690e-01 2.22760e-01 -5.68850e-02 -4.46450e-04 6.82980e-02 7.38840e-01 5.08350e-02 1.56220e-02 -2.22300e-02 1.60350e-03 7.55010e-02 6.99970e-01 7.89570e-03 -2.36760e-02 -3.77440e-03 3.78590e-03 6.45460e-02 6.74350e-01 8.41520e-03 -1.81500e-02 -2.98050e-04 4.92750e-03 6.99080e-02 6.79850e-01 1.38640e-02 -5.75100e-03 3.05530e-03 4.27540e-03 8.40660e-02 6.50580e-01 8.35710e-03 -8.83820e-03 2.19790e-03 4.37280e-03 8.33870e-02 6.19560e-01 2.68490e-03 -1.08310e-02 2.56040e-03 4.23010e-03 8.81630e-02 6.04170e-01 1.85960e-03 -8.05750e-03 2.67230e-03 3.65310e-03 9.38000e-02 5.89480e-01 1.61090e-03 -5.16430e-03 2.57590e-03 3.13370e-03 9.91290e-02 5.74650e-01 1.06540e-03 -2.57420e-03 2.42000e-03 2.69140e-03 1.03930e-01 5.60180e-01 1.05640e-03 2.74840e-04 2.22940e-03 2.32560e-03 1.08290e-01 5.45580e-01 7.58980e-04 2.84750e-03 2.04950e-03 2.03420e-03 1.12140e-01 5.05840e-01 -3.59860e-03 6.82360e-04 1.77270e-03 1.98490e-03 1.11050e-01 4.40480e-01 -1.34450e-02 -7.46120e-03 1.42150e-03 2.15350e-03 1.05090e-01 5.02740e-01 6.91280e-04 1.06240e-02 1.65370e-03 1.47230e-03 1.21010e-01 4.88670e-01 6.00510e-04 1.29870e-02 1.56630e-03 1.35910e-03 1.23120e-01 4.74840e-01 6.30930e-04 1.53320e-02 1.49870e-03 1.26680e-03 1.24870e-01 4.61140e-01 5.75960e-04 1.75150e-02 1.44130e-03 1.19300e-03 1.26260e-01 4.39190e-01 2.17640e-04 2.26030e-02 1.38510e-03 1.11820e-03 1.33340e-01 4.34400e-01 5.56880e-04 2.16210e-02 1.35510e-03 1.07770e-03 1.28080e-01 4.21360e-01 5.63700e-04 2.35200e-02 1.32120e-03 1.03090e-03 1.28560e-01 4.08530e-01 5.38390e-04 2.52860e-02 1.28980e-03 9.89430e-04 1.28770e-01 3.95950e-01 5.38490e-04 2.69560e-02 1.26220e-03 9.51010e-04 1.28730e-01 3.83580e-01 5.18990e-04 2.85010e-02 1.23590e-03 9.15560e-04 1.28460e-01 3.63480e-01 2.47080e-04 3.28140e-02 1.20330e-03 8.75860e-04 1.32300e-01 3.59570e-01 4.98260e-04 3.12640e-02 1.18880e-03 8.50080e-04 1.27300e-01 3.47920e-01 4.90890e-04 3.24800e-02 1.16710e-03 8.19480e-04 1.26430e-01 3.36510e-01 4.76200e-04 3.35800e-02 1.14600e-03 7.90210e-04 1.25380e-01 3.25340e-01 4.66840e-04 3.45740e-02 1.12600e-03 7.61920e-04 1.24180e-01 3.14410e-01 4.53000e-04 3.54570e-02 1.10620e-03 7.34680e-04 1.22820e-01 3.03720e-01 4.42340e-04 3.62360e-02 1.08720e-03 7.08320e-04 1.21330e-01 2.93260e-01 4.28960e-04 3.69080e-02 1.06850e-03 6.82880e-04 1.19710e-01 2.90020e-01 6.32880e-04 3.50900e-02 1.05940e-03 6.63540e-04 1.15370e-01 2.73060e-01 4.04370e-04 3.79510e-02 1.03200e-03 6.34430e-04 1.16130e-01 2.63310e-01 3.92410e-04 3.83270e-02 1.01420e-03 6.11370e-04 1.14180e-01 2.53790e-01 3.79490e-04 3.86070e-02 9.96500e-04 5.89080e-04 1.12160e-01 2.44490e-01 3.67300e-04 3.87980e-02 9.79000e-04 5.67500e-04 1.10050e-01 2.35420e-01 3.54560e-04 3.89010e-02 9.61580e-04 5.46620e-04 1.07870e-01 2.26570e-01 3.42290e-04 3.89210e-02 9.44300e-04 5.26420e-04 1.05630e-01 2.23930e-01 5.14850e-04 3.70050e-02 9.37270e-04 5.12080e-04 1.01810e-01 2.09530e-01 3.17540e-04 3.87210e-02 9.09960e-04 4.87990e-04 1.00990e-01 2.01330e-01 3.05210e-04 3.85100e-02 8.92890e-04 4.69710e-04 9.85990e-02 1.93340e-01 2.93140e-04 3.82290e-02 8.75890e-04 4.52030e-04 9.61770e-02 1.85550e-01 2.81060e-04 3.78820e-02 8.58950e-04 4.34940e-04 9.37270e-02 1.77970e-01 2.69200e-04 3.74720e-02 8.42060e-04 4.18420e-04 9.12540e-02 1.70590e-01 2.57390e-04 3.70040e-02 8.25210e-04 4.02440e-04 8.87630e-02 1.68390e-01 4.06100e-04 3.51600e-02 8.19310e-04 3.92160e-04 8.54990e-02 1.56410e-01 2.34270e-04 3.59060e-02 7.91680e-04 3.72080e-04 8.37500e-02 1.49600e-01 2.22950e-04 3.52840e-02 7.74990e-04 3.57660e-04 8.12370e-02 1.42990e-01 2.11770e-04 3.46170e-02 7.58350e-04 3.43730e-04 7.87250e-02 1.36550e-01 2.00780e-04 3.39090e-02 7.41760e-04 3.30260e-04 7.62180e-02 1.26000e-01 4.70250e-05 3.41380e-02 7.14000e-04 3.12110e-04 7.40940e-02 1.24220e-01 1.79320e-04 3.23840e-02 7.08740e-04 3.04680e-04 7.12370e-02 1.18320e-01 1.68860e-04 3.15730e-02 6.92310e-04 2.92520e-04 6.87690e-02 1.12590e-01 1.58600e-04 3.07350e-02 6.75930e-04 2.80780e-04 6.63210e-02 1.07020e-01 1.48530e-04 2.98710e-02 6.59620e-04 2.69430e-04 6.38950e-02 1.01620e-01 1.38670e-04 2.89860e-02 6.43360e-04 2.58450e-04 6.14940e-02 9.63860e-02 1.29000e-04 2.80820e-02 6.27170e-04 2.47830e-04 5.91220e-02 9.13090e-02 1.19550e-04 2.71620e-02 6.11030e-04 2.37570e-04 5.67790e-02 8.96740e-02 2.26920e-04 2.57220e-02 6.06520e-04 2.32740e-04 5.45140e-02 8.16250e-02 1.01280e-04 2.52830e-02 5.78970e-04 2.18010e-04 5.21940e-02 7.70120e-02 9.24740e-05 2.43300e-02 5.63040e-04 2.08690e-04 4.99560e-02 7.25500e-02 8.38840e-05 2.33710e-02 5.47180e-04 1.99670e-04 4.77550e-02 6.82350e-02 7.55140e-05 2.24080e-02 5.31400e-04 1.90910e-04 4.55950e-02 6.13590e-02 -3.34970e-05 2.17180e-02 5.04030e-04 1.77330e-04 4.32690e-02 6.00410e-02 5.94470e-05 2.04800e-02 5.00070e-04 1.74180e-04 4.14020e-02 5.61580e-02 5.17510e-05 1.95190e-02 4.84520e-04 1.66170e-04 3.93710e-02 5.24140e-02 4.42830e-05 1.85620e-02 4.69050e-04 1.58390e-04 3.73860e-02 4.88090e-02 3.70440e-05 1.76110e-02 4.53670e-04 1.50810e-04 3.54470e-02 4.53400e-02 3.00330e-05 1.66690e-02 4.38370e-04 1.43430e-04 3.35570e-02 4.20060e-02 2.32540e-05 1.57350e-02 4.23160e-04 1.36230e-04 3.17150e-02 3.88060e-02 1.67060e-05 1.48130e-02 4.08040e-04 1.29210e-04 2.99230e-02 3.57370e-02 1.03900e-05 1.39030e-02 3.93010e-04 1.22340e-04 2.81810e-02 3.28000e-02 4.30600e-06 1.30070e-02 3.78070e-04 1.15620e-04 2.64900e-02 2.99920e-02 -1.54560e-06 1.21260e-02 3.63220e-04 1.09040e-04 2.48510e-02 2.73120e-02 -7.16590e-06 1.12610e-02 3.48460e-04 1.02580e-04 2.32640e-02 2.62650e-02 5.23110e-05 1.05090e-02 3.45510e-04 1.01350e-04 2.21090e-02 2.23340e-02 -1.77140e-05 9.58300e-03 3.19220e-04 8.99870e-05 2.02500e-02 2.00340e-02 -2.26470e-05 8.77250e-03 3.04740e-04 8.38300e-05 1.88230e-02 1.78590e-02 -2.73570e-05 7.98200e-03 2.90330e-04 7.77490e-05 1.74500e-02 1.58070e-02 -3.18500e-05 7.21220e-03 2.76000e-04 7.17320e-05 1.61310e-02 1.38780e-02 -3.61390e-05 6.46390e-03 2.61730e-04 6.57620e-05 1.48670e-02 1.20720e-02 -4.02310e-05 5.73770e-03 2.47480e-04 5.98240e-05 1.36580e-02 1.03880e-02 -4.41520e-05 5.03420e-03 2.33230e-04 5.38980e-05 1.25030e-02 8.82560e-03 -4.79220e-05 4.35390e-03 2.18900e-04 4.79600e-05 1.14040e-02 7.38390e-03 -5.15820e-05 3.69740e-03 2.04410e-04 4.19810e-05 1.03590e-02 6.75250e-03 -1.86900e-05 3.28100e-03 2.01820e-04 4.13030e-05 9.71720e-03 4.86120e-03 -5.87470e-05 2.45690e-03 1.74410e-04 2.97500e-05 8.43580e-03 3.77960e-03 -6.23530e-05 1.87380e-03 1.58540e-04 2.34010e-05 7.55660e-03 2.81710e-03 -6.60460e-05 1.31560e-03 1.41770e-04 1.68180e-05 6.73200e-03 1.97360e-03 -6.97920e-05 7.82740e-04 1.23880e-04 9.93200e-06 5.96160e-03 9.07950e-04 -9.63300e-05 5.67840e-05 9.07790e-05 -3.20590e-06 4.95780e-03 6.42450e-04 -7.66960e-05 -2.06950e-04 8.42980e-05 -4.94310e-06 4.58000e-03 1.54240e-04 -7.85550e-05 -6.63980e-04 6.32530e-05 -1.28300e-05 3.96600e-03 -2.16460e-04 -7.68620e-05 -1.09610e-03 4.30820e-05 -2.05210e-05 3.40020e-03 -4.72650e-04 -6.85690e-05 -1.50530e-03 2.67410e-05 -2.69830e-05 2.87960e-03 -6.22690e-04 -4.81910e-05 -1.89430e-03 1.91960e-05 -3.02550e-05 2.40160e-03 -6.92850e-04 -2.55910e-05 -2.28400e-03 1.96650e-05 -3.17900e-05 1.97500e-03 -7.28520e-04 -1.13080e-04 -2.77070e-03 2.12210e-05 -3.87840e-05 1.67950e-03 -7.27940e-04 -1.95720e-04 -3.08650e-03 2.15490e-05 -4.92790e-05 1.60810e-03 6.48810e-01 3.59930e-01 3.56270e-01 -1.29750e-01 -9.55780e-04 2.78530e-02 7.11000e-01 1.70770e-01 1.70590e-01 -7.47020e-02 7.92390e-04 4.70070e-02 7.02010e-01 9.62830e-03 -1.27780e-02 -7.11750e-03 1.87520e-03 5.50390e-02 6.73810e-01 2.30210e-03 -2.27990e-02 9.91730e-04 3.33010e-03 5.02020e-02 6.56620e-01 2.61900e-03 -2.12970e-02 1.03800e-03 4.50130e-03 5.89480e-02 6.33440e-01 9.32270e-04 -1.67260e-02 1.60620e-03 4.24720e-03 7.86820e-02 6.27340e-01 1.28030e-03 -1.51490e-02 2.04680e-03 4.08170e-03 7.65430e-02 6.14100e-01 6.56110e-04 -1.21520e-02 2.36460e-03 3.56830e-03 8.47950e-02 6.00810e-01 4.86230e-04 -8.75450e-03 2.35540e-03 3.13790e-03 9.21560e-02 5.87510e-01 3.35980e-04 -5.65560e-03 2.32420e-03 2.73360e-03 9.87420e-02 5.73760e-01 1.29680e-04 -2.62410e-03 2.18400e-03 2.41870e-03 1.04480e-01 5.59970e-01 1.43410e-04 3.88810e-04 2.05290e-03 2.15190e-03 1.09510e-01 5.45830e-01 -4.43650e-07 3.22110e-03 1.90770e-03 1.94690e-03 1.13830e-01 5.06800e-01 -3.97980e-03 1.30630e-03 1.70390e-03 1.92470e-03 1.13130e-01 4.42580e-01 -1.28300e-02 -6.23270e-03 1.41630e-03 2.06610e-03 1.07570e-01 5.03420e-01 7.99880e-06 1.13320e-02 1.58880e-03 1.54190e-03 1.23360e-01 4.89340e-01 -4.51980e-05 1.37750e-02 1.51180e-03 1.45760e-03 1.25550e-01 4.75450e-01 -1.01670e-05 1.61630e-02 1.44780e-03 1.38650e-03 1.27320e-01 4.61670e-01 -4.12270e-05 1.83890e-02 1.39170e-03 1.32760e-03 1.28720e-01 4.39600e-01 -3.81680e-04 2.35270e-02 1.33100e-03 1.26780e-03 1.35790e-01 4.34750e-01 -3.48820e-05 2.25400e-02 1.29860e-03 1.23020e-03 1.30500e-01 4.21610e-01 -1.87710e-05 2.44510e-02 1.25840e-03 1.18820e-03 1.30940e-01 4.08680e-01 -2.87150e-05 2.62270e-02 1.22100e-03 1.14950e-03 1.31110e-01 3.95990e-01 -1.80790e-05 2.79030e-02 1.18590e-03 1.11260e-03 1.31030e-01 3.83530e-01 -2.34980e-05 2.94520e-02 1.15280e-03 1.07750e-03 1.30710e-01 3.63310e-01 -2.83250e-04 3.37730e-02 1.10970e-03 1.03820e-03 1.34480e-01 3.59340e-01 -1.93960e-05 3.22190e-02 1.09110e-03 1.01060e-03 1.29450e-01 3.47620e-01 -1.48520e-05 3.34340e-02 1.06210e-03 9.78530e-04 1.28530e-01 3.36130e-01 -1.63490e-05 3.45330e-02 1.03420e-03 9.47250e-04 1.27430e-01 3.24890e-01 -1.34270e-05 3.55250e-02 1.00730e-03 9.16620e-04 1.26180e-01 3.13890e-01 -1.42110e-05 3.64050e-02 9.81260e-04 8.86700e-04 1.24770e-01 3.03140e-01 -1.23770e-05 3.71800e-02 9.55980e-04 8.57400e-04 1.23230e-01 2.92630e-01 -1.28190e-05 3.78480e-02 9.31480e-04 8.28740e-04 1.21560e-01 2.89360e-01 2.02370e-04 3.60250e-02 9.19710e-04 8.06690e-04 1.17200e-01 2.72330e-01 -1.20180e-05 3.88800e-02 8.84390e-04 7.73260e-04 1.17880e-01 2.62530e-01 -1.14130e-05 3.92500e-02 8.61710e-04 7.46440e-04 1.15900e-01 2.52970e-01 -1.16740e-05 3.95240e-02 8.39610e-04 7.20220e-04 1.13820e-01 2.43640e-01 -1.14090e-05 3.97080e-02 8.17980e-04 6.94600e-04 1.11670e-01 2.34540e-01 -1.16800e-05 3.98040e-02 7.96860e-04 6.69580e-04 1.09450e-01 2.25670e-01 -1.16490e-05 3.98160e-02 7.76180e-04 6.45140e-04 1.07160e-01 2.23010e-01 1.70680e-04 3.78940e-02 7.68480e-04 6.27860e-04 1.03320e-01 2.08580e-01 -1.20830e-05 3.96000e-02 7.36130e-04 5.98040e-04 1.02440e-01 2.00370e-01 -1.24230e-05 3.93800e-02 7.16730e-04 5.75360e-04 1.00010e-01 1.92360e-01 -1.26670e-05 3.90910e-02 6.97710e-04 5.53260e-04 9.75490e-02 1.84570e-01 -1.30430e-05 3.87350e-02 6.79090e-04 5.31730e-04 9.50610e-02 1.76980e-01 -1.33650e-05 3.83160e-02 6.60820e-04 5.10770e-04 9.25500e-02 1.69590e-01 -1.37700e-05 3.78380e-02 6.42920e-04 4.90370e-04 9.00230e-02 1.67390e-01 1.42800e-04 3.59880e-02 6.38150e-04 4.77420e-04 8.67380e-02 1.55410e-01 -1.45700e-05 3.67210e-02 6.08160e-04 4.51240e-04 8.49400e-02 1.48610e-01 -1.49780e-05 3.60890e-02 5.91280e-04 4.32490e-04 8.23930e-02 1.42000e-01 -1.54150e-05 3.54120e-02 5.74730e-04 4.14270e-04 7.98480e-02 1.35570e-01 -1.58410e-05 3.46940e-02 5.58490e-04 3.96580e-04 7.73100e-02 1.25030e-01 -1.55530e-04 3.49100e-02 5.29720e-04 3.72440e-04 7.51420e-02 1.23260e-01 -1.67150e-05 3.31480e-02 5.26920e-04 3.62760e-04 7.22670e-02 1.17370e-01 -1.71530e-05 3.23270e-02 5.11580e-04 3.46610e-04 6.97700e-02 1.11660e-01 -1.75820e-05 3.14780e-02 4.96530e-04 3.30950e-04 6.72930e-02 1.06110e-01 -1.80090e-05 3.06040e-02 4.81750e-04 3.15770e-04 6.48400e-02 1.00730e-01 -1.84260e-05 2.97080e-02 4.67240e-04 3.01070e-04 6.24120e-02 9.55100e-02 -1.88370e-05 2.87930e-02 4.53000e-04 2.86840e-04 6.00130e-02 9.04530e-02 -1.92370e-05 2.78620e-02 4.39020e-04 2.73060e-04 5.76450e-02 8.88300e-02 9.32040e-05 2.64150e-02 4.38090e-04 2.66670e-04 5.53650e-02 8.08120e-02 -2.00060e-05 2.59610e-02 4.11810e-04 2.46820e-04 5.30100e-02 7.62230e-02 -2.03740e-05 2.49970e-02 3.98570e-04 2.34340e-04 5.07470e-02 7.17840e-02 -2.07270e-05 2.40260e-02 3.85560e-04 2.22270e-04 4.85240e-02 6.74940e-02 -2.10680e-05 2.30520e-02 3.72780e-04 2.10600e-04 4.63410e-02 6.06550e-02 -1.18650e-04 2.23450e-02 3.47490e-04 1.92460e-04 4.39830e-02 5.93510e-02 -2.17100e-05 2.11000e-02 3.47890e-04 1.88420e-04 4.21030e-02 5.54940e-02 -2.20100e-05 2.01270e-02 3.35760e-04 1.77890e-04 4.00510e-02 5.17780e-02 -2.22960e-05 1.91580e-02 3.23840e-04 1.67720e-04 3.80450e-02 4.82000e-02 -2.25680e-05 1.81950e-02 3.12120e-04 1.57890e-04 3.60860e-02 4.47590e-02 -2.28260e-05 1.72390e-02 3.00600e-04 1.48390e-04 3.41750e-02 4.14530e-02 -2.30690e-05 1.62930e-02 2.89270e-04 1.39220e-04 3.23130e-02 3.82800e-02 -2.32990e-05 1.53580e-02 2.78120e-04 1.30360e-04 3.05010e-02 3.52410e-02 -2.35150e-05 1.44350e-02 2.67150e-04 1.21800e-04 2.87400e-02 3.23320e-02 -2.37170e-05 1.35260e-02 2.56360e-04 1.13530e-04 2.70300e-02 2.95520e-02 -2.39060e-05 1.26310e-02 2.45740e-04 1.05540e-04 2.53730e-02 2.69010e-02 -2.40830e-05 1.17520e-02 2.35270e-04 9.78140e-05 2.37670e-02 2.58700e-02 3.78790e-05 1.09920e-02 2.37520e-04 9.68470e-05 2.26020e-02 2.19810e-02 -2.44010e-05 1.00460e-02 2.14820e-04 8.31220e-05 2.07160e-02 1.97090e-02 -2.45460e-05 9.22120e-03 2.04810e-04 7.61310e-05 1.92710e-02 1.75620e-02 -2.46820e-05 8.41590e-03 1.94930e-04 6.93620e-05 1.78800e-02 1.55390e-02 -2.48120e-05 7.63110e-03 1.85180e-04 6.28020e-05 1.65440e-02 1.36390e-02 -2.49430e-05 6.86750e-03 1.75530e-04 5.64360e-05 1.52620e-02 1.18610e-02 -2.50730e-05 6.12580e-03 1.65970e-04 5.02510e-05 1.40350e-02 1.02050e-02 -2.52170e-05 5.40640e-03 1.56460e-04 4.42280e-05 1.28630e-02 8.66970e-03 -2.53750e-05 4.71000e-03 1.46960e-04 3.83460e-05 1.17460e-02 7.25510e-03 -2.55690e-05 4.03690e-03 1.37410e-04 3.25830e-05 1.06840e-02 6.63860e-03 8.86700e-06 3.61100e-03 1.40560e-04 3.32390e-05 1.00320e-02 4.78510e-03 -2.61160e-05 2.76250e-03 1.17750e-04 2.12790e-05 8.72530e-03 3.72830e-03 -2.65060e-05 2.16170e-03 1.07360e-04 1.56520e-05 7.82800e-03 2.78920e-03 -2.70240e-05 1.58560e-03 9.63660e-05 9.97070e-06 6.98500e-03 1.96700e-03 -2.76450e-05 1.03430e-03 8.45320e-05 4.15780e-06 6.19540e-03 9.26530e-04 -4.99100e-05 2.80600e-04 5.73500e-05 -8.48690e-06 5.16170e-03 6.67470e-04 -2.91070e-05 5.68790e-06 5.76020e-05 -8.14910e-06 4.77120e-03 1.86750e-04 -2.95130e-05 -4.72230e-04 4.25440e-05 -1.46660e-05 4.13250e-03 -1.84580e-04 -2.89410e-05 -9.27240e-04 2.73620e-05 -2.10690e-05 3.53890e-03 -4.50040e-04 -2.53730e-05 -1.36100e-03 1.42580e-05 -2.62360e-05 2.98750e-03 -6.16340e-04 -1.79440e-05 -1.77970e-03 8.44620e-06 -2.74490e-05 2.47980e-03 -6.94240e-04 1.82950e-06 -2.19070e-03 1.64250e-05 -2.11810e-05 2.02440e-03 -7.27240e-04 -5.29980e-05 -2.69310e-03 2.15890e-05 -1.86670e-05 1.69350e-03 -7.19030e-04 -1.12270e-04 -3.02510e-03 1.81040e-05 -2.55990e-05 1.60610e-03 6.98380e-01 3.26930e-01 3.22880e-01 -1.90830e-01 1.55960e-03 4.92110e-03 7.12630e-01 1.11470e-01 1.22400e-01 -7.85140e-02 5.38260e-03 2.27480e-02 6.54820e-01 -5.36920e-03 -3.05250e-02 1.11700e-02 3.24560e-03 3.39860e-02 6.60660e-01 5.17350e-03 -2.03470e-02 -1.39980e-03 4.28830e-03 3.65340e-02 6.44550e-01 -9.15650e-04 -2.78200e-02 2.50810e-03 5.17320e-03 4.92700e-02 6.28370e-01 -5.35210e-03 -2.39070e-02 1.79370e-03 4.99220e-03 7.47030e-02 6.22630e-01 -1.57870e-04 -1.86020e-02 1.84690e-03 4.80770e-03 7.31020e-02 6.11890e-01 3.28080e-04 -1.37300e-02 1.47660e-03 4.39850e-03 8.32350e-02 5.99330e-01 -3.06310e-04 -1.08550e-02 1.96300e-03 4.14530e-03 9.19550e-02 5.87160e-01 -1.15300e-04 -6.97800e-03 1.77900e-03 3.84520e-03 9.94840e-02 5.73810e-01 -4.37780e-04 -3.96970e-03 1.86670e-03 3.64760e-03 1.05880e-01 5.60470e-01 -3.14720e-04 -5.72140e-04 1.71760e-03 3.44500e-03 1.11370e-01 5.46470e-01 -4.79870e-04 2.35320e-03 1.68290e-03 3.30080e-03 1.16000e-01 5.07850e-01 -3.99180e-03 1.10910e-03 1.51020e-03 3.10570e-03 1.15470e-01 4.44190e-01 -1.21160e-02 -5.53000e-03 1.40190e-03 2.87710e-03 1.10050e-01 5.04150e-01 -4.09740e-04 1.09120e-02 1.41950e-03 2.94980e-03 1.25910e-01 4.90000e-01 -4.50920e-04 1.34370e-02 1.36070e-03 2.86450e-03 1.28130e-01 4.76040e-01 -4.04540e-04 1.59120e-02 1.29160e-03 2.78190e-03 1.29910e-01 4.62170e-01 -4.22900e-04 1.82020e-02 1.23830e-03 2.70890e-03 1.31290e-01 4.39970e-01 -7.61700e-04 2.34190e-02 1.17780e-03 2.62620e-03 1.38320e-01 4.35060e-01 -3.94900e-04 2.24670e-02 1.13230e-03 2.57070e-03 1.33010e-01 4.21840e-01 -3.69420e-04 2.44260e-02 1.08210e-03 2.50470e-03 1.33420e-01 4.08820e-01 -3.68290e-04 2.62450e-02 1.03780e-03 2.44150e-03 1.33540e-01 3.96050e-01 -3.48310e-04 2.79610e-02 9.93000e-04 2.37850e-03 1.33420e-01 3.83500e-01 -3.43340e-04 2.95460e-02 9.52410e-04 2.31720e-03 1.33060e-01 3.63170e-01 -5.96070e-04 3.39140e-02 9.01690e-04 2.24400e-03 1.36760e-01 3.59160e-01 -3.20050e-04 3.23800e-02 8.74770e-04 2.19620e-03 1.31700e-01 3.47370e-01 -3.06270e-04 3.36250e-02 8.38160e-04 2.13660e-03 1.30730e-01 3.35810e-01 -2.98320e-04 3.47530e-02 8.04090e-04 2.07790e-03 1.29590e-01 3.24510e-01 -2.86350e-04 3.57710e-02 7.70850e-04 2.01960e-03 1.28280e-01 3.13460e-01 -2.78060e-04 3.66760e-02 7.39700e-04 1.96220e-03 1.26830e-01 3.02650e-01 -2.67420e-04 3.74750e-02 7.09480e-04 1.90530e-03 1.25240e-01 2.92090e-01 -2.59140e-04 3.81650e-02 6.81010e-04 1.84920e-03 1.23520e-01 2.88800e-01 -3.59640e-05 3.63550e-02 6.65530e-04 1.80770e-03 1.19130e-01 2.71710e-01 -2.41460e-04 3.92370e-02 6.27500e-04 1.73910e-03 1.19750e-01 2.61880e-01 -2.32670e-04 3.96240e-02 6.02460e-04 1.68520e-03 1.17710e-01 2.52280e-01 -2.24920e-04 3.99150e-02 5.78700e-04 1.63200e-03 1.15590e-01 2.42930e-01 -2.16820e-04 4.01150e-02 5.55890e-04 1.57970e-03 1.13400e-01 2.33800e-01 -2.09430e-04 4.02250e-02 5.34210e-04 1.52810e-03 1.11130e-01 2.24900e-01 -2.01900e-04 4.02500e-02 5.13420e-04 1.47740e-03 1.08800e-01 2.22230e-01 -1.40880e-05 3.83350e-02 5.05930e-04 1.44210e-03 1.04930e-01 2.07780e-01 -1.87870e-04 4.00570e-02 4.74730e-04 1.37850e-03 1.03990e-01 1.99550e-01 -1.81250e-04 3.98470e-02 4.56720e-04 1.33030e-03 1.01520e-01 1.91540e-01 -1.74680e-04 3.95660e-02 4.39490e-04 1.28300e-03 9.90170e-02 1.83730e-01 -1.68430e-04 3.92180e-02 4.23090e-04 1.23660e-03 9.64880e-02 1.76140e-01 -1.62280e-04 3.88070e-02 4.07430e-04 1.19110e-03 9.39380e-02 1.68750e-01 -1.56380e-04 3.83350e-02 3.92510e-04 1.14640e-03 9.13720e-02 1.66540e-01 4.29900e-06 3.64880e-02 3.90430e-04 1.11730e-03 8.80650e-02 1.54570e-01 -1.45050e-04 3.72290e-02 3.64700e-04 1.05990e-03 8.62130e-02 1.47770e-01 -1.39630e-04 3.66000e-02 3.51760e-04 1.01790e-03 8.36290e-02 1.41160e-01 -1.34390e-04 3.59270e-02 3.39430e-04 9.76910e-04 8.10490e-02 1.34740e-01 -1.29300e-04 3.52110e-02 3.27670e-04 9.36790e-04 7.84750e-02 1.24210e-01 -2.61420e-04 3.54290e-02 3.04360e-04 8.83270e-04 7.62590e-02 1.22440e-01 -1.19590e-04 3.36690e-02 3.05750e-04 8.59270e-04 7.33650e-02 1.16560e-01 -1.14950e-04 3.28480e-02 2.95550e-04 8.21870e-04 7.08350e-02 1.10860e-01 -1.10460e-04 3.19990e-02 2.85810e-04 7.85370e-04 6.83260e-02 1.05320e-01 -1.06100e-04 3.11250e-02 2.76510e-04 7.49760e-04 6.58410e-02 9.99530e-02 -1.01880e-04 3.02280e-02 2.67620e-04 7.15050e-04 6.33830e-02 9.47500e-02 -9.77840e-05 2.93120e-02 2.59130e-04 6.81230e-04 6.09530e-02 8.97090e-02 -9.38180e-05 2.83780e-02 2.51010e-04 6.48300e-04 5.85560e-02 8.80930e-02 2.06880e-05 2.69300e-02 2.55240e-04 6.29710e-04 5.62600e-02 8.01010e-02 -8.62600e-05 2.64720e-02 2.35790e-04 5.85060e-04 5.38640e-02 7.55300e-02 -8.26620e-05 2.55040e-02 2.28640e-04 5.54740e-04 5.15740e-02 7.11100e-02 -7.91790e-05 2.45290e-02 2.21780e-04 5.25270e-04 4.93240e-02 6.68390e-02 -7.58110e-05 2.35500e-02 2.15180e-04 4.96660e-04 4.71150e-02 6.00300e-02 -1.67760e-04 2.28360e-02 1.96820e-04 4.56130e-04 4.47200e-02 5.87370e-02 -6.94100e-05 2.15880e-02 2.02690e-04 4.41960e-04 4.28260e-02 5.49010e-02 -6.63720e-05 2.06090e-02 1.96760e-04 4.15860e-04 4.07490e-02 5.12060e-02 -6.34400e-05 1.96340e-02 1.91030e-04 3.90570e-04 3.87180e-02 4.76500e-02 -6.06120e-05 1.86640e-02 1.85460e-04 3.66100e-04 3.67350e-02 4.42310e-02 -5.78880e-05 1.77010e-02 1.80060e-04 3.42420e-04 3.48010e-02 4.09480e-02 -5.52630e-05 1.67480e-02 1.74780e-04 3.19540e-04 3.29160e-02 3.77990e-02 -5.27380e-05 1.58050e-02 1.69640e-04 2.97440e-04 3.10820e-02 3.47820e-02 -5.03120e-05 1.48730e-02 1.64590e-04 2.76110e-04 2.92990e-02 3.18960e-02 -4.79830e-05 1.39550e-02 1.59650e-04 2.55550e-04 2.75670e-02 2.91400e-02 -4.57490e-05 1.30510e-02 1.54770e-04 2.35750e-04 2.58880e-02 2.65130e-02 -4.36110e-05 1.21620e-02 1.49960e-04 2.16690e-04 2.42620e-02 2.54950e-02 1.90400e-05 1.13970e-02 1.57430e-04 2.09080e-04 2.30840e-02 2.16400e-02 -3.96140e-05 1.04360e-02 1.40470e-04 1.80770e-04 2.11690e-02 1.93920e-02 -3.77570e-05 9.60020e-03 1.35760e-04 1.63890e-04 1.97040e-02 1.72690e-02 -3.59930e-05 8.78370e-03 1.31060e-04 1.47720e-04 1.82930e-02 1.52690e-02 -3.43230e-05 7.98720e-03 1.26340e-04 1.32240e-04 1.69370e-02 1.33920e-02 -3.27480e-05 7.21160e-03 1.21600e-04 1.17450e-04 1.56360e-02 1.16380e-02 -3.12680e-05 6.45730e-03 1.16800e-04 1.03340e-04 1.43900e-02 1.00060e-02 -2.98880e-05 5.72500e-03 1.11930e-04 8.98780e-05 1.31990e-02 8.49390e-03 -2.86080e-05 5.01520e-03 1.06950e-04 7.70640e-05 1.20630e-02 7.10270e-03 -2.74330e-05 4.32830e-03 1.01820e-04 6.48770e-05 1.09830e-02 6.49920e-03 7.37880e-06 3.89430e-03 1.09450e-04 6.22370e-05 1.03200e-02 4.67870e-03 -2.54100e-05 3.02480e-03 9.08270e-05 4.22780e-05 8.98730e-03 3.64430e-03 -2.45710e-05 2.40880e-03 8.47800e-05 3.17970e-05 8.07180e-03 2.72710e-03 -2.38180e-05 1.81690e-03 7.82250e-05 2.18170e-05 7.21040e-03 1.92540e-03 -2.31730e-05 1.24920e-03 7.09410e-05 1.22480e-05 6.40210e-03 9.11540e-04 -4.29380e-05 4.71360e-04 4.86280e-05 -5.23720e-06 5.34040e-03 6.60530e-04 -2.17710e-05 1.85960e-04 5.36300e-05 -5.85780e-06 4.93780e-03 1.91140e-04 -2.03660e-05 -3.10110e-04 4.35750e-05 -1.43740e-05 4.27610e-03 -1.76540e-04 -1.85480e-05 -7.84910e-04 3.25140e-05 -2.24830e-05 3.65580e-03 -4.47040e-04 -1.32700e-05 -1.23820e-03 2.31310e-05 -2.86210e-05 3.07260e-03 -6.31140e-04 -7.49240e-06 -1.67960e-03 1.71640e-05 -3.11920e-05 2.52800e-03 -7.19780e-04 1.20290e-05 -2.10570e-03 3.05530e-05 -2.14990e-05 2.03720e-03 -7.40070e-04 -2.12470e-05 -2.60880e-03 4.24480e-05 -1.06620e-05 1.67630e-03 -7.15780e-04 -6.57490e-05 -2.94320e-03 3.93920e-05 -1.24250e-05 1.57900e-03 4.26010e-01 2.01440e-01 2.03200e-01 1.22920e-01 -7.87650e-03 -4.55410e-02 4.29630e-01 7.01120e-02 7.92590e-02 4.84700e-02 -1.40850e-02 -1.39410e-02 4.02100e-01 -7.70360e-04 -2.11770e-02 -1.22710e-02 -9.89790e-03 2.62850e-02 4.21930e-01 3.31360e-03 -2.26340e-02 -5.04420e-03 -6.96640e-03 4.00580e-02 3.07920e-01 -2.27460e-02 -4.53740e-02 -2.51740e-03 -6.02770e-03 6.19720e-02 3.73070e-01 -9.86760e-03 -3.12120e-02 -2.03630e-03 -5.19860e-03 6.37850e-02 4.00320e-01 -3.36590e-04 -2.11190e-02 -2.07880e-03 -4.52350e-03 6.75770e-02 3.91860e-01 1.73020e-04 -1.65990e-02 -1.41380e-03 -4.04770e-03 7.49540e-02 3.82500e-01 -1.63730e-04 -1.35850e-02 -1.64380e-03 -3.66230e-03 8.13070e-02 3.73560e-01 -1.15920e-04 -9.94150e-03 -1.38680e-03 -3.34440e-03 8.67740e-02 3.64280e-01 -1.83760e-04 -6.80850e-03 -1.41870e-03 -3.08310e-03 9.13680e-02 3.54960e-01 -2.17920e-04 -3.61560e-03 -1.26980e-03 -2.87480e-03 9.51830e-02 3.20320e-01 -4.53100e-03 -5.23730e-03 -1.19630e-03 -2.68340e-03 9.35380e-02 2.60290e-01 -1.36020e-02 -1.18860e-02 -1.05100e-03 -2.49230e-03 8.65070e-02 3.26680e-01 -2.04200e-04 4.91130e-03 -1.08500e-03 -2.45330e-03 1.02870e-01 3.17310e-01 -2.26790e-04 7.45140e-03 -1.01830e-03 -2.36200e-03 1.04450e-01 3.08070e-01 -1.96130e-04 9.86910e-03 -9.69160e-04 -2.28190e-03 1.05670e-01 2.92620e-01 -3.29320e-04 1.53100e-02 -9.11530e-04 -2.20060e-03 1.12810e-01 2.89920e-01 -1.84000e-04 1.42710e-02 -8.72480e-04 -2.15240e-03 1.07160e-01 2.81040e-01 -1.89140e-04 1.62730e-02 -8.28840e-04 -2.09690e-03 1.07510e-01 2.72330e-01 -1.70320e-04 1.81690e-02 -7.87490e-04 -2.04340e-03 1.07640e-01 2.63760e-01 -1.70860e-04 1.99360e-02 -7.48610e-04 -1.99320e-03 1.07560e-01 2.55350e-01 -1.56230e-04 2.16010e-02 -7.10760e-04 -1.94380e-03 1.07310e-01 2.47090e-01 -1.53980e-04 2.31490e-02 -6.75480e-04 -1.89590e-03 1.06880e-01 2.39000e-01 -1.42320e-04 2.45980e-02 -6.41000e-04 -1.84820e-03 1.06300e-01 2.25080e-01 -3.08610e-04 2.88410e-02 -6.03300e-04 -1.79140e-03 1.09750e-01 2.23290e-01 -1.28970e-04 2.71790e-02 -5.77630e-04 -1.75460e-03 1.04720e-01 2.15680e-01 -1.24420e-04 2.83170e-02 -5.48490e-04 -1.70830e-03 1.03740e-01 2.08230e-01 -1.16430e-04 2.93590e-02 -5.20260e-04 -1.66220e-03 1.02650e-01 2.00950e-01 -1.11640e-04 3.03020e-02 -4.93870e-04 -1.61660e-03 1.01460e-01 1.93830e-01 -1.04830e-04 3.11520e-02 -4.68440e-04 -1.57110e-03 1.00170e-01 1.86870e-01 -1.00090e-04 3.19070e-02 -4.44610e-04 -1.52610e-03 9.87870e-02 1.80080e-01 -9.42110e-05 3.25730e-02 -4.21740e-04 -1.48140e-03 9.73270e-02 1.73450e-01 -8.96990e-05 3.31500e-02 -4.00250e-04 -1.43710e-03 9.57940e-02 1.72160e-01 6.91400e-05 3.12760e-02 -3.85020e-04 -1.40420e-03 9.16830e-02 1.60670e-01 -8.03730e-05 3.40480e-02 -3.60360e-04 -1.34990e-03 9.25360e-02 1.54510e-01 -7.58760e-05 3.43740e-02 -3.41920e-04 -1.30710e-03 9.08230e-02 1.48510e-01 -7.20230e-05 3.46220e-02 -3.24550e-04 -1.26470e-03 8.90630e-02 1.42670e-01 -6.80600e-05 3.47940e-02 -3.08040e-04 -1.22290e-03 8.72600e-02 1.41620e-01 7.03290e-05 3.28830e-02 -2.98120e-04 -1.19300e-03 8.35970e-02 1.00610e-01 -5.09200e-03 2.76590e-02 -2.17650e-04 -1.12880e-03 7.33190e-02 1.26030e-01 -5.79140e-05 3.48880e-02 -2.63840e-04 -1.10110e-03 8.16530e-02 1.20780e-01 -5.48230e-05 3.47870e-02 -2.50690e-04 -1.06170e-03 7.97330e-02 1.15660e-01 -5.20020e-05 3.46260e-02 -2.38330e-04 -1.02300e-03 7.77950e-02 1.10690e-01 -4.92740e-05 3.44080e-02 -2.26660e-04 -9.84880e-04 7.58420e-02 1.05860e-01 -4.67620e-05 3.41350e-02 -2.15690e-04 -9.47490e-04 7.38800e-02 1.05040e-01 6.99090e-05 3.23070e-02 -2.11220e-04 -9.22060e-04 7.08260e-02 9.65960e-02 -4.21340e-05 3.34360e-02 -1.95660e-04 -8.74800e-04 6.99390e-02 9.21610e-02 -4.00190e-05 3.30160e-02 -1.86550e-04 -8.39510e-04 6.79670e-02 8.78540e-02 -3.80590e-05 3.25530e-02 -1.78020e-04 -8.04940e-04 6.59970e-02 8.36740e-02 -3.62070e-05 3.20500e-02 -1.70010e-04 -7.71100e-04 6.40340e-02 7.96170e-02 -3.44880e-05 3.15090e-02 -1.62520e-04 -7.37990e-04 6.20780e-02 7.24520e-02 -1.30560e-04 3.20280e-02 -1.49430e-04 -6.94670e-04 6.07560e-02 7.18650e-02 -3.13710e-05 3.03270e-02 -1.48970e-04 -6.73980e-04 5.82020e-02 6.81650e-02 -2.99680e-05 2.96900e-02 -1.42850e-04 -6.43080e-04 5.62860e-02 6.45810e-02 -2.86660e-05 2.90260e-02 -1.37150e-04 -6.12930e-04 5.43870e-02 6.11100e-02 -2.74520e-05 2.83370e-02 -1.31820e-04 -5.83520e-04 5.25070e-02 5.77490e-02 -2.63300e-05 2.76260e-02 -1.26870e-04 -5.54860e-04 5.06480e-02 5.71140e-02 5.72580e-05 2.61650e-02 -1.28570e-04 -5.37330e-04 4.85280e-02 5.13540e-02 -2.43230e-05 2.61470e-02 -1.17950e-04 -4.99750e-04 4.69980e-02 4.83150e-02 -2.34330e-05 2.53830e-02 -1.13960e-04 -4.73310e-04 4.52100e-02 4.53800e-02 -2.26130e-05 2.46050e-02 -1.10240e-04 -4.47600e-04 4.34490e-02 5.36620e-02 1.82500e-03 2.61290e-02 -1.37980e-04 -4.22360e-04 4.54410e-02 4.35330e-02 6.02200e-04 2.37820e-02 -1.14750e-04 -3.98660e-04 4.12320e-02 3.71800e-02 -2.05310e-05 2.22110e-02 -1.00560e-04 -3.74840e-04 3.83350e-02 2.13250e-02 -1.70450e-03 2.03680e-02 -5.71990e-05 -3.32950e-04 3.36700e-02 2.11840e-02 -1.59990e-03 1.92200e-02 -6.06560e-05 -3.19870e-04 3.21520e-02 1.94530e-02 -1.50580e-03 1.85200e-02 -5.94760e-05 -2.98480e-04 3.07540e-02 1.77970e-02 -1.41470e-03 1.78150e-02 -5.84470e-05 -2.77780e-04 2.93850e-02 1.62130e-02 -1.32650e-03 1.71060e-02 -5.75550e-05 -2.57770e-04 2.80430e-02 1.47020e-02 -1.24120e-03 1.63940e-02 -5.67810e-05 -2.38430e-04 2.67310e-02 1.32620e-02 -1.15880e-03 1.56810e-02 -5.61120e-05 -2.19780e-04 2.54470e-02 1.18920e-02 -1.07930e-03 1.49680e-02 -5.55310e-05 -2.01800e-04 2.41930e-02 1.16730e-02 -9.98250e-04 1.41220e-02 -6.03110e-05 -1.92330e-04 2.30850e-02 1.59910e-02 -1.66770e-05 1.40600e-02 -7.91750e-05 -1.78010e-04 2.33810e-02 1.43620e-02 -1.64780e-05 1.32650e-02 -7.75720e-05 -1.62020e-04 2.20780e-02 1.28190e-02 -1.63040e-05 1.24790e-02 -7.60120e-05 -1.46670e-04 2.08100e-02 1.23760e-02 2.54750e-05 1.17400e-02 -8.17250e-05 -1.39760e-04 1.98180e-02 9.98580e-03 -1.60190e-05 1.09360e-02 -7.29740e-05 -1.17880e-04 1.83860e-02 8.69490e-03 -1.59070e-05 1.01800e-02 -7.14720e-05 -1.04410e-04 1.72280e-02 7.48690e-03 -1.58130e-05 9.43490e-03 -6.99640e-05 -9.15550e-05 1.61080e-02 6.36130e-03 -1.57370e-05 8.70230e-03 -6.84370e-05 -7.93010e-05 1.50250e-02 5.31750e-03 -1.56770e-05 7.98240e-03 -6.68760e-05 -6.76400e-05 1.39790e-02 4.35520e-03 -1.56350e-05 7.27580e-03 -6.52650e-05 -5.65620e-05 1.29710e-02 3.47390e-03 -1.56100e-05 6.58290e-03 -6.35820e-05 -4.60590e-05 1.20000e-02 2.67320e-03 -1.56060e-05 5.90430e-03 -6.17990e-05 -3.61200e-05 1.10660e-02 1.95260e-03 -1.56190e-05 5.24040e-03 -5.98850e-05 -2.67360e-05 1.01690e-02 1.31170e-03 -1.56580e-05 4.59150e-03 -5.77870e-05 -1.78930e-05 9.30940e-03 1.09020e-03 5.44790e-06 4.17060e-03 -6.36920e-05 -1.57210e-05 8.77020e-03 2.65940e-04 -1.57940e-05 3.34060e-03 -5.27790e-05 -1.78680e-06 7.70060e-03 -1.41000e-04 -1.58620e-05 2.73950e-03 -4.96880e-05 5.50170e-06 6.95070e-03 -4.73010e-04 -1.59350e-05 2.15520e-03 -4.59920e-05 1.23200e-05 6.23620e-03 -7.32780e-04 -1.58490e-05 1.58860e-03 -4.16280e-05 1.86490e-05 5.55590e-03 -9.24760e-04 -1.56380e-05 1.04020e-03 -3.63140e-05 2.45590e-05 4.90810e-03 -1.12450e-03 -2.39990e-05 2.82420e-04 -2.15500e-05 3.46840e-05 4.03340e-03 -1.13110e-03 -1.31380e-05 1.61800e-06 -2.37960e-05 3.46140e-05 3.69940e-03 -1.16130e-03 -8.47630e-06 -4.87510e-04 -1.95440e-05 3.77220e-05 3.13310e-03 -1.15260e-03 -3.61870e-06 -9.66950e-04 -2.01630e-05 3.91690e-05 2.59390e-03 -1.08090e-03 1.25770e-05 -1.44440e-03 -4.17090e-05 3.52910e-05 2.09320e-03 -9.21760e-04 -2.31610e-05 -2.05090e-03 -6.39030e-05 4.67510e-05 1.67210e-03 -7.85330e-04 -6.75900e-05 -2.46420e-03 -7.03160e-05 7.33560e-05 1.51680e-03 3.97710e-01 2.26820e-01 2.27570e-01 8.58450e-02 -5.21140e-03 -2.23110e-02 4.33200e-01 1.10580e-01 1.14780e-01 4.61140e-02 -1.09690e-02 1.09410e-02 4.35480e-01 1.02680e-02 -4.98890e-03 -2.31450e-03 -1.10820e-02 4.76110e-02 4.29470e-01 1.15600e-03 -2.31320e-02 -7.70300e-03 -8.42230e-03 5.37040e-02 3.05510e-01 -2.94300e-02 -5.02160e-02 -4.84580e-03 -7.52560e-03 6.93360e-02 3.71600e-01 -9.27590e-03 -3.00920e-02 -2.97690e-03 -5.97660e-03 6.87060e-02 3.99940e-01 -2.63130e-05 -1.99570e-02 -2.39430e-03 -4.95610e-03 7.07690e-02 3.90350e-01 -1.70280e-04 -1.68010e-02 -2.04160e-03 -4.16870e-03 7.63200e-02 3.81030e-01 -1.69000e-04 -1.36110e-02 -1.84440e-03 -3.50890e-03 8.14060e-02 3.71640e-01 -3.86550e-04 -1.06060e-02 -1.65490e-03 -2.98000e-03 8.59300e-02 3.62390e-01 -3.08710e-04 -7.49970e-03 -1.50600e-03 -2.54570e-03 8.98930e-02 3.52970e-01 -4.50420e-04 -4.63040e-03 -1.35760e-03 -2.20980e-03 9.32640e-02 3.18510e-01 -4.59730e-03 -6.44410e-03 -1.19310e-03 -1.89850e-03 9.14020e-02 2.58660e-01 -1.37970e-02 -1.37810e-02 -1.02130e-03 -1.59710e-03 8.42860e-02 3.24980e-01 -3.72970e-04 3.62870e-03 -1.05790e-03 -1.57570e-03 1.00390e-01 3.15720e-01 -4.09360e-04 6.09230e-03 -9.89040e-04 -1.45380e-03 1.01920e-01 3.06610e-01 -3.57790e-04 8.48790e-03 -9.34020e-04 -1.35630e-03 1.03120e-01 2.91340e-01 -4.65990e-04 1.39050e-02 -8.80230e-04 -1.26380e-03 1.10270e-01 2.88710e-01 -3.33580e-04 1.28540e-02 -8.45340e-04 -1.21750e-03 1.04630e-01 2.79960e-01 -3.35500e-04 1.48470e-02 -8.08650e-04 -1.16570e-03 1.05010e-01 2.71370e-01 -3.06410e-04 1.67470e-02 -7.75790e-04 -1.12020e-03 1.05180e-01 2.62910e-01 -3.01880e-04 1.85180e-02 -7.45390e-04 -1.08030e-03 1.05150e-01 2.54610e-01 -2.79070e-04 2.01920e-02 -7.17230e-04 -1.04330e-03 1.04930e-01 2.46450e-01 -2.71310e-04 2.17490e-02 -6.90830e-04 -1.00900e-03 1.04550e-01 2.38460e-01 -2.52840e-04 2.32080e-02 -6.65970e-04 -9.76150e-04 1.04020e-01 2.24680e-01 -4.04560e-04 2.74670e-02 -6.38620e-04 -9.38830e-04 1.07530e-01 2.22940e-01 -2.28310e-04 2.58130e-02 -6.20260e-04 -9.14050e-04 1.02530e-01 2.15420e-01 -2.18780e-04 2.69640e-02 -5.99200e-04 -8.84240e-04 1.01600e-01 2.08060e-01 -2.05730e-04 2.80190e-02 -5.79110e-04 -8.55020e-04 1.00550e-01 2.00850e-01 -1.96400e-04 2.89760e-02 -5.60030e-04 -8.26390e-04 9.94050e-02 1.93810e-01 -1.85130e-04 2.98400e-02 -5.41770e-04 -7.98290e-04 9.81600e-02 1.86920e-01 -1.76280e-04 3.06100e-02 -5.24350e-04 -7.70710e-04 9.68270e-02 1.80190e-01 -1.66430e-04 3.12900e-02 -5.07620e-04 -7.43640e-04 9.54130e-02 1.73620e-01 -1.58200e-04 3.18820e-02 -4.91610e-04 -7.17070e-04 9.39260e-02 1.72370e-01 -2.56550e-06 3.00170e-02 -4.80960e-04 -6.96930e-04 8.98410e-02 1.60950e-01 -1.41960e-04 3.28110e-02 -4.61390e-04 -6.65440e-04 9.07570e-02 1.54840e-01 -1.34260e-04 3.31540e-02 -4.47100e-04 -6.40400e-04 8.90880e-02 1.48890e-01 -1.27360e-04 3.34180e-02 -4.33330e-04 -6.15860e-04 8.73720e-02 1.43090e-01 -1.20510e-04 3.36070e-02 -4.20030e-04 -5.91850e-04 8.56120e-02 1.42060e-01 1.57880e-05 3.17050e-02 -4.12440e-04 -5.74340e-04 8.19730e-02 1.01260e-01 -5.03880e-03 2.63410e-02 -3.34520e-04 -4.83460e-04 7.18320e-02 1.26550e-01 -1.02500e-04 3.37510e-02 -3.82780e-04 -5.22940e-04 8.01290e-02 1.21330e-01 -9.70510e-05 3.36680e-02 -3.71160e-04 -5.01030e-04 7.82490e-02 1.16240e-01 -9.19790e-05 3.35240e-02 -3.59920e-04 -4.79640e-04 7.63500e-02 1.11290e-01 -8.71150e-05 3.33230e-02 -3.49030e-04 -4.58790e-04 7.44370e-02 1.06480e-01 -8.25710e-05 3.30670e-02 -3.38490e-04 -4.38460e-04 7.25130e-02 1.05670e-01 3.27390e-05 3.12490e-02 -3.34120e-04 -4.24620e-04 6.94800e-02 9.72460e-02 -7.41790e-05 3.24030e-02 -3.18360e-04 -3.99390e-04 6.86450e-02 9.28230e-02 -7.03260e-05 3.20010e-02 -3.08760e-04 -3.80650e-04 6.67090e-02 8.85270e-02 -6.67130e-05 3.15560e-02 -2.99450e-04 -3.62420e-04 6.47750e-02 8.43540e-02 -6.32930e-05 3.10710e-02 -2.90410e-04 -3.44710e-04 6.28450e-02 8.03030e-02 -6.00850e-05 3.05480e-02 -2.81640e-04 -3.27510e-04 6.09240e-02 7.31430e-02 -1.52570e-04 3.10930e-02 -2.66850e-04 -3.05010e-04 5.96480e-02 7.25570e-02 -5.42190e-05 2.94010e-02 -2.64860e-04 -2.94640e-04 5.71130e-02 6.88580e-02 -5.15470e-05 2.87820e-02 -2.56820e-04 -2.78950e-04 5.52280e-02 6.52730e-02 -4.90410e-05 2.81360e-02 -2.49020e-04 -2.63750e-04 5.33600e-02 6.17980e-02 -4.66870e-05 2.74650e-02 -2.41430e-04 -2.49040e-04 5.15110e-02 5.84340e-02 -4.44830e-05 2.67720e-02 -2.34050e-04 -2.34800e-04 4.96810e-02 5.77960e-02 3.87730e-05 2.53210e-02 -2.33480e-04 -2.26640e-04 4.75790e-02 5.20260e-02 -4.04830e-05 2.53290e-02 -2.19890e-04 -2.07730e-04 4.60890e-02 4.89790e-02 -3.86750e-05 2.45830e-02 -2.13090e-04 -1.94870e-04 4.43290e-02 4.60340e-02 -3.69850e-05 2.38230e-02 -2.06470e-04 -1.82460e-04 4.25950e-02 5.42230e-02 1.76510e-03 2.54160e-02 -2.32520e-04 -1.92390e-04 4.45920e-02 4.41380e-02 5.74120e-04 2.30520e-02 -2.05220e-04 -1.66440e-04 4.04250e-02 3.78000e-02 -3.25630e-05 2.14820e-02 -1.87590e-04 -1.47800e-04 3.75610e-02 2.19960e-02 -1.67450e-03 1.96300e-02 -1.39000e-04 -1.06960e-04 3.29600e-02 2.18450e-02 -1.57120e-03 1.84930e-02 -1.39690e-04 -1.01980e-04 3.14550e-02 2.00970e-02 -1.47850e-03 1.78140e-02 -1.35210e-04 -9.27770e-05 3.00800e-02 1.84220e-02 -1.38890e-03 1.71280e-02 -1.30870e-04 -8.39200e-05 2.87330e-02 1.68200e-02 -1.30210e-03 1.64400e-02 -1.26650e-04 -7.54020e-05 2.74140e-02 1.52890e-02 -1.21820e-03 1.57480e-02 -1.22560e-04 -6.72170e-05 2.61230e-02 1.38290e-02 -1.13720e-03 1.50550e-02 -1.18580e-04 -5.93570e-05 2.48610e-02 1.24390e-02 -1.05910e-03 1.43620e-02 -1.14710e-04 -5.18130e-05 2.36280e-02 1.22070e-02 -9.78930e-04 1.35280e-02 -1.16590e-04 -4.88160e-05 2.25310e-02 1.64450e-02 -2.32370e-05 1.35110e-02 -1.33610e-04 -5.73490e-05 2.28420e-02 1.47970e-02 -2.26470e-05 1.27350e-02 -1.28830e-04 -5.01770e-05 2.15600e-02 1.32340e-02 -2.21030e-05 1.19680e-02 -1.24140e-04 -4.33050e-05 2.03140e-02 1.27790e-02 1.99280e-05 1.12380e-02 -1.26840e-04 -4.14400e-05 1.93350e-02 1.03600e-02 -2.11470e-05 1.04610e-02 -1.15020e-04 -3.04260e-05 1.79310e-02 9.04870e-03 -2.07300e-05 9.72310e-03 -1.10570e-04 -2.43990e-05 1.67950e-02 7.81970e-03 -2.03490e-05 8.99710e-03 -1.06190e-04 -1.86330e-05 1.56950e-02 6.67290e-03 -2.00070e-05 8.28320e-03 -1.01880e-04 -1.31180e-05 1.46320e-02 5.60770e-03 -1.97010e-05 7.58220e-03 -9.76040e-05 -7.84250e-06 1.36060e-02 4.62380e-03 -1.94320e-05 6.89460e-03 -9.33630e-05 -2.79650e-06 1.26180e-02 3.72080e-03 -1.92030e-05 6.22090e-03 -8.91270e-05 2.03220e-06 1.16660e-02 2.89820e-03 -1.90180e-05 5.56150e-03 -8.48650e-05 6.65430e-06 1.07510e-02 2.15570e-03 -1.88820e-05 4.91700e-03 -8.05260e-05 1.10830e-05 9.87390e-03 1.49270e-03 -1.88050e-05 4.28780e-03 -7.60450e-05 1.53300e-05 9.03350e-03 1.25860e-03 2.47020e-06 3.87820e-03 -7.93320e-05 1.51050e-05 8.50550e-03 4.03120e-04 -1.88600e-05 3.07670e-03 -6.62570e-05 2.33340e-05 7.46300e-03 -2.52250e-05 -1.90130e-05 2.49570e-03 -6.06740e-05 2.71210e-05 6.73230e-03 -3.77710e-04 -1.92270e-05 1.93180e-03 -5.44010e-05 3.07810e-05 6.03720e-03 -6.56430e-04 -1.94920e-05 1.38550e-03 -4.72510e-05 3.43360e-05 5.37670e-03 -8.64340e-04 -1.96420e-05 8.57480e-04 -3.91270e-05 3.77660e-05 4.74940e-03 -1.07880e-03 -2.97030e-05 1.27290e-04 -2.12470e-05 4.48100e-05 3.90680e-03 -1.08570e-03 -1.83180e-05 -1.42240e-04 -2.13460e-05 4.38530e-05 3.58690e-03 -1.11040e-03 -1.48850e-05 -6.15260e-04 -1.50610e-05 4.57830e-05 3.04790e-03 -1.08450e-03 -8.80770e-06 -1.07920e-03 -1.70700e-05 4.58840e-05 2.53810e-03 -1.00660e-03 4.83410e-06 -1.55190e-03 -3.41700e-05 4.58520e-05 2.06450e-03 -8.73820e-04 -5.70050e-05 -2.16200e-03 -4.88020e-05 6.32970e-05 1.67220e-03 -7.62790e-04 -1.19030e-04 -2.57160e-03 -5.27610e-05 9.14710e-05 1.52860e-03 4.05820e-01 2.68840e-01 2.63830e-01 4.98160e-02 -3.61110e-03 -1.02630e-02 4.43510e-01 1.68580e-01 1.58010e-01 3.44650e-02 -8.60470e-03 2.92350e-02 4.62940e-01 4.02890e-02 2.05590e-02 7.36530e-03 -1.11290e-02 7.22290e-02 4.47330e-01 4.12940e-03 -2.18810e-02 -4.56100e-03 -1.06490e-02 7.29680e-02 3.05530e-01 -3.32300e-02 -5.31430e-02 -4.12970e-03 -1.01130e-02 8.06050e-02 3.72430e-01 -1.03570e-02 -3.05900e-02 -3.68700e-03 -8.28360e-03 7.72820e-02 4.00820e-01 6.81470e-05 -1.93880e-02 -2.71370e-03 -6.75620e-03 7.65120e-02 3.89730e-01 -1.35650e-04 -1.65480e-02 -2.24530e-03 -5.72060e-03 7.96380e-02 3.79490e-01 -3.58330e-04 -1.38960e-02 -1.97070e-03 -4.78340e-03 8.28820e-02 3.69500e-01 -6.46560e-04 -1.12330e-02 -1.69060e-03 -4.03650e-03 8.60400e-02 3.59900e-01 -6.52760e-04 -8.49230e-03 -1.47710e-03 -3.40370e-03 8.90090e-02 3.50300e-01 -8.20740e-04 -5.86070e-03 -1.27060e-03 -2.91320e-03 9.16670e-02 3.15520e-01 -5.18130e-03 -8.20290e-03 -1.05280e-03 -2.55330e-03 8.93740e-02 2.55120e-01 -1.48180e-02 -1.63460e-02 -7.56240e-04 -2.29600e-03 8.19130e-02 3.22390e-01 -7.35460e-04 1.94280e-03 -8.83440e-04 -1.96860e-03 9.77530e-02 3.13270e-01 -7.60430e-04 4.33670e-03 -8.01900e-04 -1.78510e-03 9.91520e-02 3.04310e-01 -6.87020e-04 6.68650e-03 -7.43330e-04 -1.63810e-03 1.00280e-01 2.66210e-01 -3.83500e-03 9.48150e-03 -6.88250e-04 -1.07190e-03 1.04760e-01 2.76000e-01 -1.99260e-03 1.03080e-02 -6.56460e-04 -1.24710e-03 1.01490e-01 2.78160e-01 -6.13950e-04 1.30070e-02 -6.24640e-04 -1.35420e-03 1.02160e-01 2.69730e-01 -5.65680e-04 1.49140e-02 -5.99180e-04 -1.28810e-03 1.02360e-01 2.61430e-01 -5.46540e-04 1.66970e-02 -5.75960e-04 -1.23140e-03 1.02360e-01 2.53290e-01 -5.06690e-04 1.83870e-02 -5.56720e-04 -1.17970e-03 1.02190e-01 2.45290e-01 -4.85150e-04 1.99630e-02 -5.38790e-04 -1.13290e-03 1.01860e-01 2.37440e-01 -4.51620e-04 2.14430e-02 -5.23390e-04 -1.08870e-03 1.01380e-01 2.23860e-01 -5.73320e-04 2.57350e-02 -5.08190e-04 -1.03760e-03 1.04960e-01 2.22190e-01 -4.01090e-04 2.40920e-02 -4.96240e-04 -1.00760e-03 9.99960e-02 2.14800e-01 -3.79990e-04 2.52660e-02 -4.84290e-04 -9.69600e-04 9.91190e-02 2.07560e-01 -3.55270e-04 2.63450e-02 -4.73590e-04 -9.32780e-04 9.81300e-02 2.00470e-01 -3.35550e-04 2.73260e-02 -4.63490e-04 -8.97300e-04 9.70360e-02 1.93530e-01 -3.14060e-04 2.82140e-02 -4.54290e-04 -8.62810e-04 9.58470e-02 1.86740e-01 -2.95960e-04 2.90090e-02 -4.45550e-04 -8.29450e-04 9.45680e-02 1.80110e-01 -2.77170e-04 2.97140e-02 -4.37450e-04 -7.97000e-04 9.32090e-02 1.73630e-01 -2.60780e-04 3.03300e-02 -4.29710e-04 -7.65560e-04 9.17760e-02 1.72430e-01 -1.07180e-04 2.84790e-02 -4.24110e-04 -7.42720e-04 8.77230e-02 1.61120e-01 -2.29550e-04 3.13090e-02 -4.15370e-04 -7.05350e-04 8.87140e-02 1.55090e-01 -2.15050e-04 3.16760e-02 -4.08640e-04 -6.76540e-04 8.70980e-02 1.49200e-01 -2.01890e-04 3.19650e-02 -4.02100e-04 -6.48610e-04 8.54330e-02 1.43460e-01 -1.89140e-04 3.21790e-02 -3.95780e-04 -6.21490e-04 8.37240e-02 1.42470e-01 -5.48380e-05 3.02900e-02 -3.92090e-04 -6.02280e-04 8.01150e-02 1.01660e-01 -5.17960e-03 2.46900e-02 -2.60500e-04 -5.75940e-04 7.00100e-02 1.27080e-01 -1.55940e-04 3.23970e-02 -3.77620e-04 -5.44950e-04 7.83880e-02 1.21890e-01 -1.46130e-04 3.23380e-02 -3.71790e-04 -5.20980e-04 7.65560e-02 1.16850e-01 -1.37060e-04 3.22190e-02 -3.66020e-04 -4.97740e-04 7.47030e-02 1.11930e-01 -1.28510e-04 3.20410e-02 -3.60340e-04 -4.75240e-04 7.28350e-02 1.07150e-01 -1.20580e-04 3.18100e-02 -3.54700e-04 -4.53440e-04 7.09560e-02 1.06350e-01 -6.70110e-06 3.00050e-02 -3.52680e-04 -4.38680e-04 6.79490e-02 9.79660e-02 -1.06270e-04 3.11930e-02 -3.43550e-04 -4.11910e-04 6.71740e-02 9.35640e-02 -9.98520e-05 3.08140e-02 -3.38020e-04 -3.92150e-04 6.52800e-02 8.92840e-02 -9.39240e-05 3.03920e-02 -3.32520e-04 -3.73030e-04 6.33860e-02 8.51250e-02 -8.84200e-05 2.99300e-02 -3.27020e-04 -3.54540e-04 6.14970e-02 8.10850e-02 -8.33500e-05 2.94300e-02 -3.21540e-04 -3.36670e-04 5.96140e-02 7.39360e-02 -1.71460e-04 3.00070e-02 -3.11720e-04 -3.13590e-04 5.83920e-02 7.33530e-02 -7.43710e-05 2.83280e-02 -3.10590e-04 -3.02700e-04 5.58790e-02 6.96570e-02 -7.04230e-05 2.77320e-02 -3.05100e-04 -2.86580e-04 5.40300e-02 6.60720e-02 -6.68180e-05 2.71070e-02 -2.99610e-04 -2.71010e-04 5.21980e-02 6.25970e-02 -6.35250e-05 2.64590e-02 -2.94110e-04 -2.55980e-04 5.03830e-02 5.92290e-02 -6.05360e-05 2.57870e-02 -2.88600e-04 -2.41460e-04 4.85870e-02 5.69180e-02 -2.80930e-05 2.47610e-02 -2.64550e-04 -3.41050e-04 4.66180e-02 5.55680e-02 3.09840e-05 2.34380e-02 -2.22560e-04 -5.48910e-04 4.45270e-02 4.97520e-02 -5.31840e-05 2.36620e-02 -2.71970e-04 -2.00910e-04 4.33320e-02 4.67970e-02 -5.12210e-05 2.29230e-02 -2.66380e-04 -1.88340e-04 4.16290e-02 5.49420e-02 1.76380e-03 2.46360e-02 -3.27000e-04 -1.79900e-04 4.36780e-02 4.48650e-02 5.64480e-04 2.22270e-02 -2.77550e-04 -1.66050e-04 3.95260e-02 3.85230e-02 -4.65780e-05 2.06450e-02 -2.49510e-04 -1.53250e-04 3.66830e-02 2.27260e-02 -1.69590e-03 1.87460e-02 -1.73850e-04 -1.27190e-04 3.21130e-02 2.25650e-02 -1.59270e-03 1.76240e-02 -1.74410e-04 -1.20890e-04 3.06240e-02 2.08000e-02 -1.49910e-03 1.69690e-02 -1.71060e-04 -1.10290e-04 2.92770e-02 1.91070e-02 -1.40850e-03 1.63090e-02 -1.67680e-04 -1.00070e-04 2.79560e-02 1.74860e-02 -1.32090e-03 1.56440e-02 -1.64260e-04 -9.02210e-05 2.66640e-02 1.59350e-02 -1.23640e-03 1.49770e-02 -1.60800e-04 -8.07360e-05 2.53990e-02 1.44540e-02 -1.15480e-03 1.43080e-02 -1.57310e-04 -7.16020e-05 2.41630e-02 1.30420e-02 -1.07620e-03 1.36390e-02 -1.53780e-04 -6.28080e-05 2.29550e-02 1.27980e-02 -9.95960e-04 1.28190e-02 -1.54700e-04 -5.84990e-05 2.18730e-02 1.69650e-02 -4.07770e-05 1.28780e-02 -1.91860e-04 -6.07440e-05 2.22260e-02 1.52930e-02 -4.07370e-05 1.21230e-02 -1.85990e-04 -5.32380e-05 2.09680e-02 1.37050e-02 -4.07580e-05 1.13760e-02 -1.80100e-04 -4.60020e-05 1.97450e-02 1.32370e-02 1.10720e-06 1.06580e-02 -1.80490e-04 -4.32210e-05 1.87790e-02 1.68420e-02 6.66850e-04 1.01070e-02 -2.30850e-04 -1.49210e-04 1.86400e-02 9.44420e-03 -4.11300e-05 9.19290e-03 -1.62330e-04 -2.58010e-05 1.62950e-02 8.18920e-03 -4.13390e-05 8.48770e-03 -1.56370e-04 -1.95330e-05 1.52180e-02 7.01630e-03 -4.15870e-05 7.79470e-03 -1.50370e-04 -1.34790e-05 1.41770e-02 5.92480e-03 -4.18730e-05 7.11480e-03 -1.44330e-04 -7.62740e-06 1.31730e-02 4.91440e-03 -4.22010e-05 6.44830e-03 -1.38230e-04 -1.96590e-06 1.22070e-02 3.98480e-03 -4.25790e-05 5.79590e-03 -1.32050e-04 3.51730e-06 1.12770e-02 3.13560e-03 -4.30200e-05 5.15800e-03 -1.25720e-04 8.83450e-06 1.03840e-02 2.36650e-03 -4.35390e-05 4.53520e-03 -1.19200e-04 1.39980e-05 9.52820e-03 1.67720e-03 -4.41650e-05 3.92780e-03 -1.12390e-04 1.90200e-05 8.70930e-03 1.42820e-03 -2.31300e-05 3.53080e-03 -1.12460e-04 2.00670e-05 8.19370e-03 5.36180e-04 -4.58240e-05 2.76100e-03 -9.73790e-05 2.86810e-05 7.18200e-03 8.35120e-05 -4.68840e-05 2.20230e-03 -8.88430e-05 3.33370e-05 6.47300e-03 -2.91570e-04 -4.80640e-05 1.66080e-03 -7.93680e-05 3.78850e-05 5.80010e-03 -5.90160e-04 -4.92150e-05 1.13700e-03 -6.88210e-05 4.23190e-05 5.16240e-03 -8.13870e-04 -4.99410e-05 6.31290e-04 -5.72420e-05 4.66210e-05 4.55880e-03 -1.04060e-03 -5.93570e-05 -6.64710e-05 -3.68930e-05 5.39910e-05 3.75260e-03 -1.04750e-03 -4.62260e-05 -3.23430e-04 -3.38890e-05 5.44160e-05 3.44800e-03 -1.06730e-03 -3.82300e-05 -7.73310e-04 -2.64880e-05 5.75300e-05 2.93690e-03 -1.03370e-03 -2.21550e-05 -1.20940e-03 -2.80400e-05 6.02060e-05 2.45360e-03 -9.63740e-04 -1.34320e-05 -1.66120e-03 -3.78100e-05 6.74140e-05 2.00840e-03 -8.53640e-04 -1.19160e-04 -2.25430e-03 -4.79400e-05 8.88570e-05 1.65430e-03 -7.58630e-04 -2.11400e-04 -2.64800e-03 -5.37620e-05 1.13500e-04 1.52730e-03 4.14010e-01 2.93060e-01 2.83770e-01 2.65540e-02 -1.71880e-03 -4.93840e-03 4.46390e-01 1.94350e-01 1.71920e-01 2.05840e-02 -4.38730e-03 3.73430e-02 4.66410e-01 6.27000e-02 3.05400e-02 8.63550e-03 -6.93170e-03 8.40550e-02 4.56810e-01 1.37250e-02 -1.81720e-02 4.81470e-04 -7.73040e-03 8.56860e-02 3.08500e-01 -3.08310e-02 -5.12770e-02 -3.92230e-03 -8.28440e-03 8.72730e-02 3.63190e-01 -7.35880e-03 -2.63230e-02 -2.71770e-03 -6.61160e-03 8.50020e-02 3.90160e-01 4.87910e-04 -1.86270e-02 -2.15180e-03 -5.54110e-03 8.26610e-02 3.90610e-01 4.05150e-04 -1.63350e-02 -1.76100e-03 -4.70020e-03 8.31790e-02 3.79440e-01 -1.30270e-04 -1.40110e-02 -1.55460e-03 -3.94260e-03 8.50080e-02 3.68880e-01 -5.40740e-04 -1.15330e-02 -1.36550e-03 -3.28870e-03 8.70580e-02 3.58890e-01 -6.50730e-04 -9.03210e-03 -1.17970e-03 -2.74900e-03 8.91910e-02 3.49070e-01 -8.66340e-04 -6.57000e-03 -1.02200e-03 -2.31270e-03 9.12260e-02 3.13890e-01 -5.48390e-03 -9.17510e-03 -8.14740e-04 -2.02270e-03 8.85040e-02 2.52810e-01 -1.56380e-02 -1.77000e-02 -5.89010e-04 -1.84630e-03 8.06600e-02 3.21010e-01 -8.06780e-04 8.84230e-04 -6.97000e-04 -1.48210e-03 9.63210e-02 3.11930e-01 -8.26640e-04 3.21420e-03 -6.32690e-04 -1.31970e-03 9.75750e-02 3.03050e-01 -7.40740e-04 5.51980e-03 -5.84350e-04 -1.19240e-03 9.86110e-02 2.18720e-01 -1.01300e-02 3.05820e-03 -6.26480e-04 7.90850e-05 9.73720e-02 2.68130e-01 -2.69600e-03 9.97500e-03 -5.35450e-04 -7.74880e-04 1.01920e-01 2.77170e-01 -6.36960e-04 1.17800e-02 -4.94940e-04 -9.51090e-04 1.00410e-01 2.68840e-01 -5.77280e-04 1.36840e-02 -4.76680e-04 -8.97620e-04 1.00620e-01 2.60630e-01 -5.49600e-04 1.54670e-02 -4.61110e-04 -8.52250e-04 1.00640e-01 2.52590e-01 -4.99960e-04 1.71630e-02 -4.48300e-04 -8.12050e-04 1.00500e-01 2.44670e-01 -4.70760e-04 1.87460e-02 -4.36980e-04 -7.76090e-04 1.00200e-01 2.88550e-01 7.95820e-03 3.08790e-02 -3.15610e-04 -1.73000e-03 1.13620e-01 2.37280e-01 1.23950e-03 2.49270e-02 -3.95560e-04 -9.04550e-04 1.03570e-01 2.21830e-01 -3.65000e-04 2.29090e-02 -4.11110e-04 -6.82800e-04 9.84310e-02 2.14510e-01 -3.38290e-04 2.40950e-02 -4.04240e-04 -6.55070e-04 9.75890e-02 2.07340e-01 -3.08060e-04 2.51880e-02 -3.98130e-04 -6.28470e-04 9.66350e-02 2.00320e-01 -2.83770e-04 2.61830e-02 -3.92510e-04 -6.02970e-04 9.55760e-02 1.93450e-01 -2.57930e-04 2.70860e-02 -3.87400e-04 -5.78390e-04 9.44220e-02 1.86730e-01 -2.36240e-04 2.78950e-02 -3.82630e-04 -5.54700e-04 9.31790e-02 1.80150e-01 -2.14140e-04 2.86160e-02 -3.78180e-04 -5.31840e-04 9.18550e-02 1.68280e-01 -1.09480e-03 2.79920e-02 -3.89690e-04 -3.99030e-04 8.87530e-02 1.58120e-01 -2.19820e-03 2.52830e-02 -4.07680e-04 -2.36460e-04 8.33700e-02 1.61310e-01 -1.59530e-04 3.02590e-02 -3.65990e-04 -4.67830e-04 8.74620e-02 1.55320e-01 -1.43430e-04 3.06420e-02 -3.62160e-04 -4.47930e-04 8.58790e-02 1.49470e-01 -1.29090e-04 3.09480e-02 -3.58380e-04 -4.28700e-04 8.42460e-02 1.43770e-01 -1.15450e-04 3.11780e-02 -3.54640e-04 -4.10120e-04 8.25700e-02 1.42800e-01 1.59260e-05 2.92990e-02 -3.52470e-04 -3.96970e-04 7.89790e-02 1.01850e-01 -5.33820e-03 2.38920e-02 -4.42620e-04 2.45780e-04 6.91110e-02 1.27480e-01 -8.14360e-05 3.14460e-02 -3.43380e-04 -3.58110e-04 7.73260e-02 1.22320e-01 -7.18850e-05 3.14050e-02 -3.39570e-04 -3.41950e-04 7.55230e-02 1.17300e-01 -6.33270e-05 3.13020e-02 -3.35720e-04 -3.26350e-04 7.37000e-02 1.12400e-01 -5.54960e-05 3.11420e-02 -3.31810e-04 -3.11290e-04 7.18600e-02 1.07640e-01 -4.85200e-05 3.09270e-02 -3.27840e-04 -2.96760e-04 7.00080e-02 1.06850e-01 6.26230e-05 2.91330e-02 -3.26320e-04 -2.86900e-04 6.70160e-02 9.84830e-02 -3.66750e-05 3.03450e-02 -3.19710e-04 -2.69220e-04 6.62790e-02 9.40920e-02 -3.17520e-05 2.99830e-02 -3.15540e-04 -2.56170e-04 6.44100e-02 8.98210e-02 -2.74800e-05 2.95780e-02 -3.11300e-04 -2.43590e-04 6.25420e-02 8.56690e-02 -2.37760e-05 2.91320e-02 -3.06990e-04 -2.31460e-04 6.06760e-02 8.16340e-02 -2.06430e-05 2.86490e-02 -3.02600e-04 -2.19760e-04 5.88170e-02 7.44900e-02 -1.10300e-04 2.92500e-02 -2.94950e-04 -2.04730e-04 5.76280e-02 7.39080e-02 -1.58920e-05 2.75800e-02 -2.93600e-04 -1.97620e-04 5.51270e-02 7.02120e-02 -1.42160e-05 2.70000e-02 -2.88980e-04 -1.87140e-04 5.33010e-02 6.66270e-02 -1.29730e-05 2.63920e-02 -2.84300e-04 -1.77050e-04 5.14890e-02 6.31490e-02 -1.21240e-05 2.57600e-02 -2.79530e-04 -1.67320e-04 4.96950e-02 5.97770e-02 -1.16480e-05 2.51040e-02 -2.74700e-04 -1.57940e-04 4.79190e-02 5.65100e-02 -1.15120e-05 2.44290e-02 -2.69790e-04 -1.48910e-04 4.61640e-02 5.79610e-02 4.90140e-04 2.37560e-02 -2.61000e-04 -2.04360e-04 4.50930e-02 6.81570e-02 2.36120e-03 2.46120e-02 -2.34170e-04 -4.41020e-04 4.65890e-02 4.73200e-02 -1.29120e-05 2.23040e-02 -2.54660e-04 -1.23720e-04 4.10370e-02 5.54500e-02 1.84460e-03 2.40810e-02 -3.13940e-04 -1.14290e-04 4.31640e-02 4.53660e-02 6.12290e-04 2.16550e-02 -2.65870e-04 -1.08110e-04 3.89890e-02 3.90160e-02 -1.65150e-05 2.00720e-02 -2.38950e-04 -1.01140e-04 3.61430e-02 2.32110e-02 -1.70590e-03 1.81580e-02 -1.67750e-04 -8.68510e-05 3.15520e-02 2.30440e-02 -1.60310e-03 1.70460e-02 -1.67500e-04 -8.24850e-05 3.00740e-02 2.98510e-02 -7.16840e-05 1.79510e-02 -1.53770e-04 -2.77640e-04 3.13650e-02 2.93600e-02 -1.26390e-05 1.68710e-02 -1.55200e-04 -2.66350e-04 2.99080e-02 2.71470e-02 -1.62890e-05 1.61080e-02 -1.54160e-04 -2.48750e-04 2.84630e-02 2.50220e-02 -2.00080e-05 1.53470e-02 -1.52940e-04 -2.31700e-04 2.70510e-02 2.29860e-02 -2.37760e-05 1.45880e-02 -1.51540e-04 -2.15170e-04 2.56720e-02 2.10370e-02 -2.75740e-05 1.38330e-02 -1.49950e-04 -1.99180e-04 2.43270e-02 1.91750e-02 -3.13850e-05 1.30830e-02 -1.48180e-04 -1.83700e-04 2.30170e-02 1.73970e-02 -3.51930e-05 1.23400e-02 -1.46220e-04 -1.68730e-04 2.17410e-02 1.68910e-02 8.20750e-06 1.15630e-02 -1.47140e-04 -1.59990e-04 2.06880e-02 1.40250e-02 -4.22960e-05 1.09840e-02 -1.71590e-04 -3.12130e-05 1.93880e-02 1.35470e-02 -1.79330e-06 1.02750e-02 -1.70570e-04 -2.93280e-05 1.84290e-02 1.22940e-02 9.47330e-05 9.55840e-03 -1.54160e-04 -7.92860e-05 1.73030e-02 9.77380e-03 -5.36860e-05 8.75040e-03 -1.33550e-04 -1.01260e-04 1.58970e-02 9.34070e-03 -1.95290e-05 8.14290e-03 -1.33960e-04 -9.42410e-05 1.50780e-02 7.24980e-03 -5.40900e-05 7.47790e-03 -1.42050e-04 -8.99430e-06 1.38870e-02 6.14080e-03 -5.63580e-05 6.81280e-03 -1.36030e-04 -4.88140e-06 1.28970e-02 5.11280e-03 -5.86030e-05 6.16140e-03 -1.29960e-04 -8.58410e-07 1.19430e-02 4.16550e-03 -6.08380e-05 5.52400e-03 -1.23790e-04 3.08370e-06 1.10270e-02 3.29880e-03 -6.30890e-05 4.90120e-03 -1.17490e-04 6.95360e-06 1.01470e-02 2.51230e-03 -6.53810e-05 4.29340e-03 -1.11000e-04 1.07600e-05 9.30450e-03 1.80590e-03 -6.77630e-05 3.70110e-03 -1.04240e-04 1.45090e-05 8.49880e-03 1.54740e-03 -4.76830e-05 3.31280e-03 -1.02770e-04 1.54890e-05 7.99060e-03 9.70460e-04 -6.61310e-05 2.70280e-03 -9.46110e-05 -4.30780e-06 7.20750e-03 1.64600e-04 -7.57080e-05 2.02080e-03 -8.12350e-05 2.54520e-05 6.30300e-03 -2.24030e-04 -7.85480e-05 1.49400e-03 -7.22410e-05 2.89920e-05 5.64400e-03 -5.34210e-04 -8.11000e-05 9.84690e-04 -6.24840e-05 3.24630e-05 5.02060e-03 -7.67100e-04 -8.27560e-05 4.93230e-04 -5.21350e-05 3.58470e-05 4.43200e-03 -1.00230e-03 -9.12730e-05 -1.83430e-04 -3.56480e-05 4.14930e-05 3.64820e-03 -1.01110e-03 -7.71100e-05 -4.32920e-04 -3.26130e-05 4.23030e-05 3.35250e-03 -1.03360e-03 -6.47770e-05 -8.66220e-04 -2.67690e-05 4.55540e-05 2.85690e-03 -1.00530e-03 -4.55650e-05 -1.28380e-03 -2.57610e-05 5.01340e-05 2.38950e-03 -9.41620e-04 -4.57080e-05 -1.71520e-03 -2.85560e-05 5.90650e-05 1.96360e-03 -8.36420e-04 -1.68410e-04 -2.27760e-03 -3.50190e-05 7.51150e-05 1.63030e-03 -7.44180e-04 -2.71780e-04 -2.64930e-03 -4.16620e-05 9.02420e-05 1.51160e-03 4.11920e-01 2.95400e-01 2.83700e-01 1.18180e-02 -7.62310e-04 -1.85990e-03 4.45260e-01 2.05410e-01 1.76570e-01 9.70230e-03 -1.98130e-03 4.09890e-02 4.67230e-01 7.45900e-02 3.49790e-02 4.98900e-03 -3.22740e-03 8.95210e-02 4.58660e-01 2.05170e-02 -1.71850e-02 1.25140e-03 -3.85470e-03 9.18450e-02 4.38000e-01 6.42740e-03 -2.44010e-02 -4.21080e-04 -3.82540e-03 8.79730e-02 3.30230e-01 6.25360e-03 -9.92010e-03 -1.64650e-03 -3.90830e-03 9.31470e-02 3.83900e-01 1.03960e-03 -1.74930e-02 -1.06570e-03 -3.02430e-03 8.93650e-02 3.91030e-01 8.36230e-04 -1.65440e-02 -9.10800e-04 -2.59850e-03 8.56460e-02 3.79450e-01 2.61300e-04 -1.40450e-02 -8.38380e-04 -2.17400e-03 8.66290e-02 3.57740e-01 -1.33050e-03 -1.27440e-02 -7.74030e-04 -1.70930e-03 8.59940e-02 3.30000e-01 -4.51270e-03 -1.26080e-02 -7.65800e-04 -1.19850e-03 8.78790e-02 3.20090e-01 -5.12450e-03 -1.05360e-02 -6.54800e-04 -9.16510e-04 8.91680e-02 2.90910e-01 -8.14120e-03 -1.14540e-02 -5.01630e-04 -8.67250e-04 8.75090e-02 2.51720e-01 -1.58390e-02 -1.83890e-02 -3.15150e-04 -9.76990e-04 8.01280e-02 3.20060e-01 -7.86370e-04 2.18410e-04 -3.88340e-04 -7.85070e-04 9.56030e-02 3.10990e-01 -8.13030e-04 2.49600e-03 -3.52130e-04 -6.92130e-04 9.67500e-02 3.02150e-01 -7.16060e-04 4.77830e-03 -3.26110e-04 -6.19320e-04 9.77150e-02 2.93420e-01 -7.05550e-04 6.92150e-03 -3.05310e-04 -5.63400e-04 9.84800e-02 2.55730e-01 -4.46730e-03 8.77840e-03 -3.65920e-04 -1.18110e-04 1.02010e-01 2.65690e-01 -2.15020e-03 1.00850e-02 -3.12000e-04 -3.16400e-04 9.89970e-02 2.68160e-01 -5.32490e-04 1.28940e-02 -2.68240e-04 -4.53900e-04 9.96490e-02 2.60010e-01 -5.00800e-04 1.46760e-02 -2.60200e-04 -4.29230e-04 9.96800e-02 2.52020e-01 -4.46030e-04 1.63750e-02 -2.53750e-04 -4.07620e-04 9.95470e-02 2.44160e-01 -4.13130e-04 1.79610e-02 -2.48090e-04 -3.88510e-04 9.92580e-02 2.88460e-01 8.06360e-03 3.06440e-02 -3.24660e-04 -3.63990e-04 1.13170e-01 2.46220e-01 2.50220e-03 2.45900e-02 -2.66490e-04 -3.52560e-04 1.02950e-01 2.21480e-01 -2.97110e-04 2.21440e-02 -2.35530e-04 -3.39740e-04 9.75470e-02 2.14200e-01 -2.67910e-04 2.33380e-02 -2.32250e-04 -3.25450e-04 9.67250e-02 2.07080e-01 -2.35390e-04 2.44400e-02 -2.29380e-04 -3.11780e-04 9.57910e-02 2.00100e-01 -2.09260e-04 2.54440e-02 -2.26750e-04 -2.98750e-04 9.47530e-02 1.93270e-01 -1.81840e-04 2.63560e-02 -2.24370e-04 -2.86220e-04 9.36180e-02 1.86590e-01 -1.58940e-04 2.71760e-02 -2.22150e-04 -2.74200e-04 9.23960e-02 1.80050e-01 -1.35880e-04 2.79060e-02 -2.20080e-04 -2.62620e-04 9.10910e-02 1.68100e-01 -1.31950e-03 2.57620e-02 -2.59420e-04 -9.17150e-05 8.61960e-02 1.29220e-01 -6.40250e-03 2.01370e-02 -4.23520e-04 5.54960e-04 7.63430e-02 1.61310e-01 -8.00610e-05 2.95810e-02 -2.14320e-04 -2.30400e-04 8.67570e-02 1.55340e-01 -6.40430e-05 2.99750e-02 -2.12480e-04 -2.20430e-04 8.51930e-02 1.49520e-01 -4.99950e-05 3.02920e-02 -2.10630e-04 -2.10830e-04 8.35790e-02 1.43840e-01 -3.68410e-05 3.05330e-02 -2.08780e-04 -2.01570e-04 8.19210e-02 1.39820e-01 1.97830e-05 2.99670e-02 -1.17770e-04 -4.20100e-04 7.95490e-02 1.37360e-01 1.18190e-04 2.86720e-02 6.30750e-05 -8.58400e-04 7.65910e-02 1.27620e-01 -5.35960e-06 3.08360e-02 -2.03020e-04 -1.75760e-04 7.67300e-02 1.22480e-01 3.02990e-06 3.08060e-02 -2.01020e-04 -1.67780e-04 7.49440e-02 1.17470e-01 1.02880e-05 3.07150e-02 -1.98970e-04 -1.60080e-04 7.31370e-02 1.12590e-01 1.66880e-05 3.05660e-02 -1.96860e-04 -1.52670e-04 7.13130e-02 1.07840e-01 2.21130e-05 3.03630e-02 -1.94700e-04 -1.45540e-04 6.94770e-02 1.07060e-01 1.30820e-04 2.85750e-02 -1.93810e-04 -1.40680e-04 6.64940e-02 9.87040e-02 3.05290e-05 2.98040e-02 -1.90200e-04 -1.32040e-04 6.57790e-02 9.43220e-02 3.35920e-05 2.94540e-02 -1.87870e-04 -1.25660e-04 6.39240e-02 9.00590e-02 3.59170e-05 2.90600e-02 -1.85470e-04 -1.19530e-04 6.20700e-02 8.59140e-02 3.75960e-05 2.86260e-02 -1.83010e-04 -1.13620e-04 6.02180e-02 8.18850e-02 3.86330e-05 2.81550e-02 -1.80500e-04 -1.07920e-04 5.83720e-02 7.47470e-02 -5.30380e-05 2.87710e-02 -1.76210e-04 -1.00630e-04 5.72020e-02 7.41670e-02 3.90080e-05 2.71090e-02 -1.75290e-04 -9.71700e-05 5.47080e-02 7.04740e-02 3.84180e-05 2.65390e-02 -1.72610e-04 -9.20910e-05 5.28940e-02 6.68910e-02 3.73520e-05 2.59430e-02 -1.69860e-04 -8.72010e-05 5.10940e-02 6.34140e-02 3.58570e-05 2.53220e-02 -1.67060e-04 -8.24910e-05 4.93120e-02 6.00430e-02 3.39580e-05 2.46780e-02 -1.64210e-04 -7.79550e-05 4.75480e-02 5.67750e-02 3.16950e-05 2.40130e-02 -1.61310e-04 -7.35860e-05 4.58040e-02 5.61730e-02 3.63210e-04 2.35600e-02 -1.44860e-04 -1.14430e-04 4.46430e-02 5.92710e-02 1.17660e-03 2.34400e-02 -1.05630e-04 -2.19260e-04 4.43140e-02 6.45420e-02 2.28540e-03 2.35440e-02 -4.76410e-05 -3.61610e-04 4.45040e-02 5.56080e-02 1.85470e-03 2.37930e-02 -3.20820e-04 2.09220e-04 4.29350e-02 4.72510e-02 9.17970e-04 2.17140e-02 -2.26180e-04 7.36500e-05 3.93020e-02 4.07430e-02 2.65310e-04 2.00650e-02 -1.64120e-04 -1.56110e-05 3.63560e-02 2.34990e-02 -1.67410e-03 1.78140e-02 -1.02890e-04 -3.97910e-05 3.12470e-02 3.23400e-02 -5.56010e-05 1.85050e-02 -2.97140e-05 -2.57560e-04 3.26930e-02 3.12070e-02 -1.96280e-05 1.75450e-02 -9.78260e-05 -1.10370e-04 3.12130e-02 2.94910e-02 -4.64050e-06 1.67060e-02 -1.29770e-04 -3.76000e-05 2.97670e-02 2.72740e-02 -9.06890e-06 1.59490e-02 -1.26410e-04 -3.46380e-05 2.83260e-02 2.51460e-02 -1.35500e-05 1.51930e-02 -1.23020e-04 -3.17690e-05 2.69180e-02 2.31060e-02 -1.80640e-05 1.44390e-02 -1.19600e-04 -2.89890e-05 2.55440e-02 2.11520e-02 -2.25900e-05 1.36900e-02 -1.16150e-04 -2.62920e-05 2.42030e-02 1.92860e-02 -2.71120e-05 1.29450e-02 -1.12680e-04 -2.36730e-05 2.28970e-02 1.75040e-02 -3.16110e-05 1.22070e-02 -1.09180e-04 -2.11280e-05 2.16250e-02 1.62150e-02 -2.05610e-05 1.14440e-02 -8.72560e-05 -5.79120e-05 2.04360e-02 1.42280e-02 -4.17510e-05 1.07010e-02 -4.67950e-05 -1.26240e-04 1.91450e-02 1.37450e-02 -2.93960e-06 9.99880e-03 -4.82870e-05 -1.19050e-04 1.81920e-02 1.12210e-02 -4.90780e-05 9.33750e-03 -9.50100e-05 -1.15910e-05 1.68940e-02 9.85750e-03 -5.32520e-05 8.64510e-03 -9.14230e-05 -9.34470e-06 1.58010e-02 8.86680e-03 -4.59510e-05 7.97530e-03 -7.63010e-05 -3.23380e-05 1.48130e-02 7.40190e-03 -6.53740e-05 7.25380e-03 -4.88770e-05 -7.40440e-05 1.36900e-02 6.28210e-03 -6.97710e-05 6.60040e-03 -4.87220e-05 -6.48560e-05 1.27090e-02 5.24340e-03 -7.40740e-05 5.96050e-03 -4.83620e-05 -5.60790e-05 1.17640e-02 4.28540e-03 -7.82990e-05 5.33460e-03 -4.77850e-05 -4.77110e-05 1.08560e-02 2.85170e-03 -1.52870e-04 4.83100e-03 -4.41030e-05 -3.87470e-05 9.93750e-03 9.10670e-04 -3.08030e-04 4.44390e-03 -3.73120e-05 -2.89470e-05 9.01210e-03 2.18030e-03 -5.59030e-05 3.57080e-03 -6.50200e-05 1.07420e-05 8.46060e-03 2.16830e-03 -5.04980e-06 3.12830e-03 -6.79290e-05 1.56110e-05 7.97570e-03 7.99170e-04 -8.74860e-05 2.51210e-03 -5.00470e-05 3.43690e-06 6.97260e-03 2.24040e-04 -1.04220e-04 1.89860e-03 -3.84790e-05 -6.06540e-06 6.18710e-03 4.56360e-05 -9.09320e-05 1.58110e-03 -3.77900e-05 -2.85250e-06 5.78140e-03 -4.96750e-04 -1.03800e-04 9.02920e-04 -3.63760e-05 1.70330e-05 4.94080e-03 -8.50510e-04 -1.27330e-04 2.01580e-04 -2.70790e-05 1.09680e-05 4.11440e-03 -8.89100e-04 -1.13810e-04 -6.02570e-05 -2.58810e-05 1.31900e-05 3.80010e-03 -9.78960e-04 -1.07050e-04 -5.02750e-04 -2.30980e-05 1.68860e-05 3.28620e-03 -9.98960e-04 -9.40050e-05 -7.34490e-04 -2.21230e-05 1.89840e-05 3.01020e-03 -9.86010e-04 -6.55800e-05 -1.31940e-03 -1.49440e-05 2.78920e-05 2.35250e-03 -9.25790e-04 -6.91960e-05 -1.73710e-03 -1.57000e-05 3.31980e-05 1.93700e-03 -8.26160e-04 -1.97610e-04 -2.28270e-03 -1.87130e-05 4.16680e-05 1.61370e-03 -7.37430e-04 -3.05560e-04 -2.64390e-03 -2.18980e-05 4.93310e-05 1.49910e-03 4.14400e-01 3.00850e-01 2.88540e-01 2.28650e-09 2.72140e-10 -7.42410e-04 4.45660e-01 2.08100e-01 1.77500e-01 -5.33610e-11 6.82450e-10 4.23810e-02 4.66810e-01 7.79330e-02 3.57800e-02 -3.36420e-09 1.07770e-09 9.10120e-02 4.59340e-01 2.31140e-02 -1.64120e-02 -4.28530e-09 1.23730e-09 9.38010e-02 4.38370e-01 7.44230e-03 -2.47740e-02 -4.28370e-09 1.29520e-09 8.97200e-02 4.20450e-01 4.43010e-03 -2.17030e-02 -4.11820e-09 1.30210e-09 8.77940e-02 3.96920e-01 1.17100e-03 -1.76280e-02 -3.35740e-04 1.81030e-04 9.31620e-02 3.91280e-01 1.16570e-03 -1.63820e-02 -6.43390e-04 3.11950e-04 8.65330e-02 3.79370e-01 2.90740e-04 -1.42010e-02 -4.78910e-04 5.63740e-04 8.72100e-02 3.43260e-01 -2.36520e-03 -1.38900e-02 -4.71120e-04 7.10770e-04 8.37750e-02 2.72890e-01 -1.24690e-02 -1.93710e-02 -3.69450e-04 8.73100e-04 8.47400e-02 2.63230e-01 -1.36300e-02 -1.76750e-02 -3.63140e-04 9.79500e-04 8.51370e-02 2.57180e-01 -1.22940e-02 -1.44650e-02 -3.28230e-04 1.06510e-03 8.63660e-02 2.51170e-01 -1.59590e-02 -1.86250e-02 -3.23030e-04 1.10140e-03 7.99550e-02 2.49690e-01 -9.39610e-03 -1.00290e-02 3.18210e-04 -1.13980e-03 8.13070e-02 3.10670e-01 -8.13490e-04 2.27500e-03 -5.17910e-09 2.34630e-10 9.64930e-02 3.01840e-01 -7.20510e-04 4.53780e-03 -5.31020e-09 8.39580e-11 9.74330e-02 2.93120e-01 -7.04270e-04 6.67810e-03 -5.42360e-09 -6.53360e-11 9.81810e-02 2.09090e-01 -1.16260e-02 1.97570e-03 -2.96970e-04 1.14660e-03 9.56160e-02 2.51020e-01 -4.21550e-03 8.55150e-03 -3.14460e-04 1.12590e-03 9.80100e-02 2.67910e-01 -5.26360e-04 1.26370e-02 -3.22450e-04 1.10620e-03 9.93350e-02 2.59780e-01 -4.92340e-04 1.44190e-02 -3.22460e-04 1.08520e-03 9.93680e-02 2.51810e-01 -4.35980e-04 1.61170e-02 -3.22640e-04 1.06340e-03 9.92390e-02 2.43970e-01 -4.01360e-04 1.77050e-02 -3.22510e-04 1.04030e-03 9.89540e-02 2.88380e-01 8.14540e-03 3.04330e-02 -6.52340e-09 -1.42720e-09 1.12900e-01 2.46100e-01 2.54000e-03 2.43520e-02 -5.81610e-09 -1.21130e-09 1.02670e-01 2.21340e-01 -2.81230e-04 2.18930e-02 -5.42220e-09 -1.14380e-09 9.72600e-02 2.14080e-01 -2.50980e-04 2.30900e-02 -5.32490e-09 -1.21950e-09 9.64440e-02 2.06980e-01 -2.17440e-04 2.41940e-02 -5.21920e-09 -1.28590e-09 9.55160e-02 2.00010e-01 -1.90510e-04 2.52010e-02 -5.10940e-09 -1.34380e-09 9.44840e-02 1.93200e-01 -1.62310e-04 2.61160e-02 -4.99980e-09 -1.39410e-09 9.33570e-02 1.86530e-01 -1.38820e-04 2.69380e-02 -4.89410e-09 -1.43810e-09 9.21400e-02 1.80000e-01 -1.15220e-04 2.76720e-02 -4.79560e-09 -1.47690e-09 9.08430e-02 1.78800e-01 3.10450e-05 2.58500e-02 -4.52470e-09 -1.35700e-09 8.67360e-02 1.67380e-01 -7.54530e-05 2.88790e-02 -4.63050e-09 -1.54470e-09 8.80300e-02 1.61290e-01 -5.84570e-05 2.93570e-02 -4.56770e-09 -1.57650e-09 8.65280e-02 1.55340e-01 -4.22710e-05 2.97550e-02 -4.51950e-09 -1.60850e-09 8.49700e-02 1.49520e-01 -2.81610e-05 3.00750e-02 -4.48610e-09 -1.64190e-09 8.33620e-02 1.43850e-01 -1.49930e-05 3.03200e-02 -4.46650e-09 -1.67730e-09 8.17100e-02 1.38310e-01 -3.50960e-06 3.04930e-02 -4.45850e-09 -1.71520e-09 8.00180e-02 1.37400e-01 1.22730e-04 2.86280e-02 -4.27190e-09 -1.60450e-09 7.65290e-02 1.27650e-01 1.61070e-05 3.06340e-02 -4.46440e-09 -1.79720e-09 7.65360e-02 1.22510e-01 2.42620e-05 3.06070e-02 -4.47000e-09 -1.83980e-09 7.47560e-02 1.17510e-01 3.12260e-05 3.05200e-02 -4.47150e-09 -1.88190e-09 7.29540e-02 1.12640e-01 3.72910e-05 3.03760e-02 -4.46520e-09 -1.92200e-09 7.11360e-02 1.07890e-01 4.23310e-05 3.01760e-02 -4.44740e-09 -1.95830e-09 6.93040e-02 1.07110e-01 1.50320e-04 2.83910e-02 -4.28240e-09 -1.86100e-09 6.63250e-02 9.87650e-02 4.98630e-05 2.96250e-02 -4.36600e-09 -2.01230e-09 6.56160e-02 9.43860e-02 5.24300e-05 2.92780e-02 -4.29860e-09 -2.02680e-09 6.37660e-02 9.01260e-02 5.42250e-05 2.88890e-02 -4.21190e-09 -2.03110e-09 6.19160e-02 8.59840e-02 5.53450e-05 2.84590e-02 -4.10590e-09 -2.02440e-09 6.00690e-02 8.19570e-02 5.57950e-05 2.79910e-02 -3.98140e-09 -2.00640e-09 5.82280e-02 7.48220e-02 -3.63870e-05 2.86130e-02 -3.88460e-09 -2.05620e-09 5.70640e-02 7.42420e-02 5.49250e-05 2.69520e-02 -3.68500e-09 -1.93800e-09 5.45720e-02 7.05510e-02 5.36820e-05 2.63870e-02 -3.51950e-09 -1.89000e-09 5.27620e-02 6.69680e-02 5.19450e-05 2.57940e-02 -3.34790e-09 -1.83510e-09 5.09660e-02 6.34920e-02 4.97630e-05 2.51770e-02 -3.17430e-09 -1.77530e-09 4.91870e-02 6.01210e-02 4.71640e-05 2.45360e-02 -3.00340e-09 -1.71280e-09 4.74270e-02 5.68540e-02 4.41900e-05 2.38760e-02 -2.83940e-09 -1.64980e-09 4.56870e-02 5.36890e-02 4.08700e-05 2.31970e-02 -2.68560e-09 -1.58820e-09 4.39680e-02 5.63120e-02 7.81550e-04 2.30460e-02 -2.64150e-09 -1.55710e-09 4.35590e-02 6.45780e-02 2.28700e-03 2.35060e-02 -2.70230e-09 -1.55670e-09 4.44780e-02 4.24700e-02 -3.69400e-04 2.05320e-02 -8.61540e-05 1.59450e-04 3.81540e-02 5.23670e-02 1.78090e-03 2.26920e-02 -1.41210e-04 2.48540e-04 4.09230e-02 4.43820e-02 8.78590e-04 2.07280e-02 -6.44960e-05 1.20240e-04 3.74670e-02 3.47740e-02 -5.13180e-05 1.92670e-02 1.20110e-04 -2.23420e-04 3.42280e-02 3.36350e-02 -1.10120e-05 1.82320e-02 3.97090e-05 -7.29240e-05 3.26570e-02 3.18690e-02 5.62570e-06 1.73580e-02 -1.95620e-09 -1.27840e-09 3.11510e-02 2.95610e-02 5.50180e-07 1.66040e-02 -1.91270e-09 -1.26160e-09 2.96810e-02 2.73420e-02 -4.59070e-06 1.58500e-02 -1.87210e-09 -1.24630e-09 2.82430e-02 2.52130e-02 -9.77510e-06 1.50980e-02 -1.83200e-09 -1.23120e-09 2.68380e-02 2.31700e-02 -1.49810e-05 1.43480e-02 -1.79000e-09 -1.21480e-09 2.54670e-02 2.12150e-02 -2.01880e-05 1.36020e-02 -1.74390e-09 -1.19570e-09 2.41290e-02 1.93460e-02 -2.53770e-05 1.28610e-02 -1.69220e-09 -1.17250e-09 2.28250e-02 1.75620e-02 -3.05290e-05 1.21260e-02 -1.63360e-09 -1.14420e-09 2.15560e-02 1.58630e-02 -3.56270e-05 1.13980e-02 -1.56780e-09 -1.11020e-09 2.03220e-02 1.42490e-02 -4.06540e-05 1.06790e-02 -1.49450e-09 -1.07010e-09 1.91240e-02 1.37650e-02 -1.85320e-06 9.97760e-03 -1.42070e-09 -1.01880e-09 1.81710e-02 1.12690e-02 -5.04430e-05 9.26910e-03 -1.32900e-09 -9.72850e-10 1.68350e-02 9.90340e-03 -5.51840e-05 8.57990e-03 -1.24010e-09 -9.17280e-10 1.57440e-02 8.61960e-03 -5.98110e-05 7.90240e-03 -1.14970e-09 -8.58590e-10 1.46900e-02 7.41760e-03 -6.43260e-05 7.23700e-03 -1.06030e-09 -7.98280e-10 1.36730e-02 6.29690e-03 -6.87300e-05 6.58460e-03 -9.74350e-10 -7.37730e-10 1.26920e-02 5.25710e-03 -7.30400e-05 5.94570e-03 -8.93420e-10 -6.78140e-10 1.17490e-02 4.29810e-03 -7.72740e-05 5.32080e-03 -8.19210e-10 -6.20740e-10 1.08420e-02 3.18150e-03 -1.11650e-04 4.75640e-03 4.04200e-06 -5.49770e-06 9.95070e-03 2.37740e-03 -1.41590e-04 4.33030e-03 9.45560e-06 -1.20410e-05 9.26410e-03 3.01940e-03 1.60660e-05 3.51700e-03 -1.05300e-05 1.60220e-05 8.62440e-03 3.30730e-03 1.01190e-04 2.93510e-03 -2.17090e-05 2.63100e-05 8.11370e-03 7.08490e-04 -9.87890e-05 2.42250e-03 -5.57320e-10 -3.86470e-10 6.86190e-03 2.31220e-04 -1.03370e-04 1.89060e-03 -5.20030e-10 -3.49780e-10 6.17670e-03 -9.32070e-05 -1.01940e-04 1.44140e-03 2.65080e-06 -5.06610e-06 5.60910e-03 -6.53240e-04 -1.27120e-04 6.77110e-04 5.02510e-06 -1.23240e-05 4.67780e-03 -7.63410e-04 -1.18380e-04 3.29870e-04 1.70330e-06 -3.65500e-06 4.26050e-03 -8.84630e-04 -1.13330e-04 -6.52100e-05 -3.55980e-10 -2.20650e-10 3.79300e-03 -9.75110e-04 -1.06670e-04 -5.06980e-04 -2.99920e-10 -1.89850e-10 3.27990e-03 -9.99920e-04 -9.25770e-05 -8.64350e-04 -1.32940e-06 -1.83310e-06 2.86520e-03 -9.28000e-04 -8.31860e-05 -1.36600e-03 -4.49890e-06 -4.80470e-06 2.41220e-03 -7.91180e-04 -8.29410e-05 -1.82610e-03 -5.55980e-06 -4.08070e-06 2.12240e-03 -8.22240e-04 -2.06990e-04 -2.28310e-03 -7.28570e-11 -1.28270e-10 1.60800e-03 -7.34140e-04 -3.15340e-04 -2.64010e-03 -3.78990e-11 -1.20720e-10 1.49460e-03 4.11920e-01 2.95400e-01 2.83700e-01 -1.18180e-02 7.62310e-04 -1.85990e-03 4.45260e-01 2.05410e-01 1.76570e-01 -9.70230e-03 1.98130e-03 4.09890e-02 4.67230e-01 7.45900e-02 3.49790e-02 -4.98900e-03 3.22740e-03 8.95210e-02 4.58660e-01 2.05170e-02 -1.71850e-02 -1.25140e-03 3.85470e-03 9.18450e-02 4.38000e-01 6.42740e-03 -2.44010e-02 4.21070e-04 3.82540e-03 8.79730e-02 4.19690e-01 3.60720e-03 -2.19310e-02 8.85240e-04 3.49450e-03 8.62110e-02 3.96590e-01 -2.83930e-04 -1.86410e-02 9.10660e-04 2.88560e-03 9.22750e-02 3.91030e-01 8.36230e-04 -1.65440e-02 9.10790e-04 2.59850e-03 8.56460e-02 3.79450e-01 2.61300e-04 -1.40450e-02 8.38370e-04 2.17400e-03 8.66290e-02 3.68440e-01 -4.11350e-04 -1.18400e-02 7.41270e-04 1.81670e-03 8.79810e-02 3.58250e-01 -5.25750e-04 -9.35080e-03 6.52510e-04 1.50800e-03 8.95760e-02 3.48230e-01 -8.38010e-04 -7.05600e-03 5.63380e-04 1.26210e-03 9.11960e-02 3.38680e-01 -7.74820e-04 -4.55050e-03 4.93620e-04 1.06170e-03 9.27970e-02 3.19210e-01 -2.18750e-03 -3.66800e-03 4.66050e-04 7.46150e-04 9.21650e-02 2.84760e-01 -6.00370e-03 -5.67950e-03 5.03380e-04 2.12490e-04 8.85560e-02 2.39270e-01 -1.36910e-02 -1.17930e-02 5.47240e-04 -4.70120e-04 8.24550e-02 3.02150e-01 -7.16060e-04 4.77830e-03 3.26100e-04 6.19320e-04 9.77150e-02 2.93420e-01 -7.05550e-04 6.92150e-03 3.05300e-04 5.63400e-04 9.84800e-02 2.84870e-01 -6.24640e-04 9.02110e-03 2.90110e-04 5.18790e-04 9.90580e-02 2.70350e-01 -6.75460e-04 1.41390e-02 2.77020e-04 4.74510e-04 1.05120e-01 2.68160e-01 -5.32490e-04 1.28940e-02 2.68230e-04 4.53900e-04 9.96490e-02 2.60010e-01 -5.00800e-04 1.46760e-02 2.60190e-04 4.29230e-04 9.96800e-02 2.52020e-01 -4.46030e-04 1.63750e-02 2.53740e-04 4.07610e-04 9.95470e-02 2.44160e-01 -4.13130e-04 1.79610e-02 2.48080e-04 3.88510e-04 9.92580e-02 2.88330e-01 8.13750e-03 3.04840e-02 9.26020e-07 1.39980e-03 1.12970e-01 2.36940e-01 1.33050e-03 2.42330e-02 1.89740e-04 5.57290e-04 1.02730e-01 2.21480e-01 -2.97110e-04 2.21440e-02 2.35520e-04 3.39740e-04 9.75470e-02 2.14200e-01 -2.67910e-04 2.33380e-02 2.32240e-04 3.25440e-04 9.67250e-02 2.07080e-01 -2.35390e-04 2.44400e-02 2.29370e-04 3.11780e-04 9.57910e-02 2.00100e-01 -2.09260e-04 2.54440e-02 2.26740e-04 2.98750e-04 9.47530e-02 1.93270e-01 -1.81840e-04 2.63560e-02 2.24360e-04 2.86220e-04 9.36180e-02 1.86590e-01 -1.58940e-04 2.71760e-02 2.22140e-04 2.74200e-04 9.23960e-02 1.80050e-01 -1.35880e-04 2.79060e-02 2.20070e-04 2.62620e-04 9.10910e-02 1.78840e-01 1.12230e-05 2.60830e-02 2.18440e-04 2.54250e-04 8.69810e-02 1.67410e-01 -9.68430e-05 2.91060e-02 2.16190e-04 2.40740e-04 8.82660e-02 1.61310e-01 -8.00610e-05 2.95810e-02 2.14310e-04 2.30400e-04 8.67570e-02 1.55340e-01 -6.40430e-05 2.99750e-02 2.12470e-04 2.20430e-04 8.51930e-02 1.49520e-01 -4.99950e-05 3.02920e-02 2.10620e-04 2.10830e-04 8.35790e-02 1.43840e-01 -3.68410e-05 3.05330e-02 2.08770e-04 2.01560e-04 8.19210e-02 1.38300e-01 -2.52850e-05 3.07020e-02 2.06880e-04 1.92640e-04 8.02230e-02 1.37370e-01 1.01630e-04 2.88350e-02 2.05850e-04 1.86350e-04 7.67310e-02 1.27620e-01 -5.35960e-06 3.08360e-02 2.03010e-04 1.75760e-04 7.67300e-02 1.22480e-01 3.02990e-06 3.08060e-02 2.01010e-04 1.67770e-04 7.49440e-02 1.17470e-01 1.02880e-05 3.07150e-02 1.98960e-04 1.60080e-04 7.31370e-02 1.12590e-01 1.66880e-05 3.05660e-02 1.96850e-04 1.52670e-04 7.13130e-02 1.07840e-01 2.21130e-05 3.03630e-02 1.94690e-04 1.45530e-04 6.94770e-02 1.07060e-01 1.30820e-04 2.85750e-02 1.93810e-04 1.40680e-04 6.64940e-02 9.87040e-02 3.05290e-05 2.98040e-02 1.90190e-04 1.32040e-04 6.57790e-02 9.43220e-02 3.35920e-05 2.94540e-02 1.87860e-04 1.25660e-04 6.39240e-02 9.00590e-02 3.59170e-05 2.90600e-02 1.85460e-04 1.19520e-04 6.20700e-02 8.59140e-02 3.75960e-05 2.86260e-02 1.83010e-04 1.13610e-04 6.02180e-02 8.18850e-02 3.86330e-05 2.81550e-02 1.80490e-04 1.07920e-04 5.83720e-02 7.47470e-02 -5.30380e-05 2.87710e-02 1.76200e-04 1.00630e-04 5.72020e-02 7.41670e-02 3.90080e-05 2.71090e-02 1.75290e-04 9.71660e-05 5.47080e-02 7.04740e-02 3.84180e-05 2.65390e-02 1.72600e-04 9.20870e-05 5.28940e-02 6.68910e-02 3.73520e-05 2.59430e-02 1.69860e-04 8.71970e-05 5.10940e-02 6.34140e-02 3.58570e-05 2.53220e-02 1.67060e-04 8.24880e-05 4.93120e-02 6.00430e-02 3.39580e-05 2.46780e-02 1.64210e-04 7.79520e-05 4.75480e-02 5.67750e-02 3.16950e-05 2.40130e-02 1.61300e-04 7.35830e-05 4.58040e-02 5.36090e-02 2.90950e-05 2.33310e-02 1.58350e-04 6.93740e-05 4.40810e-02 5.49400e-02 5.05200e-04 2.26810e-02 1.35030e-04 1.27040e-04 4.30460e-02 6.45420e-02 2.28540e-03 2.35440e-02 4.76350e-05 3.61600e-04 4.45040e-02 3.31570e-02 -1.96530e-03 1.83960e-02 -1.37010e-05 3.29760e-04 3.49900e-02 4.19410e-02 1.59480e-05 2.04630e-02 1.46060e-04 5.39970e-05 3.74370e-02 4.90820e-02 1.67330e-03 2.18010e-02 5.33420e-05 2.97050e-04 3.91240e-02 3.46990e-02 -5.85440e-05 1.93780e-02 1.37350e-04 4.55690e-05 3.43210e-02 3.41940e-02 3.97430e-06 1.82200e-02 1.36390e-04 4.38230e-05 3.27440e-02 3.17970e-02 -2.85280e-07 1.74640e-02 1.33100e-04 4.06580e-05 3.12390e-02 2.94910e-02 -4.64050e-06 1.67060e-02 1.29770e-04 3.75970e-05 2.97670e-02 2.72740e-02 -9.06890e-06 1.59490e-02 1.26410e-04 3.46350e-05 2.83260e-02 2.51460e-02 -1.35500e-05 1.51930e-02 1.23010e-04 3.17670e-05 2.69180e-02 2.31060e-02 -1.80640e-05 1.44390e-02 1.19590e-04 2.89860e-05 2.55440e-02 2.11520e-02 -2.25900e-05 1.36900e-02 1.16140e-04 2.62890e-05 2.42030e-02 1.92860e-02 -2.71120e-05 1.29450e-02 1.12670e-04 2.36710e-05 2.28970e-02 1.75040e-02 -3.16110e-05 1.22070e-02 1.09180e-04 2.11250e-05 2.16250e-02 1.58080e-02 -3.60720e-05 1.14770e-02 1.05660e-04 1.86490e-05 2.03890e-02 1.41950e-02 -4.04780e-05 1.07540e-02 1.02130e-04 1.62370e-05 1.91880e-02 1.37130e-02 -1.25910e-06 1.00510e-02 1.01200e-04 1.52900e-05 1.82340e-02 1.12210e-02 -4.90780e-05 9.33750e-03 9.50080e-05 1.15890e-05 1.68940e-02 9.85750e-03 -5.32520e-05 8.64510e-03 9.14210e-05 9.34290e-06 1.58010e-02 8.57640e-03 -5.73300e-05 7.96430e-03 8.78150e-05 7.14370e-06 1.47450e-02 7.37710e-03 -6.13150e-05 7.29580e-03 8.41880e-05 4.98630e-06 1.37250e-02 6.25910e-03 -6.52070e-05 6.64030e-03 8.05340e-05 2.86620e-06 1.27420e-02 5.22210e-03 -6.90200e-05 5.99820e-03 7.68410e-05 7.78730e-07 1.17960e-02 4.26580e-03 -7.27720e-05 5.37020e-03 7.30940e-05 -1.28050e-06 1.08870e-02 3.39010e-03 -7.64960e-05 4.75680e-03 6.92690e-05 -3.31620e-06 1.00140e-02 3.07650e-03 -5.35320e-05 4.32470e-03 6.82300e-05 -3.93830e-06 9.43890e-03 4.23830e-03 1.42840e-04 3.53290e-03 5.53030e-05 3.38420e-05 8.94650e-03 1.24440e-03 -8.79330e-05 3.00790e-03 5.69250e-05 -9.31320e-06 7.61940e-03 6.89360e-04 -9.19740e-05 2.45670e-03 5.23320e-05 -1.12800e-05 6.89510e-03 2.14310e-04 -9.61200e-05 1.92190e-03 4.73950e-05 -1.32270e-05 6.20740e-03 -1.80920e-04 -1.00200e-04 1.40380e-03 4.20690e-05 -1.51470e-05 5.55610e-03 -6.65830e-04 -1.19180e-04 7.01490e-04 3.28360e-05 -1.83980e-05 4.70230e-03 -7.34140e-04 -1.06010e-04 4.19760e-04 3.04610e-05 -1.88790e-05 4.36030e-03 -8.95340e-04 -1.05280e-04 -4.48630e-05 2.46640e-05 -2.07010e-05 3.81330e-03 -9.84670e-04 -9.90470e-05 -4.89510e-04 1.96630e-05 -2.25530e-05 3.29760e-03 -1.01050e-03 -8.47890e-05 -9.13040e-04 1.62710e-05 -2.47090e-05 2.81050e-03 -9.64880e-04 -6.90280e-05 -1.33380e-03 1.41600e-05 -2.77060e-05 2.38430e-03 -9.02310e-04 -6.54230e-05 -1.75070e-03 1.24580e-05 -3.49120e-05 1.97900e-03 -8.30230e-04 -1.88210e-04 -2.28220e-03 1.47130e-05 -4.92190e-05 1.61640e-03 -7.42080e-04 -2.95580e-04 -2.64660e-03 1.87270e-05 -6.01280e-05 1.50070e-03 4.14010e-01 2.93060e-01 2.83770e-01 -2.65540e-02 1.71880e-03 -4.93840e-03 4.46390e-01 1.94350e-01 1.71920e-01 -2.05840e-02 4.38730e-03 3.73430e-02 4.66410e-01 6.27000e-02 3.05400e-02 -8.63550e-03 6.93170e-03 8.40550e-02 4.56810e-01 1.37250e-02 -1.81720e-02 -4.81470e-04 7.73040e-03 8.56860e-02 4.34850e-01 3.07450e-03 -2.47090e-02 2.09730e-03 7.30150e-03 8.21330e-02 4.17780e-01 2.26790e-03 -2.13890e-02 2.11920e-03 6.45100e-03 8.16030e-02 3.95770e-01 6.53040e-06 -1.76540e-02 2.22530e-03 5.30500e-03 8.91950e-02 3.90610e-01 4.05150e-04 -1.63350e-02 1.76100e-03 4.70020e-03 8.31790e-02 3.79440e-01 -1.30270e-04 -1.40110e-02 1.55460e-03 3.94260e-03 8.50080e-02 3.68880e-01 -5.40740e-04 -1.15330e-02 1.36550e-03 3.28870e-03 8.70580e-02 3.58890e-01 -6.50730e-04 -9.03210e-03 1.17970e-03 2.74900e-03 8.91910e-02 3.49070e-01 -8.66340e-04 -6.57000e-03 1.02200e-03 2.31270e-03 9.12260e-02 3.39580e-01 -8.13290e-04 -4.01900e-03 8.87290e-04 1.96480e-03 9.31340e-02 3.30170e-01 -8.97340e-04 -1.58250e-03 7.80380e-04 1.69410e-03 9.48300e-02 2.97010e-01 -4.94330e-03 -3.83880e-03 6.34990e-04 1.51740e-03 9.15130e-02 2.39800e-01 -1.37170e-02 -1.13950e-02 4.53670e-04 1.41240e-03 8.31180e-02 3.03050e-01 -7.40740e-04 5.51980e-03 5.84340e-04 1.19240e-03 9.86110e-02 2.94270e-01 -7.31530e-04 7.68870e-03 5.46660e-04 1.09380e-03 9.94190e-02 2.85660e-01 -6.59200e-04 9.79910e-03 5.18110e-04 1.01470e-03 1.00020e-01 2.71070e-01 -7.24300e-04 1.49260e-02 4.92560e-04 9.35070e-04 1.06090e-01 2.68840e-01 -5.77280e-04 1.36840e-02 4.76670e-04 8.97620e-04 1.00620e-01 2.60630e-01 -5.49600e-04 1.54670e-02 4.61100e-04 8.52240e-04 1.00640e-01 2.52590e-01 -4.99960e-04 1.71630e-02 4.48290e-04 8.12050e-04 1.00500e-01 2.44670e-01 -4.70760e-04 1.87460e-02 4.36970e-04 7.76090e-04 1.00200e-01 2.36910e-01 -4.28990e-04 2.02370e-02 4.27330e-04 7.42880e-04 9.97440e-02 2.42060e-01 2.17720e-03 2.70510e-02 3.81200e-04 1.02200e-03 1.06530e-01 2.28970e-01 7.79230e-04 2.43960e-02 3.94680e-04 8.16390e-04 1.00350e-01 2.14510e-01 -3.38290e-04 2.40950e-02 4.04230e-04 6.55060e-04 9.75890e-02 2.07340e-01 -3.08060e-04 2.51880e-02 3.98120e-04 6.28470e-04 9.66350e-02 2.00320e-01 -2.83770e-04 2.61830e-02 3.92500e-04 6.02970e-04 9.55760e-02 1.93450e-01 -2.57930e-04 2.70860e-02 3.87390e-04 5.78380e-04 9.44220e-02 1.86730e-01 -2.36240e-04 2.78950e-02 3.82620e-04 5.54700e-04 9.31790e-02 1.80150e-01 -2.14140e-04 2.86160e-02 3.78170e-04 5.31830e-04 9.18550e-02 1.78930e-01 -6.47640e-05 2.67860e-02 3.74690e-04 5.15280e-04 8.77320e-02 1.67450e-01 -1.76160e-04 2.97950e-02 3.69900e-04 4.88430e-04 8.89900e-02 1.61310e-01 -1.59530e-04 3.02590e-02 3.65980e-04 4.67830e-04 8.74620e-02 1.55320e-01 -1.43430e-04 3.06420e-02 3.62150e-04 4.47930e-04 8.58790e-02 1.49470e-01 -1.29090e-04 3.09480e-02 3.58380e-04 4.28700e-04 8.42460e-02 1.43770e-01 -1.15450e-04 3.11780e-02 3.54630e-04 4.10120e-04 8.25700e-02 1.38200e-01 -1.03220e-04 3.13360e-02 3.50900e-04 3.92180e-04 8.08540e-02 1.37260e-01 2.61760e-05 2.94620e-02 3.48860e-04 3.79530e-04 7.73510e-02 1.27480e-01 -8.14360e-05 3.14460e-02 3.43370e-04 3.58110e-04 7.73260e-02 1.22320e-01 -7.18850e-05 3.14050e-02 3.39560e-04 3.41950e-04 7.55230e-02 1.17300e-01 -6.33270e-05 3.13020e-02 3.35710e-04 3.26350e-04 7.37000e-02 1.12400e-01 -5.54960e-05 3.11420e-02 3.31800e-04 3.11290e-04 7.18600e-02 1.07640e-01 -4.85200e-05 3.09270e-02 3.27830e-04 2.96760e-04 7.00080e-02 1.04260e-01 -2.15500e-05 3.02410e-02 3.84460e-04 1.09580e-04 6.78490e-02 1.02160e-01 2.50280e-05 2.91550e-02 5.01640e-04 -2.43420e-04 6.54760e-02 9.40920e-02 -3.17520e-05 2.99830e-02 3.15530e-04 2.56170e-04 6.44100e-02 8.98210e-02 -2.74800e-05 2.95780e-02 3.11290e-04 2.43580e-04 6.25420e-02 8.56690e-02 -2.37760e-05 2.91320e-02 3.06980e-04 2.31450e-04 6.06760e-02 8.16340e-02 -2.06430e-05 2.86490e-02 3.02590e-04 2.19760e-04 5.88170e-02 7.44900e-02 -1.10300e-04 2.92500e-02 2.94940e-04 2.04730e-04 5.76280e-02 7.39080e-02 -1.58930e-05 2.75800e-02 2.93590e-04 1.97610e-04 5.51270e-02 7.02120e-02 -1.42160e-05 2.70000e-02 2.88980e-04 1.87140e-04 5.33010e-02 6.66270e-02 -1.29740e-05 2.63920e-02 2.84290e-04 1.77040e-04 5.14890e-02 6.31490e-02 -1.21240e-05 2.57600e-02 2.79530e-04 1.67310e-04 4.96950e-02 5.97770e-02 -1.16480e-05 2.51040e-02 2.74700e-04 1.57940e-04 4.79190e-02 5.65100e-02 -1.15120e-05 2.44290e-02 2.69790e-04 1.48900e-04 4.61640e-02 5.33460e-02 -1.16960e-05 2.37360e-02 2.64810e-04 1.40200e-04 4.44310e-02 5.27170e-02 6.38460e-05 2.23810e-02 2.63670e-04 1.35140e-04 4.24970e-02 4.73200e-02 -1.29120e-05 2.23040e-02 2.54660e-04 1.23710e-04 4.10370e-02 4.44550e-02 -1.38980e-05 2.15690e-02 2.49480e-04 1.15910e-04 3.93780e-02 4.16880e-02 -1.51070e-05 2.08250e-02 2.44250e-04 1.08390e-04 3.77470e-02 3.90160e-02 -1.65160e-05 2.00720e-02 2.38950e-04 1.01140e-04 3.61430e-02 3.44570e-02 -8.41970e-05 1.97140e-02 2.29350e-04 9.10070e-05 3.46070e-02 3.39550e-02 -1.98530e-05 1.85500e-02 2.28180e-04 8.73950e-05 3.30250e-02 3.15630e-02 -2.17430e-05 1.77840e-02 2.22720e-04 8.08810e-05 3.15120e-02 2.92630e-02 -2.37560e-05 1.70160e-02 2.17200e-04 7.45920e-05 3.00310e-02 2.70520e-02 -2.58730e-05 1.62480e-02 2.11640e-04 6.85170e-05 2.85820e-02 2.49300e-02 -2.80780e-05 1.54820e-02 2.06030e-04 6.26480e-05 2.71650e-02 2.28970e-02 -3.03550e-05 1.47190e-02 2.00380e-04 5.69740e-05 2.57830e-02 2.09510e-02 -3.26870e-05 1.39590e-02 1.94690e-04 5.14860e-05 2.44340e-02 1.90920e-02 -3.50620e-05 1.32050e-02 1.88970e-04 4.61740e-05 2.31200e-02 1.73180e-02 -3.74630e-05 1.24570e-02 1.83210e-04 4.10310e-05 2.18400e-02 1.56290e-02 -3.98780e-05 1.17160e-02 1.77410e-04 3.60460e-05 2.05960e-02 1.40250e-02 -4.22960e-05 1.09840e-02 1.71590e-04 3.12110e-05 1.93880e-02 1.35470e-02 -1.79340e-06 1.02750e-02 1.70570e-04 2.93260e-05 1.84290e-02 1.10670e-02 -4.70940e-05 9.54820e-03 1.59860e-04 2.19580e-05 1.70790e-02 9.71270e-03 -4.94580e-05 8.84620e-03 1.53960e-04 1.75230e-05 1.59780e-02 8.44030e-03 -5.17900e-05 8.15590e-03 1.48020e-04 1.32040e-05 1.49140e-02 7.24980e-03 -5.40900e-05 7.47790e-03 1.42050e-04 8.99280e-06 1.38870e-02 6.14080e-03 -5.63580e-05 6.81280e-03 1.36030e-04 4.88010e-06 1.28970e-02 5.11280e-03 -5.86030e-05 6.16140e-03 1.29950e-04 8.57150e-07 1.19430e-02 4.16550e-03 -6.08380e-05 5.52400e-03 1.23790e-04 -3.08480e-06 1.10270e-02 3.29880e-03 -6.30890e-05 4.90120e-03 1.17490e-04 -6.95460e-06 1.01470e-02 2.66130e-03 -5.26520e-05 4.37190e-03 1.13840e-04 -2.16380e-05 9.41070e-03 2.19770e-03 -3.11380e-05 3.94560e-03 1.13420e-04 -4.48990e-05 8.81640e-03 1.17920e-03 -7.02610e-05 3.12470e-03 9.71140e-05 -1.82070e-05 7.73010e-03 6.32230e-04 -7.29200e-05 2.56440e-03 8.94890e-05 -2.18550e-05 6.99830e-03 1.64600e-04 -7.57080e-05 2.02080e-03 8.12350e-05 -2.54530e-05 6.30300e-03 -2.24030e-04 -7.85480e-05 1.49400e-03 7.22410e-05 -2.89930e-05 5.64400e-03 -7.00960e-04 -9.60800e-05 7.79530e-04 5.58850e-05 -3.51140e-05 4.77850e-03 -7.67100e-04 -8.27560e-05 4.93230e-04 5.21340e-05 -3.58470e-05 4.43200e-03 -9.24690e-04 -8.21240e-05 2.04570e-05 4.17870e-05 -3.91160e-05 3.87670e-03 -1.01110e-03 -7.71100e-05 -4.32920e-04 3.26130e-05 -4.23040e-05 3.35250e-03 -1.03360e-03 -6.47780e-05 -8.66220e-04 2.67690e-05 -4.55540e-05 2.85690e-03 -1.00530e-03 -4.55650e-05 -1.28380e-03 2.57600e-05 -5.01350e-05 2.38950e-03 -9.41620e-04 -4.57090e-05 -1.71520e-03 2.85560e-05 -5.90650e-05 1.96360e-03 -8.36430e-04 -1.68410e-04 -2.27760e-03 3.50180e-05 -7.51160e-05 1.63030e-03 -7.44180e-04 -2.71780e-04 -2.64930e-03 4.16620e-05 -9.02420e-05 1.51160e-03 4.05820e-01 2.68840e-01 2.63830e-01 -4.98160e-02 3.61110e-03 -1.02630e-02 4.43510e-01 1.68580e-01 1.58010e-01 -3.44650e-02 8.60470e-03 2.92350e-02 4.62940e-01 4.02890e-02 2.05590e-02 -7.36530e-03 1.11290e-02 7.22290e-02 4.47330e-01 4.12940e-03 -2.18810e-02 4.56100e-03 1.06490e-02 7.29680e-02 4.28040e-01 7.24530e-04 -2.39670e-02 4.43940e-03 9.23590e-03 7.20590e-02 4.87440e-01 1.84780e-03 -2.26090e-02 4.12760e-03 5.39100e-03 8.22980e-02 4.12890e-01 -4.11870e-04 -1.88500e-02 2.53360e-03 6.08220e-03 8.11740e-02 3.89730e-01 -1.35650e-04 -1.65480e-02 2.24530e-03 5.72060e-03 7.96380e-02 3.79490e-01 -3.58330e-04 -1.38960e-02 1.97070e-03 4.78350e-03 8.28820e-02 3.69500e-01 -6.46560e-04 -1.12330e-02 1.69060e-03 4.03650e-03 8.60400e-02 3.59900e-01 -6.52760e-04 -8.49230e-03 1.47710e-03 3.40370e-03 8.90090e-02 3.50300e-01 -8.20740e-04 -5.86070e-03 1.27060e-03 2.91320e-03 9.16670e-02 3.40930e-01 -7.45300e-04 -3.15870e-03 1.11590e-03 2.51410e-03 9.40270e-02 3.31570e-01 -8.20580e-04 -6.10560e-04 9.80800e-04 2.21070e-03 9.60430e-02 2.98610e-01 -4.68200e-03 -2.69270e-03 8.24140e-04 1.98320e-03 9.29600e-02 2.41830e-01 -1.30490e-02 -9.97100e-03 6.05880e-04 1.81170e-03 8.48020e-02 3.04310e-01 -6.87020e-04 6.68650e-03 7.43320e-04 1.63810e-03 1.00280e-01 2.95450e-01 -6.86580e-04 8.88670e-03 6.93820e-04 1.52430e-03 1.01140e-01 2.86750e-01 -6.27060e-04 1.10150e-02 6.56980e-04 1.43030e-03 1.01760e-01 2.72010e-01 -7.19710e-04 1.61480e-02 6.23450e-04 1.33590e-03 1.07840e-01 2.69730e-01 -5.65680e-04 1.49140e-02 5.99170e-04 1.28810e-03 1.02360e-01 2.61430e-01 -5.46540e-04 1.66970e-02 5.75960e-04 1.23140e-03 1.02360e-01 2.53290e-01 -5.06690e-04 1.83870e-02 5.56710e-04 1.17970e-03 1.02190e-01 2.45290e-01 -4.85150e-04 1.99630e-02 5.38780e-04 1.13290e-03 1.01860e-01 2.37440e-01 -4.51620e-04 2.14430e-02 5.23380e-04 1.08870e-03 1.01380e-01 2.79650e-01 7.23840e-03 3.34980e-02 6.56110e-04 1.05290e-03 1.14740e-01 2.38820e-01 2.16130e-03 2.76430e-02 5.45830e-04 1.00910e-03 1.04570e-01 2.14800e-01 -3.79990e-04 2.52660e-02 4.84280e-04 9.69600e-04 9.91190e-02 2.07560e-01 -3.55270e-04 2.63450e-02 4.73580e-04 9.32770e-04 9.81300e-02 2.00470e-01 -3.35550e-04 2.73260e-02 4.63480e-04 8.97300e-04 9.70360e-02 1.93530e-01 -3.14060e-04 2.82140e-02 4.54280e-04 8.62810e-04 9.58470e-02 1.86740e-01 -2.95970e-04 2.90090e-02 4.45550e-04 8.29450e-04 9.45680e-02 1.80110e-01 -2.77170e-04 2.97140e-02 4.37450e-04 7.97000e-04 9.32090e-02 1.78850e-01 -1.24730e-04 2.78760e-02 4.31280e-04 7.73440e-04 8.90670e-02 1.67300e-01 -2.44280e-04 3.08620e-02 4.22400e-04 7.34990e-04 9.02760e-02 1.61120e-01 -2.29550e-04 3.13090e-02 4.15360e-04 7.05340e-04 8.87140e-02 1.55090e-01 -2.15050e-04 3.16760e-02 4.08630e-04 6.76540e-04 8.70980e-02 1.49200e-01 -2.01890e-04 3.19650e-02 4.02090e-04 6.48610e-04 8.54330e-02 1.43460e-01 -1.89140e-04 3.21790e-02 3.95770e-04 6.21490e-04 8.37240e-02 1.37850e-01 -1.77460e-04 3.23200e-02 3.89580e-04 5.95190e-04 8.19770e-02 1.36900e-01 -4.52930e-05 3.04360e-02 3.86200e-04 5.76650e-04 7.84560e-02 1.27080e-01 -1.55940e-04 3.23970e-02 3.77610e-04 5.44950e-04 7.83880e-02 1.21890e-01 -1.46130e-04 3.23380e-02 3.71780e-04 5.20970e-04 7.65560e-02 1.16850e-01 -1.37060e-04 3.22190e-02 3.66020e-04 4.97740e-04 7.47030e-02 1.11930e-01 -1.28510e-04 3.20410e-02 3.60330e-04 4.75230e-04 7.28350e-02 1.07150e-01 -1.20580e-04 3.18100e-02 3.54690e-04 4.53440e-04 7.09560e-02 1.02490e-01 -1.13150e-04 3.15260e-02 3.49100e-04 4.32330e-04 6.90670e-02 1.01720e-01 -2.26960e-06 2.97430e-02 3.47250e-04 4.18160e-04 6.61430e-02 9.35640e-02 -9.98520e-05 3.08140e-02 3.38020e-04 3.92140e-04 6.52800e-02 8.92840e-02 -9.39240e-05 3.03930e-02 3.32510e-04 3.73030e-04 6.33860e-02 8.51250e-02 -8.84200e-05 2.99300e-02 3.27020e-04 3.54540e-04 6.14970e-02 8.10850e-02 -8.33500e-05 2.94300e-02 3.21540e-04 3.36660e-04 5.96140e-02 7.39360e-02 -1.71460e-04 3.00070e-02 3.11720e-04 3.13590e-04 5.83920e-02 7.33530e-02 -7.43710e-05 2.83280e-02 3.10580e-04 3.02700e-04 5.58790e-02 6.96570e-02 -7.04230e-05 2.77320e-02 3.05100e-04 2.86580e-04 5.40300e-02 6.60720e-02 -6.68180e-05 2.71070e-02 2.99610e-04 2.71010e-04 5.21980e-02 6.25970e-02 -6.35250e-05 2.64590e-02 2.94110e-04 2.55970e-04 5.03830e-02 5.92290e-02 -6.05360e-05 2.57870e-02 2.88600e-04 2.41460e-04 4.85870e-02 5.59660e-02 -5.78250e-05 2.50960e-02 2.83070e-04 2.27460e-04 4.68120e-02 5.28080e-02 -5.53810e-05 2.43870e-02 2.77520e-04 2.13950e-04 4.50600e-02 5.21830e-02 2.24020e-05 2.30230e-02 2.77130e-04 2.06100e-04 4.31150e-02 4.67970e-02 -5.12210e-05 2.29230e-02 2.66380e-04 1.88340e-04 4.16290e-02 4.39420e-02 -4.94750e-05 2.21730e-02 2.60780e-04 1.76210e-04 3.99520e-02 4.11840e-02 -4.79320e-05 2.14130e-02 2.55150e-04 1.64520e-04 3.83030e-02 3.85230e-02 -4.65780e-05 2.06450e-02 2.49500e-04 1.53250e-04 3.66830e-02 3.39810e-02 -1.10730e-04 2.02650e-02 2.38260e-04 1.37530e-04 3.51230e-02 3.34850e-02 -4.43860e-05 1.90920e-02 2.38140e-04 1.31920e-04 3.35320e-02 3.11060e-02 -4.35230e-05 1.83100e-02 2.32430e-04 1.21820e-04 3.20030e-02 2.88190e-02 -4.27990e-05 1.75270e-02 2.26690e-04 1.12100e-04 3.05050e-02 2.66230e-02 -4.22030e-05 1.67450e-02 2.20940e-04 1.02730e-04 2.90410e-02 2.45160e-02 -4.17240e-05 1.59630e-02 2.15160e-04 9.36970e-05 2.76090e-02 2.24970e-02 -4.13520e-05 1.51850e-02 2.09370e-04 8.49950e-05 2.62120e-02 2.05670e-02 -4.10760e-05 1.44100e-02 2.03550e-04 7.66100e-05 2.48480e-02 1.87230e-02 -4.08880e-05 1.36410e-02 1.97710e-04 6.85300e-05 2.35200e-02 1.69650e-02 -4.07770e-05 1.28780e-02 1.91860e-04 6.07430e-05 2.22260e-02 1.52930e-02 -4.07370e-05 1.21230e-02 1.85990e-04 5.32360e-05 2.09680e-02 1.37050e-02 -4.07580e-05 1.13760e-02 1.80100e-04 4.60000e-05 1.97450e-02 1.32370e-02 1.10710e-06 1.06580e-02 1.80490e-04 4.32200e-05 1.87790e-02 1.07810e-02 -4.09600e-05 9.90980e-03 1.68270e-04 3.22930e-05 1.74090e-02 9.44420e-03 -4.11300e-05 9.19290e-03 1.62330e-04 2.58000e-05 1.62950e-02 8.18920e-03 -4.13390e-05 8.48770e-03 1.56360e-04 1.95320e-05 1.52180e-02 7.01630e-03 -4.15870e-05 7.79470e-03 1.50370e-04 1.34780e-05 1.41770e-02 5.92480e-03 -4.18730e-05 7.11480e-03 1.44330e-04 7.62620e-06 1.31730e-02 4.91440e-03 -4.22010e-05 6.44830e-03 1.38230e-04 1.96480e-06 1.22070e-02 3.98480e-03 -4.25790e-05 5.79590e-03 1.32050e-04 -3.51830e-06 1.12770e-02 3.13560e-03 -4.30210e-05 5.15800e-03 1.25720e-04 -8.83540e-06 1.03840e-02 2.36650e-03 -4.35390e-05 4.53520e-03 1.19200e-04 -1.39990e-05 9.52820e-03 2.09200e-03 -2.05870e-05 4.11430e-03 1.19470e-04 -1.51610e-05 8.97760e-03 1.06720e-03 -4.49160e-05 3.33630e-03 1.05170e-04 -2.39110e-05 7.92730e-03 5.36180e-04 -4.58240e-05 2.76100e-03 9.73780e-05 -2.86810e-05 7.18200e-03 8.35130e-05 -4.68840e-05 2.20230e-03 8.88420e-05 -3.33370e-05 6.47300e-03 -2.91570e-04 -4.80640e-05 1.66080e-03 7.93670e-05 -3.78860e-05 5.80010e-03 -7.52330e-04 -6.37240e-05 9.25330e-04 6.02920e-05 -4.60330e-05 4.91370e-03 -8.13870e-04 -4.99410e-05 6.31290e-04 5.72410e-05 -4.66210e-05 4.55880e-03 -9.65130e-04 -4.95510e-05 1.44280e-04 4.51220e-05 -5.07090e-05 3.98810e-03 -1.04750e-03 -4.62260e-05 -3.23430e-04 3.38890e-05 -5.44160e-05 3.44800e-03 -1.06730e-03 -3.82300e-05 -7.73310e-04 2.64880e-05 -5.75300e-05 2.93690e-03 -1.03370e-03 -2.21550e-05 -1.20940e-03 2.80400e-05 -6.02070e-05 2.45360e-03 -9.63740e-04 -1.34320e-05 -1.66120e-03 3.78100e-05 -6.74140e-05 2.00840e-03 -8.53640e-04 -1.19160e-04 -2.25430e-03 4.79400e-05 -8.88580e-05 1.65430e-03 -7.58630e-04 -2.11410e-04 -2.64800e-03 5.37620e-05 -1.13500e-04 1.52730e-03 3.97710e-01 2.26820e-01 2.27570e-01 -8.58450e-02 5.21140e-03 -2.23110e-02 4.33200e-01 1.10580e-01 1.14780e-01 -4.61140e-02 1.09690e-02 1.09410e-02 4.35480e-01 1.02680e-02 -4.98890e-03 2.31450e-03 1.10820e-02 4.76110e-02 4.29470e-01 1.15600e-03 -2.31320e-02 7.70300e-03 8.42230e-03 5.37040e-02 4.19430e-01 -3.42450e-04 -2.53230e-02 4.66410e-03 7.05950e-03 5.90530e-02 4.84460e-01 -1.34180e-04 -2.47780e-02 2.36250e-03 5.13160e-03 7.72990e-02 4.23980e-01 -5.84620e-04 -2.05530e-02 2.40610e-03 4.78920e-03 7.42220e-02 3.90350e-01 -1.70280e-04 -1.68010e-02 2.04160e-03 4.16870e-03 7.63200e-02 3.81030e-01 -1.69000e-04 -1.36110e-02 1.84440e-03 3.50890e-03 8.14060e-02 3.71640e-01 -3.86550e-04 -1.06060e-02 1.65490e-03 2.98000e-03 8.59300e-02 3.62390e-01 -3.08710e-04 -7.49970e-03 1.50590e-03 2.54570e-03 8.98930e-02 3.52970e-01 -4.50420e-04 -4.63040e-03 1.35760e-03 2.20980e-03 9.32640e-02 3.43650e-01 -3.65610e-04 -1.71930e-03 1.24160e-03 1.94060e-03 9.61160e-02 3.34250e-01 -4.41840e-04 9.68030e-04 1.13800e-03 1.73700e-03 9.84660e-02 3.01390e-01 -4.17060e-03 -7.37790e-04 1.02080e-03 1.52130e-03 9.55760e-02 2.44890e-01 -1.22250e-02 -7.38290e-03 8.86450e-04 1.28460e-03 8.75760e-02 3.06610e-01 -3.57790e-04 8.48790e-03 9.34010e-04 1.35630e-03 1.03120e-01 2.97580e-01 -3.71880e-04 1.07140e-02 8.86030e-04 1.28050e-03 1.04010e-01 2.88710e-01 -3.33580e-04 1.28540e-02 8.45330e-04 1.21750e-03 1.04630e-01 2.73740e-01 -4.66000e-04 1.79790e-02 8.04870e-04 1.15550e-03 1.10680e-01 2.71370e-01 -3.06410e-04 1.67470e-02 7.75780e-04 1.12020e-03 1.05180e-01 2.62910e-01 -3.01880e-04 1.85180e-02 7.45380e-04 1.08030e-03 1.05150e-01 2.54610e-01 -2.79070e-04 2.01920e-02 7.17220e-04 1.04330e-03 1.04930e-01 2.46450e-01 -2.71310e-04 2.17490e-02 6.90820e-04 1.00900e-03 1.04550e-01 2.38460e-01 -2.52840e-04 2.32080e-02 6.65960e-04 9.76140e-04 1.04020e-01 2.80330e-01 7.26550e-03 3.47910e-02 7.12160e-04 1.07280e-03 1.17290e-01 2.39500e-01 2.28160e-03 2.92150e-02 6.44150e-04 9.55760e-04 1.07090e-01 2.15420e-01 -2.18780e-04 2.69640e-02 5.99190e-04 8.84230e-04 1.01600e-01 2.08060e-01 -2.05730e-04 2.80190e-02 5.79100e-04 8.55010e-04 1.00550e-01 2.00850e-01 -1.96400e-04 2.89760e-02 5.60020e-04 8.26390e-04 9.94050e-02 1.93810e-01 -1.85130e-04 2.98400e-02 5.41760e-04 7.98290e-04 9.81610e-02 1.86920e-01 -1.76280e-04 3.06100e-02 5.24340e-04 7.70710e-04 9.68270e-02 1.80190e-01 -1.66430e-04 3.12900e-02 5.07620e-04 7.43640e-04 9.54130e-02 1.78880e-01 -1.13950e-05 2.94390e-02 4.96270e-04 7.22960e-04 9.12380e-02 1.67210e-01 -1.49520e-04 3.23880e-02 4.76190e-04 6.91000e-04 9.23720e-02 1.60950e-01 -1.41960e-04 3.28110e-02 4.61380e-04 6.65440e-04 9.07570e-02 1.54840e-01 -1.34260e-04 3.31540e-02 4.47090e-04 6.40390e-04 8.90890e-02 1.48890e-01 -1.27360e-04 3.34180e-02 4.33330e-04 6.15860e-04 8.73720e-02 1.43090e-01 -1.20510e-04 3.36070e-02 4.20030e-04 5.91850e-04 8.56120e-02 1.37430e-01 -1.14260e-04 3.37230e-02 4.07190e-04 5.68350e-04 8.38150e-02 1.36450e-01 1.97190e-05 3.18260e-02 4.00110e-04 5.51380e-04 8.02650e-02 1.26550e-01 -1.02500e-04 3.37510e-02 3.82770e-04 5.22940e-04 8.01290e-02 1.21330e-01 -9.70510e-05 3.36680e-02 3.71150e-04 5.01030e-04 7.82490e-02 1.16240e-01 -9.19790e-05 3.35240e-02 3.59910e-04 4.79640e-04 7.63500e-02 1.11290e-01 -8.71150e-05 3.33230e-02 3.49030e-04 4.58790e-04 7.44370e-02 1.06480e-01 -8.25710e-05 3.30670e-02 3.38480e-04 4.38460e-04 7.25130e-02 1.01800e-01 -7.82380e-05 3.27600e-02 3.28260e-04 4.18660e-04 7.05810e-02 1.01010e-01 3.40230e-05 3.09640e-02 3.24290e-04 4.05330e-04 6.76320e-02 9.28230e-02 -7.03260e-05 3.20010e-02 3.08750e-04 3.80640e-04 6.67090e-02 8.85270e-02 -6.67130e-05 3.15560e-02 2.99440e-04 3.62420e-04 6.47750e-02 8.43540e-02 -6.32930e-05 3.10710e-02 2.90400e-04 3.44710e-04 6.28450e-02 8.03030e-02 -6.00850e-05 3.05480e-02 2.81630e-04 3.27510e-04 6.09240e-02 7.31430e-02 -1.52570e-04 3.10930e-02 2.66840e-04 3.05000e-04 5.96480e-02 7.25570e-02 -5.42190e-05 2.94010e-02 2.64850e-04 2.94640e-04 5.71130e-02 6.88580e-02 -5.15470e-05 2.87820e-02 2.56820e-04 2.78950e-04 5.52290e-02 6.52730e-02 -4.90410e-05 2.81360e-02 2.49020e-04 2.63750e-04 5.33600e-02 6.17980e-02 -4.66870e-05 2.74650e-02 2.41430e-04 2.49040e-04 5.15110e-02 5.84340e-02 -4.44830e-05 2.67720e-02 2.34050e-04 2.34800e-04 4.96810e-02 5.51770e-02 -4.24160e-05 2.60600e-02 2.26870e-04 2.21030e-04 4.78740e-02 5.20260e-02 -4.04830e-05 2.53290e-02 2.19890e-04 2.07720e-04 4.60890e-02 5.14050e-02 3.79650e-05 2.39530e-02 2.19790e-04 2.00390e-04 4.41250e-02 4.60340e-02 -3.69850e-05 2.38230e-02 2.06460e-04 1.82460e-04 4.25950e-02 4.31910e-02 -3.54070e-05 2.30520e-02 2.00010e-04 1.70480e-04 4.08890e-02 4.04460e-02 -3.39350e-05 2.22710e-02 1.93720e-04 1.58930e-04 3.92100e-02 3.78000e-02 -3.25630e-05 2.14820e-02 1.87590e-04 1.47800e-04 3.75610e-02 3.32810e-02 -9.69840e-05 2.10730e-02 1.74690e-04 1.31780e-04 3.59600e-02 3.27960e-02 -3.00980e-05 1.98880e-02 1.75770e-04 1.26750e-04 3.43530e-02 3.04350e-02 -2.89950e-05 1.90860e-02 1.70070e-04 1.16820e-04 3.27970e-02 2.81670e-02 -2.79710e-05 1.82820e-02 1.64510e-04 1.07260e-04 3.12730e-02 2.59910e-02 -2.70200e-05 1.74790e-02 1.59070e-04 9.80730e-05 2.97820e-02 2.39050e-02 -2.61410e-05 1.66780e-02 1.53750e-04 8.92460e-05 2.83250e-02 2.19080e-02 -2.53270e-05 1.58790e-02 1.48560e-04 8.07700e-05 2.69020e-02 2.00000e-02 -2.45740e-05 1.50840e-02 1.43470e-04 7.26350e-05 2.55140e-02 1.81790e-02 -2.38790e-05 1.42940e-02 1.38490e-04 6.48310e-05 2.41600e-02 1.64450e-02 -2.32380e-05 1.35110e-02 1.33610e-04 5.73470e-05 2.28420e-02 1.47970e-02 -2.26470e-05 1.27350e-02 1.28830e-04 5.01750e-05 2.15600e-02 1.32340e-02 -2.21040e-05 1.19680e-02 1.24140e-04 4.33040e-05 2.03140e-02 1.27790e-02 1.99280e-05 1.12380e-02 1.26840e-04 4.14390e-05 1.93350e-02 1.03600e-02 -2.11470e-05 1.04610e-02 1.15020e-04 3.04250e-05 1.79310e-02 9.04870e-03 -2.07300e-05 9.72310e-03 1.10570e-04 2.43980e-05 1.67950e-02 7.81970e-03 -2.03500e-05 8.99710e-03 1.06190e-04 1.86320e-05 1.56950e-02 6.67290e-03 -2.00070e-05 8.28320e-03 1.01880e-04 1.31170e-05 1.46320e-02 5.60770e-03 -1.97010e-05 7.58220e-03 9.76030e-05 7.84140e-06 1.36060e-02 4.62380e-03 -1.94320e-05 6.89460e-03 9.33620e-05 2.79550e-06 1.26180e-02 3.72080e-03 -1.92030e-05 6.22090e-03 8.91270e-05 -2.03310e-06 1.16660e-02 2.89820e-03 -1.90180e-05 5.56150e-03 8.48640e-05 -6.65510e-06 1.07510e-02 2.15570e-03 -1.88820e-05 4.91700e-03 8.05250e-05 -1.10840e-05 9.87390e-03 1.89620e-03 4.24530e-06 4.48360e-03 8.38810e-05 -1.10080e-05 9.31090e-03 9.08770e-04 -1.87950e-05 3.67420e-03 7.13280e-05 -1.94110e-05 8.22990e-03 4.03130e-04 -1.88600e-05 3.07670e-03 6.62560e-05 -2.33350e-05 7.46300e-03 -2.52230e-05 -1.90130e-05 2.49570e-03 6.06740e-05 -2.71220e-05 6.73230e-03 -3.77710e-04 -1.92270e-05 1.93180e-03 5.44000e-05 -3.07820e-05 6.03720e-03 -8.10910e-04 -3.36380e-05 1.16410e-03 3.82020e-05 -3.85380e-05 5.11800e-03 -8.64340e-04 -1.96420e-05 8.57480e-04 3.91260e-05 -3.77670e-05 4.74940e-03 -1.00560e-03 -1.94580e-05 3.48220e-04 3.01790e-05 -4.10310e-05 4.15360e-03 -1.08570e-03 -1.83180e-05 -1.42240e-04 2.13460e-05 -4.38530e-05 3.58690e-03 -1.11040e-03 -1.48850e-05 -6.15260e-04 1.50610e-05 -4.57830e-05 3.04790e-03 -1.08450e-03 -8.80850e-06 -1.07920e-03 1.70700e-05 -4.58840e-05 2.53810e-03 -1.00660e-03 4.83410e-06 -1.55190e-03 3.41700e-05 -4.58520e-05 2.06450e-03 -8.73820e-04 -5.70070e-05 -2.16200e-03 4.88020e-05 -6.32970e-05 1.67220e-03 -7.62800e-04 -1.19040e-04 -2.57160e-03 5.27610e-05 -9.14710e-05 1.52860e-03 4.26010e-01 2.01440e-01 2.03200e-01 -1.22920e-01 7.87650e-03 -4.55410e-02 4.29630e-01 7.01120e-02 7.92600e-02 -4.84700e-02 1.40850e-02 -1.39410e-02 4.02100e-01 -7.70360e-04 -2.11770e-02 1.22710e-02 9.89790e-03 2.62850e-02 4.21930e-01 3.31360e-03 -2.26340e-02 5.04420e-03 6.96640e-03 4.00580e-02 4.15890e-01 -1.52500e-03 -2.90100e-02 4.60320e-03 5.86610e-03 5.01200e-02 4.84520e-01 -3.32860e-03 -2.87570e-02 2.24520e-03 4.61840e-03 7.29980e-02 4.24560e-01 2.02760e-04 -2.08620e-02 1.94180e-03 4.40010e-03 7.12360e-02 3.91860e-01 1.73020e-04 -1.65990e-02 1.41380e-03 4.04770e-03 7.49540e-02 3.82500e-01 -1.63730e-04 -1.35850e-02 1.64370e-03 3.66230e-03 8.13070e-02 3.73560e-01 -1.15920e-04 -9.94150e-03 1.38680e-03 3.34440e-03 8.67740e-02 3.64280e-01 -1.83760e-04 -6.80850e-03 1.41870e-03 3.08310e-03 9.13680e-02 3.54960e-01 -2.17930e-04 -3.61560e-03 1.26980e-03 2.87480e-03 9.51830e-02 3.45550e-01 -2.02650e-04 -6.44300e-04 1.23190e-03 2.70260e-03 9.83160e-02 3.36090e-01 -2.37090e-04 2.20630e-03 1.13600e-03 2.56740e-03 1.00850e-01 3.02990e-01 -4.07620e-03 6.87580e-04 1.05390e-03 2.42640e-03 9.80070e-02 2.46190e-01 -1.21560e-02 -5.49420e-03 9.40450e-04 2.27300e-03 8.99750e-02 3.08070e-01 -1.96140e-04 9.86910e-03 9.69150e-04 2.28190e-03 1.05670e-01 2.98910e-01 -2.08430e-04 1.21260e-02 9.17610e-04 2.21450e-03 1.06550e-01 2.89920e-01 -1.84000e-04 1.42710e-02 8.72470e-04 2.15240e-03 1.07160e-01 2.74770e-01 -3.36310e-04 1.94010e-02 8.23340e-04 2.08580e-03 1.13170e-01 2.72330e-01 -1.70320e-04 1.81690e-02 7.87480e-04 2.04340e-03 1.07640e-01 2.63760e-01 -1.70860e-04 1.99360e-02 7.48610e-04 1.99320e-03 1.07560e-01 2.55350e-01 -1.56230e-04 2.16010e-02 7.10750e-04 1.94380e-03 1.07310e-01 2.47090e-01 -1.53980e-04 2.31490e-02 6.75480e-04 1.89590e-03 1.06880e-01 2.39000e-01 -1.42320e-04 2.45980e-02 6.40990e-04 1.84820e-03 1.06300e-01 2.80990e-01 7.49530e-03 3.58420e-02 6.74250e-04 1.85450e-03 1.19640e-01 2.39930e-01 2.42160e-03 3.04730e-02 6.00950e-04 1.77140e-03 1.09320e-01 2.15680e-01 -1.24420e-04 2.83170e-02 5.48480e-04 1.70830e-03 1.03740e-01 2.08230e-01 -1.16430e-04 2.93590e-02 5.20250e-04 1.66220e-03 1.02650e-01 2.00950e-01 -1.11640e-04 3.03020e-02 4.93860e-04 1.61660e-03 1.01460e-01 1.93830e-01 -1.04830e-04 3.11520e-02 4.68440e-04 1.57110e-03 1.00170e-01 1.86870e-01 -1.00090e-04 3.19070e-02 4.44600e-04 1.52610e-03 9.87870e-02 1.80080e-01 -9.42120e-05 3.25730e-02 4.21730e-04 1.48140e-03 9.73270e-02 1.78740e-01 6.36040e-05 3.07120e-02 4.05770e-04 1.44810e-03 9.31250e-02 1.66980e-01 -8.45740e-05 3.36410e-02 3.79690e-04 1.39330e-03 9.41950e-02 1.60670e-01 -8.03730e-05 3.40480e-02 3.60350e-04 1.34990e-03 9.25360e-02 1.54510e-01 -7.58760e-05 3.43740e-02 3.41910e-04 1.30710e-03 9.08230e-02 1.48510e-01 -7.20230e-05 3.46220e-02 3.24540e-04 1.26470e-03 8.90630e-02 1.42670e-01 -6.80610e-05 3.47940e-02 3.08030e-04 1.22290e-03 8.72600e-02 1.36970e-01 -6.45630e-05 3.48940e-02 2.92470e-04 1.18170e-03 8.54210e-02 1.35970e-01 7.15690e-05 3.29870e-02 2.83350e-04 1.15240e-03 8.18470e-02 1.26030e-01 -5.79140e-05 3.48880e-02 2.63830e-04 1.10110e-03 8.16530e-02 1.20780e-01 -5.48230e-05 3.47870e-02 2.50690e-04 1.06170e-03 7.97330e-02 1.15660e-01 -5.20030e-05 3.46270e-02 2.38320e-04 1.02290e-03 7.77950e-02 1.10690e-01 -4.92740e-05 3.44080e-02 2.26650e-04 9.84880e-04 7.58420e-02 1.05860e-01 -4.67630e-05 3.41350e-02 2.15680e-04 9.47490e-04 7.38800e-02 1.01160e-01 -4.43580e-05 3.38100e-02 2.05350e-04 9.10790e-04 7.19110e-02 1.00360e-01 6.91080e-05 3.20030e-02 2.01570e-04 8.86030e-04 6.89400e-02 9.21610e-02 -4.00190e-05 3.30160e-02 1.86550e-04 8.39510e-04 6.79670e-02 8.78540e-02 -3.80600e-05 3.25530e-02 1.78010e-04 8.04940e-04 6.59970e-02 8.36740e-02 -3.62070e-05 3.20500e-02 1.70010e-04 7.71100e-04 6.40340e-02 7.96170e-02 -3.44880e-05 3.15090e-02 1.62520e-04 7.37980e-04 6.20780e-02 7.24520e-02 -1.30560e-04 3.20280e-02 1.49420e-04 6.94670e-04 6.07560e-02 7.18650e-02 -3.13720e-05 3.03270e-02 1.48960e-04 6.73970e-04 5.82020e-02 6.81650e-02 -2.99680e-05 2.96900e-02 1.42850e-04 6.43080e-04 5.62860e-02 6.45810e-02 -2.86660e-05 2.90260e-02 1.37140e-04 6.12930e-04 5.43870e-02 6.11100e-02 -2.74520e-05 2.83370e-02 1.31820e-04 5.83520e-04 5.25070e-02 5.77490e-02 -2.63300e-05 2.76260e-02 1.26860e-04 5.54860e-04 5.06480e-02 5.44980e-02 -2.52870e-05 2.68960e-02 1.22250e-04 5.26930e-04 4.88110e-02 5.13540e-02 -2.43230e-05 2.61470e-02 1.17950e-04 4.99750e-04 4.69980e-02 5.07380e-02 5.43420e-05 2.47610e-02 1.20350e-04 4.83480e-04 4.50170e-02 4.53800e-02 -2.26140e-05 2.46050e-02 1.10230e-04 4.47600e-04 4.34490e-02 4.25470e-02 -2.18590e-05 2.38160e-02 1.06770e-04 4.22620e-04 4.17150e-02 3.98140e-02 -2.11660e-05 2.30170e-02 1.03550e-04 3.98370e-04 4.00100e-02 3.71800e-02 -2.05320e-05 2.22110e-02 1.00550e-04 3.74840e-04 3.83350e-02 3.26810e-02 -8.63390e-05 2.17760e-02 9.11410e-05 3.42480e-04 3.66990e-02 3.22040e-02 -1.94240e-05 2.05810e-02 9.51540e-05 3.29930e-04 3.50770e-02 2.98580e-02 -1.89440e-05 1.97610e-02 9.27180e-05 3.08540e-04 3.34960e-02 2.76060e-02 -1.85090e-05 1.89390e-02 9.04370e-05 2.87840e-04 3.19480e-02 2.54460e-02 -1.81150e-05 1.81180e-02 8.82960e-05 2.67840e-04 3.04340e-02 2.33770e-02 -1.77610e-05 1.72990e-02 8.62790e-05 2.48530e-04 2.89530e-02 2.13980e-02 -1.74420e-05 1.64820e-02 8.43720e-05 2.29900e-04 2.75070e-02 1.95080e-02 -1.71570e-05 1.56690e-02 8.25620e-05 2.11940e-04 2.60970e-02 1.77050e-02 -1.69030e-05 1.48610e-02 8.08330e-05 1.94640e-04 2.47210e-02 1.59910e-02 -1.66780e-05 1.40600e-02 7.91730e-05 1.78000e-04 2.33810e-02 1.43620e-02 -1.64780e-05 1.32650e-02 7.75700e-05 1.62020e-04 2.20780e-02 1.28190e-02 -1.63040e-05 1.24790e-02 7.60100e-05 1.46670e-04 2.08100e-02 1.23760e-02 2.54750e-05 1.17400e-02 8.17240e-05 1.39750e-04 1.98180e-02 9.98580e-03 -1.60190e-05 1.09360e-02 7.29730e-05 1.17880e-04 1.83860e-02 8.69490e-03 -1.59070e-05 1.01800e-02 7.14710e-05 1.04410e-04 1.72280e-02 7.48690e-03 -1.58130e-05 9.43490e-03 6.99630e-05 9.15540e-05 1.61080e-02 6.36130e-03 -1.57370e-05 8.70230e-03 6.84360e-05 7.93000e-05 1.50250e-02 5.31750e-03 -1.56780e-05 7.98240e-03 6.68760e-05 6.76390e-05 1.39790e-02 4.35520e-03 -1.56350e-05 7.27580e-03 6.52640e-05 5.65620e-05 1.29710e-02 3.47390e-03 -1.56110e-05 6.58290e-03 6.35810e-05 4.60580e-05 1.20000e-02 2.67320e-03 -1.56060e-05 5.90430e-03 6.17990e-05 3.61190e-05 1.10660e-02 1.95260e-03 -1.56190e-05 5.24040e-03 5.98850e-05 2.67350e-05 1.01690e-02 1.70580e-03 7.33450e-06 4.79570e-03 6.58650e-05 2.41680e-05 9.59480e-03 7.49770e-04 -1.57120e-05 3.95810e-03 5.54520e-05 9.58280e-06 8.48670e-03 2.65940e-04 -1.57940e-05 3.34060e-03 5.27780e-05 1.78630e-06 7.70060e-03 -1.41000e-04 -1.58620e-05 2.73950e-03 4.96880e-05 -5.50220e-06 6.95070e-03 -4.73010e-04 -1.59350e-05 2.15520e-03 4.59920e-05 -1.23200e-05 6.23620e-03 -8.79770e-04 -2.96040e-05 1.35870e-03 3.25110e-05 -2.41970e-05 5.28870e-03 -9.24760e-04 -1.56390e-05 1.04020e-03 3.63140e-05 -2.45590e-05 4.90810e-03 -1.05460e-03 -1.46610e-05 5.11370e-04 3.03680e-05 -2.98710e-05 4.29020e-03 -1.13110e-03 -1.31390e-05 1.61780e-06 2.37960e-05 -3.46140e-05 3.69940e-03 -1.16130e-03 -8.47700e-06 -4.87510e-04 1.95440e-05 -3.77220e-05 3.13310e-03 -1.15260e-03 -3.62030e-06 -9.66960e-04 2.01630e-05 -3.91690e-05 2.59390e-03 -1.08090e-03 1.25750e-05 -1.44440e-03 4.17080e-05 -3.52910e-05 2.09320e-03 -9.21760e-04 -2.31670e-05 -2.05090e-03 6.39030e-05 -4.67510e-05 1.67210e-03 -7.85340e-04 -6.76020e-05 -2.46420e-03 7.03160e-05 -7.33560e-05 1.51680e-03 1.74300e-01 7.81260e-02 7.98840e-02 4.72140e-02 -7.91410e-03 -7.23080e-02 1.80010e-01 2.85760e-02 2.72540e-02 1.65990e-02 -1.58630e-02 -3.60460e-02 1.78020e-01 1.57970e-04 -1.90360e-02 -8.56480e-03 -1.36410e-02 1.49980e-02 1.92960e-01 6.19730e-04 -2.26990e-02 -5.11760e-03 -9.65260e-03 3.62480e-02 1.93790e-01 1.52120e-03 -2.17360e-02 -2.19320e-03 -6.28750e-03 5.85660e-02 1.92260e-01 -1.47230e-04 -2.26060e-02 -1.78260e-03 -5.47200e-03 5.37930e-02 1.87010e-01 -3.65700e-04 -2.06410e-02 -1.53670e-03 -4.55730e-03 5.91590e-02 1.81710e-01 -2.06750e-04 -1.76420e-02 -1.14070e-03 -3.88830e-03 6.37480e-02 1.75990e-01 -3.12380e-04 -1.48820e-02 -1.11630e-03 -3.43540e-03 6.77250e-02 1.70480e-01 -2.54660e-04 -1.18520e-02 -9.92980e-04 -3.04410e-03 7.10620e-02 1.64880e-01 -3.13540e-04 -8.98800e-03 -9.65940e-04 -2.77070e-03 7.37450e-02 1.59480e-01 -2.68930e-04 -6.11140e-03 -9.00630e-04 -2.53110e-03 7.58430e-02 1.54110e-01 -2.98660e-04 -3.42690e-03 -8.69260e-04 -2.36500e-03 7.74030e-02 1.25190e-01 -4.16910e-03 -5.12870e-03 -8.05630e-04 -2.14520e-03 7.34230e-02 7.25240e-02 -1.22400e-02 -1.14630e-02 -7.46790e-04 -1.88680e-03 6.39680e-02 1.39020e-01 -2.48730e-04 3.83260e-03 -7.52280e-04 -2.03250e-03 7.97510e-02 1.34260e-01 -2.53330e-04 5.93540e-03 -7.18610e-04 -1.96740e-03 7.99700e-02 1.25510e-01 -4.13970e-04 1.08250e-02 -6.89900e-04 -1.89630e-03 8.56990e-02 1.25150e-01 -2.32360e-04 9.75740e-03 -6.46610e-04 -1.86070e-03 7.98570e-02 1.20770e-01 -2.16500e-04 1.14890e-02 -6.10160e-04 -1.81520e-03 7.95820e-02 1.16490e-01 -2.13100e-04 1.31010e-02 -5.75650e-04 -1.77470e-03 7.91850e-02 1.12310e-01 -2.00280e-04 1.46160e-02 -5.40690e-04 -1.73470e-03 7.86850e-02 1.08220e-01 -1.95190e-04 1.60280e-02 -5.07610e-04 -1.69670e-03 7.80910e-02 1.04230e-01 -1.84370e-04 1.73500e-02 -4.74920e-04 -1.65860e-03 7.74140e-02 1.00320e-01 -1.78410e-04 1.85790e-02 -4.44110e-04 -1.62110e-03 7.66590e-02 1.45670e-01 7.19050e-03 3.00380e-02 -4.31260e-04 -1.73230e-03 9.10540e-02 1.09150e-01 2.30940e-03 2.42280e-02 -3.92180e-04 -1.59410e-03 7.99530e-02 8.91360e-02 -1.54410e-04 2.17620e-02 -3.58980e-04 -1.50800e-03 7.40030e-02 8.55830e-02 -1.48110e-04 2.26610e-02 -3.33610e-04 -1.47020e-03 7.30050e-02 8.21180e-02 -1.40690e-04 2.34830e-02 -3.09380e-04 -1.43220e-03 7.19580e-02 7.87410e-02 -1.34600e-04 2.42280e-02 -2.86680e-04 -1.39430e-03 7.08680e-02 7.54510e-02 -1.27910e-04 2.49000e-02 -2.65100e-04 -1.35640e-03 6.97390e-02 7.22480e-02 -1.22140e-04 2.55010e-02 -2.44890e-04 -1.31860e-03 6.85740e-02 6.91320e-02 -1.16100e-04 2.60320e-02 -2.25770e-04 -1.28090e-03 6.73780e-02 6.96780e-02 -1.77590e-05 2.40990e-02 -2.07930e-04 -1.25260e-03 6.34990e-02 1.02430e-01 5.50580e-03 3.34070e-02 -2.12240e-04 -1.30280e-03 7.52530e-02 9.82650e-02 5.34020e-03 3.36240e-02 -1.96790e-04 -1.26090e-03 7.38220e-02 9.42050e-02 5.17290e-03 3.37720e-02 -1.82320e-04 -1.21940e-03 7.23600e-02 9.02580e-02 5.01130e-03 3.38590e-02 -1.68780e-04 -1.17850e-03 7.08750e-02 9.01960e-02 5.02670e-03 3.18880e-02 -1.57540e-04 -1.14900e-03 6.74030e-02 3.98700e-02 -1.61330e-03 2.53740e-02 -1.14540e-04 -1.00180e-03 5.46460e-02 1.78470e-02 -4.70840e-03 2.02560e-02 -8.63380e-05 -9.24580e-04 4.59390e-02 4.47920e-02 -7.39160e-05 2.80230e-02 -1.00070e-04 -9.52720e-04 5.57400e-02 4.24770e-02 -7.01770e-05 2.79760e-02 -9.04560e-05 -9.18150e-04 5.44000e-02 4.02350e-02 -6.66470e-05 2.78820e-02 -8.15960e-05 -8.84060e-04 5.30590e-02 4.79660e-02 1.26490e-03 2.88720e-02 -8.09510e-05 -8.72570e-04 5.39840e-02 6.55250e-02 3.95380e-03 3.10490e-02 -9.13620e-05 -8.83070e-04 5.72240e-02 3.39320e-02 -5.69560e-05 2.73480e-02 -5.91010e-05 -7.84900e-04 4.90500e-02 3.19670e-02 -5.40360e-05 2.70930e-02 -5.28680e-05 -7.52940e-04 4.77230e-02 3.00690e-02 -5.12470e-05 2.68030e-02 -4.72100e-05 -7.21560e-04 4.64030e-02 2.82350e-02 -4.86000e-05 2.64790e-02 -4.21050e-05 -6.90760e-04 4.50910e-02 3.04390e-03 -3.19500e-03 2.32870e-02 -1.47600e-05 -6.10040e-04 3.79640e-02 2.25560e-02 -9.91200e-05 2.69600e-02 -3.26980e-05 -6.22040e-04 4.34070e-02 2.31090e-02 -4.14070e-05 2.53290e-02 -2.97940e-05 -6.02020e-04 4.12180e-02 2.15220e-02 -3.92490e-05 2.48930e-02 -2.66030e-05 -5.73680e-04 3.99510e-02 1.99930e-02 -3.71970e-05 2.44320e-02 -2.38220e-05 -5.45980e-04 3.86980e-02 1.85220e-02 -3.52540e-05 2.39490e-02 -2.14280e-05 -5.18920e-04 3.74580e-02 1.71070e-02 -3.34110e-05 2.34460e-02 -1.93940e-05 -4.92500e-04 3.62340e-02 1.74940e-02 1.39300e-05 2.20630e-02 -1.87950e-05 -4.75070e-04 3.44640e-02 1.44430e-02 -3.00120e-05 2.23850e-02 -1.63170e-05 -4.41630e-04 3.38320e-02 1.31910e-02 -2.84490e-05 2.18290e-02 -1.52270e-05 -4.17180e-04 3.26560e-02 1.19920e-02 -2.69700e-05 2.12600e-02 -1.44080e-05 -3.93380e-04 3.14970e-02 1.08440e-02 -2.55730e-05 2.06780e-02 -1.38380e-05 -3.70240e-04 3.03560e-02 2.02830e-02 1.67710e-03 2.29640e-02 -3.09050e-05 -3.62220e-04 3.35910e-02 -3.91910e-03 -1.70460e-03 1.78830e-02 6.57380e-06 -2.97280e-04 2.46050e-02 3.53230e-03 -5.88770e-04 1.83110e-02 -5.91240e-06 -2.95030e-04 2.58630e-02 6.75280e-03 -2.07320e-05 1.82460e-02 -1.36560e-05 -2.84240e-04 2.59720e-02 5.85090e-03 -1.96920e-05 1.76180e-02 -1.40420e-05 -2.64370e-04 2.49230e-02 4.99590e-03 -1.87130e-05 1.69850e-02 -1.45660e-05 -2.45150e-04 2.38940e-02 4.18730e-03 -1.77930e-05 1.63470e-02 -1.52120e-05 -2.26570e-04 2.28830e-02 3.42430e-03 -1.69300e-05 1.57050e-02 -1.59640e-05 -2.08640e-04 2.18920e-02 2.70660e-03 -1.61190e-05 1.50610e-02 -1.68060e-05 -1.91350e-04 2.09210e-02 2.03350e-03 -1.53590e-05 1.44160e-02 -1.77240e-05 -1.74680e-04 1.99690e-02 -4.77330e-04 -3.09610e-04 1.33670e-02 -1.47760e-05 -1.56300e-04 1.83170e-02 -4.84760e-03 -9.15420e-04 1.19320e-02 -5.62070e-06 -1.35150e-04 1.60060e-02 2.77020e-04 -1.33590e-05 1.24760e-02 -2.07930e-05 -1.28450e-04 1.72320e-02 1.68840e-03 2.32740e-04 1.20500e-02 -2.67710e-05 -1.20040e-04 1.69410e-02 4.97180e-03 7.36930e-04 1.18910e-02 -4.01040e-05 -1.18800e-04 1.72530e-02 2.97630e-04 2.03840e-04 1.07740e-02 -2.78880e-05 -8.98470e-05 1.51560e-02 -1.46700e-03 -1.12660e-05 9.91160e-03 -2.51370e-05 -7.53690e-05 1.38590e-02 -1.79860e-03 -1.08320e-05 9.27870e-03 -2.61860e-05 -6.35910e-05 1.30650e-02 -2.08900e-03 -1.04320e-05 8.65020e-03 -2.71960e-05 -5.23990e-05 1.22900e-02 -2.33840e-03 -1.00640e-05 8.02640e-03 -2.81540e-05 -4.17860e-05 1.15350e-02 -2.54720e-03 -9.72690e-06 7.40800e-03 -2.90460e-05 -3.17460e-05 1.07990e-02 -2.71540e-03 -9.42160e-06 6.79520e-03 -2.98550e-05 -2.22780e-05 1.00830e-02 -2.84340e-03 -9.14680e-06 6.18860e-03 -3.05610e-05 -1.33740e-05 9.38570e-03 -2.93150e-03 -8.90220e-06 5.58840e-03 -3.11400e-05 -5.03630e-06 8.70750e-03 -2.38480e-03 6.09510e-05 5.04390e-03 -3.45120e-05 -7.18930e-07 8.28640e-03 -1.25760e-03 2.06780e-04 4.57980e-03 -4.31110e-05 -1.32120e-06 8.12180e-03 -2.96020e-03 -8.34840e-06 3.83100e-03 -3.17110e-05 1.65590e-05 6.78680e-03 -2.89370e-03 -8.19970e-06 3.26150e-03 -3.13210e-05 2.25700e-05 6.18410e-03 -2.79170e-03 -8.06490e-06 2.70130e-03 -3.04710e-05 2.79590e-05 5.60010e-03 -2.65670e-03 -7.84530e-06 2.15200e-03 -2.90970e-05 3.26540e-05 5.03450e-03 -2.49280e-03 -7.56060e-06 1.61520e-03 -2.70180e-05 3.66490e-05 4.48720e-03 -2.24160e-03 -1.13230e-05 8.76980e-04 -2.02720e-05 4.22470e-05 3.74210e-03 -2.10160e-03 -5.79610e-06 5.88080e-04 -2.14890e-05 4.23130e-05 3.44680e-03 -1.88700e-03 -2.99750e-06 1.01520e-04 -2.02770e-05 4.41250e-05 2.95340e-03 -1.66220e-03 -1.49990e-07 -3.75360e-04 -2.32640e-05 4.69660e-05 2.47830e-03 -1.39910e-03 8.57380e-06 -8.60390e-04 -4.13280e-05 5.30410e-05 2.01950e-03 -1.03830e-03 -1.37400e-05 -1.47390e-03 -6.54100e-05 8.36750e-05 1.56490e-03 -7.96080e-04 -4.02840e-05 -1.87480e-03 -8.14790e-05 1.27340e-04 1.34490e-03 1.68420e-01 9.23530e-02 9.25800e-02 3.34260e-02 -6.35750e-03 -4.78790e-02 1.85740e-01 4.65320e-02 4.39450e-02 1.52570e-02 -1.45040e-02 -1.04660e-02 1.91840e-01 4.71670e-03 -1.10300e-02 -6.16910e-03 -1.64270e-02 3.58260e-02 1.93400e-01 -4.98790e-04 -2.23860e-02 -7.35520e-03 -1.21780e-02 4.90960e-02 1.89860e-01 -9.49940e-04 -2.31800e-02 -3.64970e-03 -8.01560e-03 6.54270e-02 1.88080e-01 -4.36330e-04 -2.28830e-02 -2.62740e-03 -6.54930e-03 5.85150e-02 1.83340e-01 -2.22080e-04 -2.08130e-02 -1.73230e-03 -5.09110e-03 6.17990e-02 1.78120e-01 -3.52920e-04 -1.86440e-02 -1.32930e-03 -3.96880e-03 6.47750e-02 1.72830e-01 -3.74910e-04 -1.60430e-02 -1.10040e-03 -3.18490e-03 6.76180e-02 1.67560e-01 -4.22760e-04 -1.34340e-02 -9.74090e-04 -2.53450e-03 7.01120e-02 1.62290e-01 -4.70080e-04 -1.07260e-02 -8.78800e-04 -2.06490e-03 7.22290e-02 1.57130e-01 -4.57650e-04 -8.05800e-03 -8.17980e-04 -1.68250e-03 7.39430e-02 1.52030e-01 -4.86700e-04 -5.46560e-03 -7.68750e-04 -1.41090e-03 7.52660e-02 1.23190e-01 -4.46360e-03 -7.39490e-03 -7.10020e-04 -1.12370e-03 7.11730e-02 7.04680e-02 -1.27030e-02 -1.40170e-02 -6.25240e-04 -8.15790e-04 6.16450e-02 1.37530e-01 -4.35690e-04 1.64950e-03 -6.80320e-04 -9.35830e-04 7.73710e-02 1.32930e-01 -4.34930e-04 3.75580e-03 -6.56240e-04 -8.57220e-04 7.75900e-02 1.24390e-01 -5.69590e-04 8.66540e-03 -6.37990e-04 -7.83150e-04 8.33380e-02 1.24100e-01 -3.98990e-04 7.61220e-03 -6.10190e-04 -7.53890e-04 7.75200e-02 1.19840e-01 -3.74390e-04 9.37040e-03 -5.87120e-04 -7.19570e-04 7.72790e-02 1.15680e-01 -3.63280e-04 1.10140e-02 -5.63770e-04 -6.93210e-04 7.69190e-02 1.11610e-01 -3.41970e-04 1.25620e-02 -5.40790e-04 -6.70540e-04 7.64590e-02 1.07630e-01 -3.29330e-04 1.40070e-02 -5.18120e-04 -6.51210e-04 7.59060e-02 1.03730e-01 -3.10720e-04 1.53640e-02 -4.96120e-04 -6.33260e-04 7.52710e-02 9.99200e-02 -2.97710e-04 1.66280e-02 -4.74850e-04 -6.16560e-04 7.45580e-02 1.45540e-01 7.22630e-03 2.83420e-02 -4.73340e-04 -7.56820e-04 8.89860e-02 1.08980e-01 2.25260e-03 2.24200e-02 -4.41880e-04 -6.35280e-04 7.79340e-02 8.89960e-02 -2.54080e-04 1.99150e-02 -4.16310e-04 -5.68610e-04 7.20310e-02 8.55220e-02 -2.41990e-04 2.08470e-02 -3.98610e-04 -5.52890e-04 7.10750e-02 8.21320e-02 -2.29010e-04 2.17020e-02 -3.81740e-04 -5.37160e-04 7.00710e-02 7.88260e-02 -2.17720e-04 2.24810e-02 -3.65700e-04 -5.21420e-04 6.90230e-02 7.56030e-02 -2.06070e-04 2.31860e-02 -3.50420e-04 -5.05680e-04 6.79360e-02 7.24630e-02 -1.95620e-04 2.38190e-02 -3.35870e-04 -4.89930e-04 6.68130e-02 6.94050e-02 -1.85120e-04 2.43820e-02 -3.21970e-04 -4.74210e-04 6.56580e-02 6.99810e-02 -9.00250e-05 2.24700e-02 -3.08960e-04 -4.61470e-04 6.18030e-02 1.02920e-01 5.55510e-03 3.19760e-02 -3.20370e-04 -5.35570e-04 7.35980e-02 9.87940e-02 5.38920e-03 3.22180e-02 -3.08740e-04 -5.14860e-04 7.22080e-02 9.47730e-02 5.22220e-03 3.23910e-02 -2.97590e-04 -4.94550e-04 7.07860e-02 9.08610e-02 5.06030e-03 3.25030e-02 -2.86920e-04 -4.74580e-04 6.93400e-02 9.08190e-02 5.07240e-03 3.05490e-02 -2.78370e-04 -4.59650e-04 6.58910e-02 4.04150e-02 -1.68920e-03 2.38970e-02 -2.32450e-04 -3.44700e-04 5.32000e-02 1.83560e-02 -4.84570e-03 1.87180e-02 -2.04060e-04 -2.87850e-04 4.45280e-02 4.54280e-02 -1.11990e-04 2.66510e-02 -2.21670e-04 -3.36780e-04 5.43680e-02 4.31370e-02 -1.05670e-04 2.66320e-02 -2.12810e-04 -3.22320e-04 5.30630e-02 4.09160e-02 -9.96880e-05 2.65670e-02 -2.04340e-04 -3.08060e-04 5.17580e-02 4.86860e-02 1.25740e-03 2.76160e-02 -2.05320e-04 -3.12080e-04 5.27090e-02 6.63010e-02 3.99550e-03 2.98790e-02 -2.18240e-04 -3.33730e-04 5.59670e-02 3.46620e-02 -8.34650e-05 2.61180e-02 -1.81120e-04 -2.66750e-04 4.78490e-02 3.27100e-02 -7.86160e-05 2.58900e-02 -1.74070e-04 -2.53490e-04 4.65540e-02 3.08210e-02 -7.40150e-05 2.56270e-02 -1.67330e-04 -2.40500e-04 4.52660e-02 2.89940e-02 -6.96680e-05 2.53310e-02 -1.60900e-04 -2.27790e-04 4.39850e-02 3.76490e-03 -3.26840e-03 2.21010e-02 -1.27320e-04 -1.76390e-04 3.69070e-02 2.33260e-02 -1.14450e-04 2.58750e-02 -1.47280e-04 -1.99810e-04 4.23730e-02 2.38790e-02 -5.79910e-05 2.42600e-02 -1.43330e-04 -1.91380e-04 4.02010e-02 2.22920e-02 -5.45270e-05 2.38480e-02 -1.38000e-04 -1.79840e-04 3.89630e-02 2.07610e-02 -5.12590e-05 2.34130e-02 -1.32930e-04 -1.68600e-04 3.77370e-02 1.92870e-02 -4.81810e-05 2.29550e-02 -1.28090e-04 -1.57660e-04 3.65250e-02 1.78670e-02 -4.52840e-05 2.24770e-02 -1.23470e-04 -1.47030e-04 3.53280e-02 1.82510e-02 1.34810e-06 2.11070e-02 -1.21110e-04 -1.40020e-04 3.35730e-02 1.51890e-02 -3.99970e-05 2.14640e-02 -1.14880e-04 -1.26680e-04 3.29780e-02 1.39290e-02 -3.75940e-05 2.09330e-02 -1.10880e-04 -1.16960e-04 3.18270e-02 1.27200e-02 -3.53380e-05 2.03870e-02 -1.07070e-04 -1.07540e-04 3.06930e-02 1.15610e-02 -3.32250e-05 1.98280e-02 -1.03440e-04 -9.84300e-05 2.95760e-02 2.09970e-02 1.70010e-03 2.21840e-02 -1.19250e-04 -1.04650e-04 3.28420e-02 -3.24380e-03 -1.73690e-03 1.70560e-02 -7.31850e-05 -6.05940e-05 2.38880e-02 4.20480e-03 -6.03320e-04 1.75230e-02 -8.49760e-05 -6.58590e-05 2.51590e-02 7.41630e-03 -2.60550e-05 1.74880e-02 -9.05280e-05 -6.49550e-05 2.52870e-02 6.49880e-03 -2.45520e-05 1.68830e-02 -8.76630e-05 -5.73140e-05 2.42610e-02 5.62750e-03 -2.31520e-05 1.62720e-02 -8.49300e-05 -4.99580e-05 2.32530e-02 4.80190e-03 -2.18500e-05 1.56570e-02 -8.23200e-05 -4.28830e-05 2.22650e-02 4.02130e-03 -2.06410e-05 1.50370e-02 -7.98280e-05 -3.60830e-05 2.12950e-02 3.28540e-03 -1.95190e-05 1.44150e-02 -7.74470e-05 -2.95530e-05 2.03450e-02 2.59350e-03 -1.84790e-05 1.37910e-02 -7.51690e-05 -2.32910e-05 1.94150e-02 6.79250e-05 -3.16610e-04 1.27570e-02 -6.87730e-05 -1.43670e-05 1.77810e-02 -4.31280e-03 -9.30450e-04 1.13290e-02 -5.63010e-05 -1.92120e-06 1.54880e-02 7.77830e-04 -1.58070e-05 1.19170e-02 -6.89010e-05 -6.04700e-06 1.67400e-02 2.16830e-03 2.33110e-04 1.15120e-02 -7.24700e-05 -5.18170e-06 1.64640e-02 5.43040e-03 7.42820e-04 1.13740e-02 -8.36220e-05 -9.76400e-06 1.67880e-02 7.29170e-04 2.04220e-04 1.02840e-02 -6.72350e-05 6.24970e-06 1.47240e-02 -1.05030e-03 -1.31300e-05 9.43840e-03 -6.16410e-05 1.35470e-05 1.34460e-02 -1.40360e-03 -1.25950e-05 8.82690e-03 -5.99830e-05 1.78780e-05 1.26710e-02 -1.71590e-03 -1.21080e-05 8.21960e-03 -5.83730e-05 2.19940e-05 1.19160e-02 -1.98750e-03 -1.16670e-05 7.61720e-03 -5.68020e-05 2.59000e-05 1.11800e-02 -2.21850e-03 -1.12700e-05 7.02010e-03 -5.52590e-05 2.96020e-05 1.04630e-02 -2.40930e-03 -1.09190e-05 6.42880e-03 -5.37260e-05 3.31020e-05 9.76600e-03 -2.55990e-03 -1.06110e-05 5.84350e-03 -5.21810e-05 3.64020e-05 9.08770e-03 -2.67070e-03 -1.03490e-05 5.26480e-03 -5.05930e-05 3.95000e-05 8.42850e-03 -2.15030e-03 5.87710e-05 4.73710e-03 -5.19360e-05 3.92640e-05 8.02210e-03 -1.05300e-03 2.03160e-04 4.28510e-03 -5.82050e-05 3.48090e-05 7.86790e-03 -2.76760e-03 -9.85700e-06 3.57230e-03 -4.50370e-05 4.74810e-05 6.56460e-03 -2.72360e-03 -9.80070e-06 3.02440e-03 -4.26450e-05 4.96220e-05 5.98080e-03 -2.64330e-03 -9.77590e-06 2.48590e-03 -3.97850e-05 5.14330e-05 5.41570e-03 -2.52880e-03 -9.77400e-06 1.95780e-03 -3.63220e-05 5.28510e-05 4.86910e-03 -2.38300e-03 -9.70080e-06 1.44160e-03 -3.21720e-05 5.38090e-05 4.34080e-03 -2.15110e-03 -1.44410e-05 7.30070e-04 -2.30090e-05 5.56830e-05 3.62290e-03 -2.01430e-03 -8.62050e-06 4.50650e-04 -2.29010e-05 5.43620e-05 3.33820e-03 -1.80000e-03 -6.56690e-06 -2.34610e-05 -2.04680e-05 5.46850e-05 2.86330e-03 -1.56650e-03 -3.15250e-06 -4.91370e-04 -2.46550e-05 5.70020e-05 2.40570e-03 -1.30170e-03 3.57570e-06 -9.74770e-04 -4.11790e-05 6.74740e-05 1.96230e-03 -9.69300e-04 -3.49860e-05 -1.58120e-03 -6.14910e-05 1.03140e-04 1.53310e-03 -7.52820e-04 -7.24600e-05 -1.97090e-03 -7.54950e-05 1.46760e-04 1.32800e-03 1.77070e-01 1.15290e-01 1.13260e-01 1.91360e-02 -5.37410e-03 -3.77560e-02 1.94420e-01 7.38750e-02 6.72010e-02 1.06300e-02 -1.32530e-02 6.56640e-03 2.04620e-01 1.76660e-02 2.23970e-03 -2.87980e-03 -1.73180e-02 6.09660e-02 1.98870e-01 -5.30430e-04 -2.17730e-02 -6.92500e-03 -1.53880e-02 7.01170e-02 1.87530e-01 -2.01820e-03 -2.34870e-02 -3.73120e-03 -1.09830e-02 7.69670e-02 1.84470e-01 -1.26690e-03 -2.33600e-02 -3.01530e-03 -9.42060e-03 6.75490e-02 1.78640e-01 -8.71050e-04 -2.15230e-02 -1.90860e-03 -7.40970e-03 6.73180e-02 1.73140e-01 -9.35730e-04 -1.97420e-02 -1.28390e-03 -5.91170e-03 6.78020e-02 1.67880e-01 -1.02250e-03 -1.75880e-02 -9.35860e-04 -4.73570e-03 6.88200e-02 1.62810e-01 -1.05020e-03 -1.53100e-02 -7.12530e-04 -3.81280e-03 6.99910e-02 1.57790e-01 -1.14260e-03 -1.29200e-02 -5.69360e-04 -3.09150e-03 7.11500e-02 1.52930e-01 -1.10160e-03 -1.04550e-02 -4.73360e-04 -2.52850e-03 7.21970e-02 1.48130e-01 -1.13770e-03 -8.03590e-03 -4.09700e-04 -2.10200e-03 7.30610e-02 1.19400e-01 -5.20480e-03 -1.02710e-02 -3.19830e-04 -1.70780e-03 6.87150e-02 6.65660e-02 -1.37240e-02 -1.74170e-02 -1.99560e-04 -1.31520e-03 5.90040e-02 1.34480e-01 -1.01300e-03 -1.12210e-03 -3.21590e-04 -1.35230e-03 7.45710e-02 1.30130e-01 -9.92990e-04 9.72470e-04 -3.05510e-04 -1.21890e-03 7.47340e-02 1.21910e-01 -1.07960e-03 5.89240e-03 -2.99640e-04 -1.08950e-03 8.04520e-02 1.21750e-01 -9.07220e-04 4.86160e-03 -2.79650e-04 -1.03960e-03 7.46550e-02 1.17690e-01 -8.56600e-04 6.65270e-03 -2.67710e-04 -9.77940e-04 7.44370e-02 1.13720e-01 -8.23310e-04 8.33390e-03 -2.54990e-04 -9.29360e-04 7.41120e-02 1.09830e-01 -7.77880e-04 9.92450e-03 -2.43180e-04 -8.87550e-04 7.36940e-02 1.06020e-01 -7.43690e-04 1.14150e-02 -2.31150e-04 -8.52110e-04 7.31860e-02 1.02290e-01 -7.02830e-04 1.28190e-02 -2.20150e-04 -8.19580e-04 7.26000e-02 9.86400e-02 -6.69460e-04 1.41310e-02 -2.09450e-04 -7.90200e-04 7.19390e-02 1.44520e-01 6.97000e-03 2.61680e-02 -2.50400e-04 -9.26880e-04 8.64060e-02 1.08040e-01 1.95220e-03 2.01100e-02 -2.08100e-04 -7.89360e-04 7.54180e-02 8.81530e-02 -5.67930e-04 1.75610e-02 -1.82890e-04 -7.09800e-04 6.95720e-02 8.48110e-02 -5.38470e-04 1.85410e-02 -1.75560e-04 -6.84980e-04 6.86710e-02 8.15470e-02 -5.08620e-04 1.94440e-02 -1.69100e-04 -6.60590e-04 6.77220e-02 7.83600e-02 -4.81470e-04 2.02690e-02 -1.63220e-04 -6.36910e-04 6.67280e-02 7.52500e-02 -4.54550e-04 2.10210e-02 -1.58030e-04 -6.13620e-04 6.56950e-02 7.22160e-02 -4.29700e-04 2.17000e-02 -1.53310e-04 -5.90910e-04 6.46260e-02 6.92580e-02 -4.05410e-04 2.23080e-02 -1.49130e-04 -5.68580e-04 6.35250e-02 6.98880e-02 -3.11230e-04 2.04210e-02 -1.42880e-04 -5.52110e-04 5.97020e-02 7.66820e-02 1.54270e-03 2.53930e-02 -5.51920e-05 -8.46400e-04 6.44840e-02 7.35220e-02 1.50610e-03 2.57650e-02 -5.43750e-05 -8.14300e-04 6.32580e-02 7.04420e-02 1.46860e-03 2.60720e-02 -5.39130e-05 -7.82890e-04 6.20080e-02 7.74520e-02 2.82380e-03 2.76530e-02 -1.03970e-04 -6.74280e-04 6.29660e-02 9.11370e-02 4.94720e-03 2.88600e-02 -1.79150e-04 -5.33540e-04 6.40230e-02 4.07950e-02 -1.84500e-03 2.20730e-02 -1.12250e-04 -4.01010e-04 5.14230e-02 1.87690e-02 -5.02100e-03 1.68350e-02 -7.55220e-05 -3.35420e-04 4.27990e-02 4.59270e-02 -2.35970e-04 2.49580e-02 -1.24990e-04 -3.88030e-04 5.26840e-02 4.36830e-02 -2.21560e-04 2.49790e-02 -1.23290e-04 -3.70150e-04 5.14260e-02 4.15050e-02 -2.07960e-04 2.49520e-02 -1.21700e-04 -3.52710e-04 5.01650e-02 4.36640e-02 3.85130e-04 2.53240e-02 -9.38080e-05 -4.29880e-04 4.98040e-02 4.90320e-02 1.21720e-03 2.47440e-02 -5.77730e-05 -5.38880e-04 4.88350e-02 3.53540e-02 -1.71390e-04 2.46160e-02 -1.17590e-04 -3.02940e-04 4.63850e-02 3.34280e-02 -1.60540e-04 2.44240e-02 -1.16380e-04 -2.87200e-04 4.51310e-02 3.15630e-02 -1.50310e-04 2.41970e-02 -1.15250e-04 -2.71880e-04 4.38830e-02 2.97560e-02 -1.40690e-04 2.39350e-02 -1.14170e-04 -2.56970e-04 4.26420e-02 4.56100e-03 -3.34490e-03 2.06770e-02 -6.87430e-05 -1.95560e-04 3.56320e-02 2.41250e-02 -1.71040e-04 2.45630e-02 -1.12200e-04 -2.24270e-04 4.11220e-02 2.46840e-02 -1.15140e-04 2.29660e-02 -1.11220e-04 -2.14700e-04 3.89710e-02 2.31050e-02 -1.07660e-04 2.25880e-02 -1.10310e-04 -2.01410e-04 3.77690e-02 2.15810e-02 -1.00650e-04 2.21840e-02 -1.09420e-04 -1.88510e-04 3.65780e-02 2.01100e-02 -9.40960e-05 2.17590e-02 -1.08540e-04 -1.75990e-04 3.54010e-02 1.86920e-02 -8.79760e-05 2.13110e-02 -1.07670e-04 -1.63860e-04 3.42370e-02 2.14910e-02 3.91640e-04 2.08720e-02 -9.52350e-05 -2.29210e-04 3.37020e-02 3.32190e-02 2.23340e-03 2.23460e-02 -4.96360e-05 -5.12930e-04 3.62190e-02 1.47450e-02 -7.20130e-05 1.98590e-02 -1.05080e-04 -1.29670e-04 3.08330e-02 1.35290e-02 -6.74240e-05 1.93430e-02 -1.04210e-04 -1.18990e-04 2.97300e-02 1.23620e-02 -6.31720e-05 1.88130e-02 -1.03320e-04 -1.08660e-04 2.86430e-02 2.17570e-02 1.67650e-03 2.12480e-02 -1.36830e-04 -1.19130e-04 3.19420e-02 -2.44410e-03 -1.76290e-03 1.60760e-02 -6.55830e-05 -6.26620e-05 2.30330e-02 4.97710e-03 -6.27970e-04 1.65860e-02 -8.80760e-05 -7.08140e-05 2.43190e-02 8.16740e-03 -4.91700e-05 1.65860e-02 -9.95760e-05 -7.06840e-05 2.44680e-02 7.23430e-03 -4.63400e-05 1.60080e-02 -9.85760e-05 -6.19960e-05 2.34690e-02 6.34610e-03 -4.37480e-05 1.54250e-02 -9.75450e-05 -5.36170e-05 2.24890e-02 5.50260e-03 -4.13780e-05 1.48360e-02 -9.64830e-05 -4.55390e-05 2.15270e-02 4.70310e-03 -3.92180e-05 1.42430e-02 -9.53870e-05 -3.77570e-05 2.05830e-02 3.94720e-03 -3.72520e-05 1.36470e-02 -9.42550e-05 -3.02640e-05 1.96590e-02 3.23460e-03 -3.54690e-05 1.30500e-02 -9.30850e-05 -2.30520e-05 1.87540e-02 7.01500e-04 -3.31570e-04 1.20330e-02 -8.40410e-05 -1.16770e-05 1.71440e-02 -3.67340e-03 -9.42150e-04 1.06140e-02 -6.58770e-05 4.45600e-06 1.48720e-02 1.35230e-03 -3.10930e-05 1.12520e-02 -8.93410e-05 -3.04370e-06 1.61520e-02 2.71130e-03 2.16040e-04 1.08730e-02 -9.61790e-05 -2.71760e-06 1.58950e-02 5.93380e-03 7.21890e-04 1.07580e-02 -1.12500e-04 -8.98900e-06 1.62320e-02 1.21660e-03 1.87840e-04 9.70180e-03 -9.19260e-05 1.06250e-05 1.42100e-02 -5.72950e-04 -2.71220e-05 8.87540e-03 -8.37530e-05 2.00870e-05 1.29530e-02 -9.51630e-04 -2.64000e-05 8.28900e-03 -8.22390e-05 2.52800e-05 1.22020e-02 -1.28970e-03 -2.57730e-05 7.70690e-03 -8.06710e-05 3.02480e-05 1.14690e-02 -1.58730e-03 -2.52350e-05 7.12960e-03 -7.90410e-05 3.49980e-05 1.07560e-02 -1.84470e-03 -2.47810e-05 6.55750e-03 -7.73370e-05 3.95320e-05 1.00620e-02 -2.06190e-03 -2.44150e-05 5.99120e-03 -7.55420e-05 4.38530e-05 9.38720e-03 -2.23920e-03 -2.41340e-05 5.43100e-03 -7.36280e-05 4.79590e-05 8.73140e-03 -2.37670e-03 -2.39450e-05 4.87740e-03 -7.15540e-05 5.18430e-05 8.09450e-03 -1.89120e-03 4.16530e-05 4.36890e-03 -7.35910e-05 5.14290e-05 7.70510e-03 -8.36690e-04 1.79140e-04 3.92980e-03 -8.10600e-05 4.61520e-05 7.56230e-03 -2.55330e-03 -2.39920e-05 3.26010e-03 -6.37080e-05 6.19740e-05 6.29730e-03 -2.53480e-03 -2.42210e-05 2.73710e-03 -6.02160e-05 6.47210e-05 5.73580e-03 -2.47880e-03 -2.45170e-05 2.22320e-03 -5.60720e-05 6.70610e-05 5.19280e-03 -2.38660e-03 -2.47900e-05 1.71910e-03 -5.11720e-05 6.89190e-05 4.66820e-03 -2.26000e-03 -2.48080e-05 1.22610e-03 -4.55290e-05 7.02600e-05 4.16190e-03 -2.04770e-03 -2.88290e-05 5.45860e-04 -3.54670e-05 7.23040e-05 3.47520e-03 -1.91510e-03 -2.19080e-05 2.77750e-04 -3.41140e-05 7.18630e-05 3.20260e-03 -1.70500e-03 -1.71370e-05 -1.76460e-04 -3.17480e-05 7.35150e-05 2.74900e-03 -1.47580e-03 -8.41320e-06 -6.21130e-04 -3.65360e-05 7.88290e-05 2.31250e-03 -1.22970e-03 -6.30430e-06 -1.08190e-03 -4.94350e-05 9.48450e-05 1.89500e-03 -9.31050e-04 -7.36990e-05 -1.66290e-03 -6.63950e-05 1.30660e-04 1.50300e-03 -7.34540e-04 -1.30940e-04 -2.03530e-03 -7.92140e-05 1.66830e-04 1.31560e-03 1.82370e-01 1.28570e-01 1.24740e-01 9.73110e-03 -2.92810e-03 -3.56830e-02 1.97410e-01 8.77980e-02 7.67300e-02 6.00390e-03 -7.56410e-03 1.32000e-02 2.07610e-01 2.82160e-02 8.82470e-03 -4.73740e-04 -1.13030e-02 7.39520e-02 2.02750e-01 2.55710e-03 -1.96200e-02 -3.56770e-03 -1.14630e-02 8.49340e-02 1.88540e-01 -5.77160e-04 -2.17990e-02 -3.58060e-03 -9.23020e-03 8.41220e-02 1.82740e-01 -1.46820e-03 -2.23510e-02 -2.34410e-03 -7.76030e-03 7.68470e-02 1.76720e-01 -1.42060e-03 -2.14370e-02 -1.53130e-03 -6.48120e-03 7.29680e-02 1.70610e-01 -1.43180e-03 -1.97710e-02 -1.03500e-03 -5.18530e-03 7.13640e-02 1.65070e-01 -1.59050e-03 -1.79350e-02 -7.16420e-04 -4.18150e-03 7.08230e-02 1.59960e-01 -1.61690e-03 -1.58990e-02 -5.18170e-04 -3.35080e-03 7.08300e-02 1.54990e-01 -1.73160e-03 -1.37580e-02 -3.80910e-04 -2.71240e-03 7.11250e-02 1.50270e-01 -1.67870e-03 -1.14810e-02 -2.96500e-04 -2.19970e-03 7.15440e-02 1.45630e-01 -1.70810e-03 -9.22080e-03 -2.37910e-04 -1.81470e-03 7.19580e-02 1.16900e-01 -5.86600e-03 -1.17040e-02 -1.58220e-04 -1.48730e-03 6.73330e-02 6.38970e-02 -1.46200e-02 -1.92280e-02 -3.62630e-05 -1.19170e-03 5.74010e-02 1.32490e-01 -1.51960e-03 -2.57160e-03 -1.67990e-04 -1.12520e-03 7.28090e-02 5.59990e-02 -1.02410e-02 -5.42920e-03 2.28190e-04 -2.16550e-03 6.85530e-02 9.78560e-02 -4.97550e-03 1.28920e-03 -2.17000e-04 -4.22230e-04 7.53550e-02 1.10020e-01 -2.83520e-03 2.46000e-03 -1.72270e-04 -6.37940e-04 7.21740e-02 1.16290e-01 -1.27230e-03 5.12310e-03 -1.38100e-04 -7.78510e-04 7.25310e-02 1.12440e-01 -1.21760e-03 6.80830e-03 -1.31760e-04 -7.33890e-04 7.22190e-02 1.08670e-01 -1.15010e-03 8.40860e-03 -1.25950e-04 -6.96300e-04 7.18210e-02 1.04980e-01 -1.09550e-03 9.91210e-03 -1.20050e-04 -6.64530e-04 7.13410e-02 1.01360e-01 -1.03420e-03 1.13320e-02 -1.14750e-04 -6.36080e-04 7.07850e-02 9.78110e-02 -9.81710e-04 1.26600e-02 -1.09740e-04 -6.10480e-04 7.01570e-02 1.08130e-01 1.50080e-03 1.92790e-02 -2.55400e-05 -9.72950e-04 7.71260e-02 9.79520e-02 1.93380e-04 1.65550e-02 -6.61340e-05 -7.29460e-04 7.07890e-02 8.76110e-02 -8.26670e-04 1.61500e-02 -9.84480e-05 -5.42490e-04 6.78970e-02 8.43570e-02 -7.81170e-04 1.71500e-02 -9.57970e-05 -5.21840e-04 6.70330e-02 8.11760e-02 -7.35880e-04 1.80740e-02 -9.37140e-05 -5.01830e-04 6.61210e-02 7.80670e-02 -6.94210e-04 1.89210e-02 -9.20590e-05 -4.82460e-04 6.51650e-02 7.50310e-02 -6.53400e-04 1.96940e-02 -9.08370e-05 -4.63620e-04 6.41690e-02 7.20670e-02 -6.15490e-04 2.03950e-02 -8.99410e-05 -4.45320e-04 6.31370e-02 6.91750e-02 -5.78740e-04 2.10250e-02 -8.93500e-05 -4.27480e-04 6.20730e-02 6.98400e-02 -4.82780e-04 1.91490e-02 -8.65000e-05 -4.14540e-04 5.82710e-02 6.36040e-02 -5.11300e-04 2.20830e-02 -8.88300e-05 -3.93210e-04 5.98600e-02 6.09240e-02 -4.80250e-04 2.25140e-02 -8.88230e-05 -3.76750e-04 5.87180e-02 5.83140e-02 -4.50530e-04 2.28830e-02 -8.89450e-05 -3.60710e-04 5.75560e-02 6.12190e-02 3.03580e-04 2.37370e-02 -5.97650e-05 -4.55770e-04 5.74040e-02 6.80660e-02 1.34830e-03 2.33370e-02 -2.00540e-05 -5.87520e-04 5.62110e-02 3.58500e-02 -2.78900e-03 1.96700e-02 -1.79470e-04 3.91830e-05 4.84400e-02 1.90900e-02 -5.02820e-03 1.60430e-02 -2.80220e-04 4.04470e-04 4.19200e-02 4.62690e-02 -3.24430e-04 2.38740e-02 -9.05930e-05 -2.86640e-04 5.15430e-02 4.40560e-02 -3.03140e-04 2.39160e-02 -9.10180e-05 -2.73000e-04 5.03170e-02 4.19060e-02 -2.83090e-04 2.39120e-02 -9.14470e-05 -2.59740e-04 4.90870e-02 3.98170e-02 -2.64170e-04 2.38630e-02 -9.18720e-05 -2.46840e-04 4.78560e-02 4.04320e-02 -1.95860e-04 2.21250e-02 -9.12640e-05 -2.37750e-04 4.52220e-02 3.58230e-02 -2.29620e-04 2.36390e-02 -9.26790e-05 -2.22140e-04 4.53960e-02 3.39150e-02 -2.13890e-04 2.34690e-02 -9.30480e-05 -2.10310e-04 4.41710e-02 3.20650e-02 -1.99130e-04 2.32630e-02 -9.33880e-05 -1.98830e-04 4.29500e-02 3.02720e-02 -1.85310e-04 2.30220e-02 -9.36940e-05 -1.87680e-04 4.17360e-02 5.10890e-03 -3.39530e-03 1.97460e-02 -4.49730e-05 -1.51370e-04 3.47580e-02 2.46650e-02 -2.04940e-04 2.37000e-02 -9.45210e-05 -1.63300e-04 4.02790e-02 2.52270e-02 -1.49010e-04 2.21150e-02 -9.43610e-05 -1.56200e-04 3.81430e-02 2.36540e-02 -1.38520e-04 2.17560e-02 -9.44890e-05 -1.46330e-04 3.69650e-02 2.21340e-02 -1.28760e-04 2.13730e-02 -9.45640e-05 -1.36770e-04 3.57980e-02 2.06650e-02 -1.19700e-04 2.09670e-02 -9.45840e-05 -1.27500e-04 3.46440e-02 1.92480e-02 -1.11310e-04 2.05400e-02 -9.45460e-05 -1.18530e-04 3.35030e-02 2.03450e-02 2.25860e-04 2.03830e-02 -8.13970e-05 -1.59270e-04 3.29970e-02 2.33930e-02 7.05150e-04 1.97740e-02 -6.49650e-05 -2.16830e-04 3.23560e-02 1.52940e-02 -8.98150e-05 1.91450e-02 -9.40680e-05 -9.32770e-05 3.01650e-02 1.40740e-02 -8.37700e-05 1.86480e-02 -9.37810e-05 -8.53980e-05 2.90830e-02 1.29010e-02 -7.82360e-05 1.81370e-02 -9.34300e-05 -7.77760e-05 2.80160e-02 2.22630e-02 1.66570e-03 2.06240e-02 -1.30070e-04 -8.17120e-05 3.13470e-02 -1.89800e-03 -1.77610e-03 1.54210e-02 -5.50630e-05 -4.73390e-05 2.24510e-02 5.50020e-03 -6.40240e-04 1.59600e-02 -7.91970e-05 -5.09940e-05 2.37530e-02 8.67390e-03 -6.06340e-05 1.59840e-02 -9.13570e-05 -4.97440e-05 2.39190e-02 1.61720e-02 1.32600e-03 1.75450e-02 -5.25340e-05 -2.52740e-04 2.62250e-02 1.61180e-02 1.32420e-03 1.64860e-02 -5.54870e-05 -2.40930e-04 2.49430e-02 1.47060e-02 1.23920e-03 1.57870e-02 -5.81930e-05 -2.23150e-04 2.38150e-02 1.33550e-02 1.15660e-03 1.50870e-02 -6.06890e-05 -2.05950e-04 2.27100e-02 6.80320e-03 3.33300e-04 1.35780e-02 -4.02200e-05 -1.79910e-04 1.99880e-02 3.77950e-03 -4.78380e-05 1.24240e-02 -3.16030e-05 -1.61980e-04 1.81970e-02 3.09160e-03 -4.64070e-05 1.18470e-02 -3.48130e-05 -1.46570e-04 1.73310e-02 2.44560e-03 -4.52230e-05 1.12700e-02 -3.78030e-05 -1.31700e-04 1.64850e-02 2.53420e-03 -2.14210e-05 1.05570e-02 -4.06090e-05 -1.22450e-04 1.56600e-02 4.39640e-03 4.09430e-04 1.07120e-02 -1.04790e-04 2.06750e-05 1.60060e-02 6.27120e-03 7.06740e-04 1.03510e-02 -1.05540e-04 -3.36410e-06 1.58630e-02 4.71400e-03 5.88810e-04 9.60380e-03 -7.28410e-05 -8.82380e-05 1.47580e-02 3.89800e-03 5.29630e-04 8.94540e-03 -7.33570e-05 -7.59130e-05 1.38770e-02 3.75060e-03 5.24910e-04 8.34790e-03 -7.51240e-05 -6.86420e-05 1.31690e-02 -1.00010e-03 -3.69570e-05 7.36670e-03 -7.42030e-05 2.58470e-05 1.11690e-02 -1.31510e-03 -3.67610e-05 6.80640e-03 -7.25390e-05 2.95080e-05 1.04710e-02 -1.58990e-03 -3.66720e-05 6.25140e-03 -7.07910e-05 3.30200e-05 9.79200e-03 -1.82480e-03 -3.66890e-05 5.70210e-03 -6.89440e-05 3.63830e-05 9.13220e-03 -2.01990e-03 -3.68150e-05 5.15900e-03 -6.69740e-05 3.95920e-05 8.49130e-03 -2.17510e-03 -3.70600e-05 4.62240e-03 -6.48460e-05 4.26420e-05 7.86930e-03 -1.71300e-03 2.53960e-05 4.12840e-03 -6.66810e-05 4.21630e-05 7.49160e-03 -6.87370e-04 1.57040e-04 3.70120e-03 -7.32440e-05 3.77770e-05 7.35710e-03 -2.27160e-03 -3.60300e-05 3.16030e-03 -5.45120e-05 2.51390e-05 6.25160e-03 -2.40140e-03 -3.93860e-05 2.54910e-03 -5.35400e-05 5.28140e-05 5.56960e-03 -2.36070e-03 -4.02190e-05 2.05130e-03 -4.96210e-05 5.46670e-05 5.04120e-03 -2.28240e-03 -4.09070e-05 1.56270e-03 -4.51550e-05 5.61650e-05 4.53110e-03 -2.16780e-03 -4.10980e-05 1.08450e-03 -4.02470e-05 5.73100e-05 4.03900e-03 -1.96930e-03 -4.41910e-05 4.25100e-04 -3.23710e-05 5.91870e-05 3.37260e-03 -1.84140e-03 -3.65770e-05 1.64620e-04 -3.11850e-05 5.94010e-05 3.10790e-03 -1.63970e-03 -2.93480e-05 -2.73450e-04 -2.95680e-05 6.18050e-05 2.66870e-03 -1.42280e-03 -1.95100e-05 -6.98790e-04 -3.19550e-05 6.78030e-05 2.24810e-03 -1.19190e-03 -2.42250e-05 -1.13700e-03 -3.83010e-05 8.08770e-05 1.85060e-03 -9.08880e-04 -1.04230e-04 -1.68880e-03 -4.87370e-05 1.03810e-04 1.48020e-03 -7.20030e-04 -1.69780e-04 -2.04320e-03 -5.81070e-05 1.24760e-04 1.30230e-03 1.82470e-01 1.31470e-01 1.26370e-01 4.09350e-03 -1.27340e-03 -3.46770e-02 1.97710e-01 9.42940e-02 8.01900e-02 2.74210e-03 -3.35310e-03 1.57660e-02 2.08540e-01 3.42380e-02 1.18460e-02 1.51470e-04 -5.28750e-03 7.98970e-02 2.03770e-01 5.19400e-03 -1.86430e-02 -1.36340e-03 -5.76490e-03 9.22920e-02 1.93850e-01 -1.09370e-03 -2.38780e-02 -1.54040e-03 -5.24370e-03 8.77960e-02 1.42720e-01 -1.20840e-02 -3.02420e-02 -1.15740e-03 -4.26600e-03 8.46640e-02 1.59690e-01 -5.97830e-03 -2.44760e-02 -8.55080e-04 -3.60520e-03 7.72750e-02 1.69490e-01 -1.69690e-03 -1.97010e-02 -5.65180e-04 -2.92300e-03 7.40000e-02 1.63740e-01 -1.84060e-03 -1.79160e-02 -3.94330e-04 -2.34790e-03 7.24770e-02 1.58500e-01 -1.93040e-03 -1.60930e-02 -2.77840e-04 -1.88590e-03 7.17080e-02 1.53540e-01 -2.03470e-03 -1.40610e-02 -2.01890e-04 -1.51440e-03 7.14270e-02 1.48840e-01 -1.99580e-03 -1.19310e-02 -1.50710e-04 -1.22340e-03 7.14100e-02 1.44280e-01 -2.01260e-03 -9.76180e-03 -1.18850e-04 -9.98270e-04 7.15090e-02 1.15510e-01 -6.25900e-03 -1.23760e-02 -6.81710e-05 -8.18860e-04 6.66710e-02 6.23240e-02 -1.51750e-02 -2.00340e-02 9.44230e-07 -6.64610e-04 5.65570e-02 5.50570e-02 -1.37190e-02 -1.12860e-02 2.46510e-04 -1.77360e-03 6.82310e-02 5.66390e-02 -1.13310e-02 -8.69440e-03 7.56800e-05 -8.76170e-04 6.40180e-02 5.17710e-02 -1.22060e-02 -5.87230e-03 -2.97400e-04 8.51700e-04 6.76330e-02 1.03490e-01 -3.69220e-03 2.47350e-03 -1.17100e-04 -1.64600e-04 7.30470e-02 1.15530e-01 -1.49050e-03 4.29910e-03 -6.68160e-05 -3.98810e-04 7.14640e-02 1.11750e-01 -1.42270e-03 5.98070e-03 -6.43400e-05 -3.73450e-04 7.11540e-02 1.08050e-01 -1.34210e-03 7.58080e-03 -6.20240e-05 -3.52460e-04 7.07650e-02 1.04420e-01 -1.27510e-03 9.08700e-03 -5.96860e-05 -3.34880e-04 7.02980e-02 1.00860e-01 -1.20150e-03 1.05110e-02 -5.76010e-05 -3.19350e-04 6.97590e-02 9.73740e-02 -1.13750e-03 1.18460e-02 -5.56630e-05 -3.05530e-04 6.91490e-02 9.00870e-02 -1.14030e-03 1.59690e-02 -5.58150e-05 -2.89420e-04 7.25970e-02 9.06090e-02 -1.01090e-03 1.42700e-02 -5.26910e-05 -2.80800e-04 6.77400e-02 8.73330e-02 -9.50570e-04 1.53600e-02 -5.16600e-05 -2.69440e-04 6.69500e-02 8.41270e-02 -8.95520e-04 1.63700e-02 -5.08760e-05 -2.58640e-04 6.61070e-02 8.09920e-02 -8.41170e-04 1.73040e-02 -5.03770e-05 -2.48210e-04 6.52160e-02 7.79270e-02 -7.90990e-04 1.81600e-02 -5.00830e-05 -2.38180e-04 6.42820e-02 2.68800e-02 -7.37990e-03 1.39610e-02 2.68470e-04 -1.07280e-03 5.54020e-02 2.83700e-02 -7.16980e-03 1.21320e-02 2.69530e-04 -1.04940e-03 5.13310e-02 2.98240e-02 -6.96260e-03 1.03410e-02 2.70000e-04 -1.02620e-03 4.75200e-02 6.98870e-02 -5.32280e-04 1.86250e-02 -3.23210e-04 6.02060e-04 5.76440e-02 6.36470e-02 -5.72400e-04 2.13760e-02 -5.09670e-05 -1.92430e-04 5.90830e-02 6.09970e-02 -5.35480e-04 2.18190e-02 -5.14080e-05 -1.84080e-04 5.79610e-02 5.84140e-02 -5.00270e-04 2.21990e-02 -5.18920e-05 -1.75960e-04 5.68190e-02 5.58980e-02 -4.67170e-04 2.25200e-02 -5.23980e-05 -1.68080e-04 5.56610e-02 6.20920e-02 6.06130e-04 2.27320e-02 -1.01430e-05 -2.98930e-04 5.51130e-02 8.78540e-02 4.72940e-03 2.70820e-02 1.58070e-04 -8.33330e-04 6.06960e-02 4.87390e-02 -3.78170e-04 2.31450e-02 -5.39590e-05 -1.45770e-04 5.21060e-02 4.64810e-02 -3.51860e-04 2.32490e-02 -5.44630e-05 -1.38760e-04 5.09030e-02 4.42840e-02 -3.27030e-04 2.33030e-02 -5.49500e-05 -1.31960e-04 4.96940e-02 4.21490e-02 -3.03730e-04 2.33100e-02 -5.54130e-05 -1.25360e-04 4.84820e-02 4.00750e-02 -2.81800e-04 2.32730e-02 -5.58510e-05 -1.18950e-04 4.72680e-02 4.06960e-02 -2.13310e-04 2.15420e-02 -5.56850e-05 -1.14440e-04 4.46440e-02 3.61030e-02 -2.42000e-04 2.30740e-02 -5.66340e-05 -1.06710e-04 4.48420e-02 3.42050e-02 -2.24000e-04 2.29150e-02 -5.69750e-05 -1.00870e-04 4.36320e-02 3.23630e-02 -2.07180e-04 2.27210e-02 -5.72780e-05 -9.52080e-05 4.24280e-02 3.05770e-02 -1.91510e-04 2.24920e-02 -5.75420e-05 -8.97190e-05 4.12290e-02 5.39860e-03 -3.44080e-03 1.92100e-02 -2.65530e-05 -7.46820e-05 3.42430e-02 2.49830e-02 -2.06440e-04 2.31980e-02 -5.81380e-05 -7.77420e-05 3.98070e-02 2.55470e-02 -1.50810e-04 2.16200e-02 -5.80890e-05 -7.42520e-05 3.76790e-02 2.39770e-02 -1.39200e-04 2.12730e-02 -5.81850e-05 -6.94180e-05 3.65150e-02 2.24580e-02 -1.28480e-04 2.09010e-02 -5.82360e-05 -6.47360e-05 3.53620e-02 2.09900e-02 -1.18610e-04 2.05070e-02 -5.82420e-05 -6.02040e-05 3.42210e-02 1.95730e-02 -1.09550e-04 2.00910e-02 -5.82020e-05 -5.58180e-05 3.30930e-02 1.82050e-02 -1.01260e-04 1.96550e-02 -5.81160e-05 -5.15730e-05 3.19780e-02 2.08340e-02 3.71910e-04 1.92770e-02 -3.64980e-05 -1.10830e-04 3.15150e-02 3.18770e-02 2.18950e-03 2.08730e-02 4.83650e-05 -3.52590e-04 3.40960e-02 1.43920e-02 -8.05680e-05 1.82440e-02 -5.75790e-05 -3.96480e-05 2.87200e-02 1.32160e-02 -7.49420e-05 1.77440e-02 -5.73070e-05 -3.59310e-05 2.76650e-02 2.25280e-02 1.69390e-03 2.03580e-02 -1.91670e-04 2.13830e-04 3.10990e-02 -1.59640e-03 -1.79100e-03 1.50400e-02 -3.32580e-05 -2.20260e-05 2.21110e-02 5.79910e-03 -6.43230e-04 1.55960e-02 -4.82950e-05 -2.31670e-05 2.34310e-02 1.78350e-02 1.40840e-03 1.79990e-02 1.83250e-05 -2.38850e-04 2.72140e-02 1.23330e-02 6.63870e-04 1.62200e-02 -1.98950e-05 -1.23000e-04 2.43690e-02 1.01860e-02 4.08930e-04 1.50970e-02 -3.29930e-05 -8.15750e-05 2.27030e-02 9.13820e-03 3.81940e-04 1.44930e-02 -3.38280e-05 -7.48340e-05 2.17060e-02 8.13970e-03 3.55540e-04 1.38870e-02 -3.45770e-05 -6.83170e-05 2.07290e-02 5.64400e-03 1.18170e-04 1.30760e-02 -4.50170e-05 -3.12790e-05 1.93220e-02 3.91910e-03 -4.47610e-05 1.22680e-02 -5.21030e-05 -4.96700e-06 1.80610e-02 3.22650e-03 -4.36850e-05 1.16970e-02 -5.13490e-05 -2.42150e-06 1.72010e-02 2.57570e-03 -4.28560e-05 1.11250e-02 -5.05550e-05 3.57470e-08 1.63590e-02 2.21330e-03 -3.46910e-05 1.04880e-02 -3.26240e-05 -3.65670e-05 1.55210e-02 3.33460e-03 2.01930e-04 1.01450e-02 -3.67090e-06 -1.08320e-04 1.52560e-02 6.50900e-03 7.03240e-04 1.00600e-02 -1.58870e-05 -1.03760e-04 1.56160e-02 2.97860e-03 3.39100e-04 9.23890e-03 -4.67600e-05 -1.21440e-05 1.40570e-02 1.30570e-03 1.48740e-04 8.45140e-03 -3.74120e-05 -1.91290e-05 1.28690e-02 4.18750e-04 7.07040e-05 7.80120e-03 -2.69800e-05 -3.43960e-05 1.19570e-02 -7.96780e-04 -4.40860e-05 7.12790e-03 -1.22580e-05 -5.55630e-05 1.09620e-02 -1.12380e-03 -4.47960e-05 6.58000e-03 -1.42740e-05 -4.69340e-05 1.02740e-02 -1.41090e-03 -4.56020e-05 6.03730e-03 -1.60810e-05 -3.87350e-05 9.60540e-03 -1.65810e-03 -4.65050e-05 5.50030e-03 -1.76690e-05 -3.09680e-05 8.95570e-03 -1.86530e-03 -4.75100e-05 4.96940e-03 -1.90310e-05 -2.36340e-05 8.32500e-03 -1.82900e-03 -3.55040e-05 4.56290e-03 -2.03120e-05 -1.91910e-05 7.87380e-03 -1.27900e-03 5.87190e-05 4.04020e-03 -4.79990e-05 3.97670e-05 7.51180e-03 -6.15420e-04 1.50030e-04 3.60390e-03 -5.64540e-05 5.19980e-05 7.26620e-03 -2.27710e-03 -4.66320e-05 2.98440e-03 -2.99970e-05 1.89810e-05 6.06570e-03 -2.30550e-03 -5.43930e-05 2.41910e-03 -2.18390e-05 6.29330e-06 5.45360e-03 -2.24100e-03 -4.73760e-05 2.10690e-03 -2.21900e-05 9.16240e-06 5.12070e-03 -2.21920e-03 -5.26230e-05 1.47480e-03 -2.58030e-05 3.04450e-05 4.45180e-03 -2.07690e-03 -6.36360e-05 8.01260e-04 -1.90860e-05 1.98270e-05 3.76420e-03 -1.95850e-03 -5.63440e-05 5.30530e-04 -1.89310e-05 2.16490e-05 3.48760e-03 -1.78750e-03 -5.19500e-05 8.81550e-05 -1.82660e-05 2.45670e-05 3.04060e-03 -1.67660e-03 -4.47730e-05 -1.51930e-04 -1.82890e-05 2.64350e-05 2.79510e-03 -1.39270e-03 -3.01500e-05 -7.39220e-04 -1.78470e-05 3.77310e-05 2.21090e-03 -1.16980e-03 -3.78240e-05 -1.16320e-03 -2.05100e-05 4.45170e-05 1.82420e-03 -8.96280e-04 -1.22370e-04 -1.69860e-03 -2.53640e-05 5.55860e-05 1.46490e-03 -7.12460e-04 -1.91300e-04 -2.04370e-03 -2.98220e-05 6.55570e-05 1.29190e-03 1.83550e-01 1.34030e-01 1.28540e-01 2.34160e-09 1.61440e-10 -3.41400e-02 1.97960e-01 9.60080e-02 8.09280e-02 2.89380e-11 4.89810e-10 1.67770e-02 2.08530e-01 3.60610e-02 1.25170e-02 -3.23320e-09 8.49730e-10 8.14430e-02 2.04120e-01 6.28650e-03 -1.81500e-02 -4.12170e-09 1.04290e-09 9.46320e-02 1.93940e-01 -8.28830e-04 -2.39190e-02 -4.01480e-09 1.18060e-09 8.99510e-02 6.89890e-02 -3.38130e-02 -4.88280e-02 -5.01640e-04 -5.08800e-04 8.49720e-02 1.37300e-01 -1.19440e-02 -2.89080e-02 -3.46950e-04 -7.16900e-05 7.93660e-02 1.69180e-01 -1.69890e-03 -1.95810e-02 -3.97770e-04 2.46630e-04 7.49700e-02 1.63280e-01 -1.94620e-03 -1.79580e-02 -2.99180e-04 5.58070e-04 7.30830e-02 1.58040e-01 -1.99350e-03 -1.61060e-02 -2.94830e-04 7.70940e-04 7.20640e-02 1.53040e-01 -2.13980e-03 -1.41740e-02 -2.61310e-04 9.44940e-04 7.15720e-02 1.48370e-01 -2.07900e-03 -1.20530e-02 -2.64380e-04 1.05990e-03 7.14070e-02 1.43810e-01 -2.10940e-03 -9.94080e-03 -2.57130e-04 1.14470e-03 7.13910e-02 1.15070e-01 -6.34410e-03 -1.25690e-02 -2.54930e-04 1.20350e-03 6.64800e-02 6.18980e-02 -1.53020e-02 -2.02880e-02 -2.47510e-04 1.25410e-03 5.63160e-02 6.45710e-02 -9.81070e-03 -1.30910e-02 2.58540e-04 -1.27140e-03 5.64400e-02 5.70170e-02 -1.18840e-02 -1.03780e-02 -2.93490e-09 7.18320e-10 6.18350e-02 5.53380e-02 -1.12240e-02 -8.16170e-03 -2.97180e-09 5.98540e-10 6.15400e-02 1.15170e-01 -1.66730e-03 5.30090e-03 -2.83860e-04 1.21040e-03 7.69000e-02 1.15260e-01 -1.55350e-03 4.02690e-03 -2.89370e-04 1.19620e-03 7.11170e-02 1.11510e-01 -1.48180e-03 5.70600e-03 -2.91710e-04 1.17360e-03 7.08070e-02 1.07830e-01 -1.39680e-03 7.30590e-03 -2.93930e-04 1.14940e-03 7.04210e-02 1.04220e-01 -1.32580e-03 8.81230e-03 -2.95130e-04 1.12360e-03 6.99580e-02 1.00690e-01 -1.24820e-03 1.02380e-02 -2.96160e-04 1.09750e-03 6.94240e-02 9.72150e-02 -1.18060e-03 1.15740e-02 -2.96440e-04 1.07070e-03 6.88200e-02 8.99560e-02 -1.17740e-03 1.57000e-02 -3.79600e-09 -6.81520e-10 7.22770e-02 9.04870e-02 -1.04700e-03 1.40020e-02 -3.48960e-09 -5.87320e-10 6.74240e-02 8.72280e-02 -9.83370e-04 1.50960e-02 -3.41590e-09 -6.58450e-10 6.66400e-02 8.40380e-02 -9.25320e-04 1.61080e-02 -3.33680e-09 -7.21620e-10 6.58040e-02 8.09180e-02 -8.68070e-04 1.70450e-02 -3.25570e-09 -7.77400e-10 6.49210e-02 2.84860e-02 -7.54750e-03 1.31310e-02 2.86970e-04 -9.15890e-04 5.63390e-02 2.89240e-02 -7.39010e-03 1.21290e-02 9.63690e-05 -3.02010e-04 5.32070e-02 2.84240e-02 -7.16330e-03 1.20710e-02 -2.43710e-09 -6.43200e-10 5.12520e-02 2.98790e-02 -6.95640e-03 1.02800e-02 -2.19250e-09 -5.26220e-10 4.74420e-02 6.63570e-02 -6.26760e-04 2.06280e-02 -2.92380e-09 -9.77920e-10 5.99210e-02 6.36500e-02 -5.85500e-04 2.11380e-02 -2.88740e-09 -1.01060e-09 5.88290e-02 6.10100e-02 -5.46790e-04 2.15850e-02 -2.86390e-09 -1.04380e-09 5.77140e-02 5.84360e-02 -5.09920e-04 2.19690e-02 -2.85320e-09 -1.07830e-09 5.65800e-02 5.59290e-02 -4.75280e-04 2.22940e-02 -2.85470e-09 -1.11500e-09 5.54270e-02 5.87600e-02 2.87770e-04 2.31570e-02 3.64020e-05 -9.88190e-05 5.53270e-02 6.54150e-02 1.33800e-03 2.28250e-02 8.49090e-05 -2.27820e-04 5.42650e-02 4.87930e-02 -3.82340e-04 2.29310e-02 -2.90940e-09 -1.23980e-09 5.18920e-02 4.65410e-02 -3.54930e-04 2.30380e-02 -2.93300e-09 -1.28490e-09 5.06940e-02 4.43500e-02 -3.29090e-04 2.30960e-02 -2.95310e-09 -1.33030e-09 4.94920e-02 4.22210e-02 -3.04870e-04 2.31080e-02 -2.96620e-09 -1.37450e-09 4.82850e-02 4.01510e-02 -2.82120e-04 2.30750e-02 -2.96890e-09 -1.41580e-09 4.70770e-02 4.07750e-02 -2.13690e-04 2.13450e-02 -2.81750e-09 -1.32310e-09 4.44570e-02 3.61880e-02 -2.40910e-04 2.28830e-02 -2.93440e-09 -1.48290e-09 4.46620e-02 3.42930e-02 -2.22330e-04 2.27290e-02 -2.89380e-09 -1.50540e-09 4.34580e-02 3.24540e-02 -2.05000e-04 2.25380e-02 -2.83680e-09 -1.51880e-09 4.22580e-02 3.06710e-02 -1.88880e-04 2.23140e-02 -2.76340e-09 -1.52250e-09 4.10640e-02 5.52550e-03 -3.42680e-03 1.90450e-02 -2.31710e-09 -1.40320e-09 3.40870e-02 2.50810e-02 -2.02630e-04 2.30300e-02 -2.63350e-09 -1.58510e-09 3.96540e-02 2.56460e-02 -1.47230e-04 2.14530e-02 -2.45840e-09 -1.47650e-09 3.75290e-02 2.40770e-02 -1.35410e-04 2.11100e-02 -2.33680e-09 -1.44510e-09 3.63690e-02 2.25590e-02 -1.24530e-04 2.07430e-02 -2.21120e-09 -1.40800e-09 3.52200e-02 2.10920e-02 -1.14560e-04 2.03520e-02 -2.08530e-09 -1.36700e-09 3.40840e-02 1.96750e-02 -1.05440e-04 1.99400e-02 -1.96330e-09 -1.32380e-09 3.29600e-02 1.83070e-02 -9.71300e-05 1.95080e-02 -1.84880e-09 -1.28040e-09 3.18490e-02 1.93180e-02 2.31970e-04 1.93670e-02 1.98190e-05 -4.44660e-05 3.13760e-02 2.21880e-02 6.99220e-04 1.88140e-02 4.56980e-05 -1.02040e-04 3.07960e-02 1.44920e-02 -7.66120e-05 1.81080e-02 -1.57720e-09 -1.16510e-09 2.86030e-02 1.38060e-02 -5.96480e-05 1.73850e-02 -4.12760e-05 8.94020e-05 2.74140e-02 8.69430e-03 -6.50370e-04 1.60950e-02 -1.20070e-04 2.60260e-04 2.50490e-02 -1.48170e-03 -1.78080e-03 1.49210e-02 -1.09850e-04 2.40660e-04 2.20070e-02 1.93980e-02 1.49950e-03 1.86930e-02 1.09140e-04 -2.28510e-04 2.84030e-02 1.36030e-02 7.06000e-04 1.67830e-02 5.17030e-05 -1.09760e-04 2.53900e-02 9.37090e-03 1.60250e-04 1.53190e-02 1.39110e-05 -3.01220e-05 2.30600e-02 7.20220e-03 -4.94340e-05 1.44210e-02 -1.37980e-09 -1.06510e-09 2.15950e-02 6.33750e-03 -4.73890e-05 1.38640e-02 -1.37550e-09 -1.06220e-09 2.06640e-02 5.51570e-03 -4.57070e-05 1.33030e-02 -1.36980e-09 -1.05840e-09 1.97510e-02 4.73640e-03 -4.43580e-05 1.27390e-02 -1.36020e-09 -1.05260e-09 1.88560e-02 3.99940e-03 -4.33110e-05 1.21730e-02 -1.34440e-09 -1.04320e-09 1.79800e-02 3.30420e-03 -4.25420e-05 1.16050e-02 -1.32060e-09 -1.02920e-09 1.71230e-02 2.65070e-03 -4.20220e-05 1.10370e-02 -1.28790e-09 -1.00960e-09 1.62840e-02 2.03860e-03 -4.17270e-05 1.04690e-02 -1.24590e-09 -9.83980e-10 1.54640e-02 2.27800e-03 6.30690e-05 9.99600e-03 7.36980e-06 -1.56400e-05 1.49070e-02 3.19850e-03 2.21010e-04 9.51810e-03 1.68380e-05 -3.54930e-05 1.44790e-02 1.02680e-03 4.95710e-05 8.87990e-03 6.65930e-06 -1.40110e-05 1.33290e-02 -7.95930e-07 -4.23470e-05 8.21540e-03 -9.94840e-10 -8.20340e-10 1.23740e-02 -4.09300e-04 -4.28540e-05 7.65960e-03 -9.19730e-10 -7.68050e-10 1.16490e-02 -7.77580e-04 -4.34720e-05 7.10810e-03 -8.44170e-10 -7.13760e-10 1.09440e-02 -1.10570e-03 -4.41920e-05 6.56120e-03 -7.70620e-10 -6.59020e-10 1.02570e-02 -1.39390e-03 -4.50070e-05 6.01970e-03 -7.00720e-10 -6.05010e-10 9.58900e-03 -1.64220e-03 -4.59190e-05 5.48380e-03 -6.36320e-10 -5.52950e-10 8.94020e-03 -1.85050e-03 -4.69340e-05 4.95400e-03 -5.78850e-10 -5.03950e-10 8.31040e-03 -1.81480e-03 -3.49350e-05 4.54820e-03 -5.40970e-10 -4.68350e-10 7.85960e-03 -2.15440e-04 1.76640e-04 4.07660e-03 -1.96060e-05 3.71240e-05 7.84400e-03 -2.23690e-03 -5.07250e-05 3.40490e-03 -4.48330e-10 -3.76310e-10 6.53390e-03 -2.28620e-03 -5.22700e-05 2.90300e-03 -4.17350e-10 -3.40760e-10 5.97930e-03 -2.29590e-03 -5.39110e-05 2.40910e-03 -3.90040e-10 -3.08310e-10 5.44320e-03 -2.25490e-03 -5.26590e-05 1.98140e-03 2.60930e-06 -6.30730e-06 4.98720e-03 -2.20310e-03 -6.42780e-05 1.26610e-03 5.69530e-06 -1.57260e-05 4.23890e-03 -2.08510e-03 -5.93440e-05 9.17840e-04 1.83990e-06 -4.83230e-06 3.88180e-03 -1.95230e-03 -5.60640e-05 5.24080e-04 -2.76200e-10 -1.98500e-10 3.48050e-03 -1.78220e-03 -5.17260e-05 8.25870e-05 -2.33440e-10 -1.75840e-10 3.03430e-03 -1.61680e-03 -4.38170e-05 -2.80400e-04 -9.06160e-08 -2.60010e-06 2.66730e-03 -1.47530e-03 -3.45000e-05 -5.66720e-04 -1.63790e-07 -7.68800e-06 2.37650e-03 -1.16260e-03 -4.27620e-05 -1.17120e-03 -9.72220e-11 -1.46660e-10 1.81550e-03 -8.91790e-04 -1.28260e-04 -1.70100e-03 -4.47880e-11 -1.42450e-10 1.45960e-03 -7.09330e-04 -1.97530e-04 -2.04250e-03 -7.23510e-12 -1.38340e-10 1.28820e-03 1.82470e-01 1.31470e-01 1.26370e-01 -4.09350e-03 1.27340e-03 -3.46770e-02 1.97710e-01 9.42940e-02 8.01900e-02 -2.74210e-03 3.35310e-03 1.57660e-02 2.08540e-01 3.42380e-02 1.18460e-02 -1.51480e-04 5.28750e-03 7.98970e-02 2.03770e-01 5.19400e-03 -1.86430e-02 1.36340e-03 5.76490e-03 9.22920e-02 1.93850e-01 -1.09370e-03 -2.38780e-02 1.54040e-03 5.24370e-03 8.77960e-02 1.83860e-01 -1.68810e-03 -2.29680e-02 1.18210e-03 4.41870e-03 8.13570e-02 1.71950e-01 -1.75880e-03 -1.93220e-02 6.72440e-04 3.35490e-03 8.37950e-02 1.69490e-01 -1.69690e-03 -1.97010e-02 5.65170e-04 2.92310e-03 7.40000e-02 1.63740e-01 -1.84060e-03 -1.79160e-02 3.94320e-04 2.34790e-03 7.24770e-02 1.58500e-01 -1.93040e-03 -1.60930e-02 2.77830e-04 1.88590e-03 7.17080e-02 1.53540e-01 -2.03470e-03 -1.40610e-02 2.01880e-04 1.51440e-03 7.14270e-02 1.48840e-01 -1.99580e-03 -1.19310e-02 1.50700e-04 1.22340e-03 7.14100e-02 1.44280e-01 -2.01260e-03 -9.76180e-03 1.18840e-04 9.98270e-04 7.15090e-02 1.39890e-01 -1.92350e-03 -7.56590e-03 9.87420e-05 8.26250e-04 7.16600e-02 1.26080e-01 -3.02990e-03 -6.74260e-03 1.15010e-04 5.21130e-04 6.95570e-02 1.11910e-01 -4.30750e-03 -8.26910e-03 1.45530e-04 2.03430e-04 6.28650e-02 5.73000e-02 -1.18280e-02 -1.01430e-02 1.24990e-05 4.60610e-04 6.21590e-02 5.55820e-02 -1.11790e-02 -7.92190e-03 1.62170e-05 4.07890e-04 6.18760e-02 5.31070e-02 -1.11330e-02 -6.15040e-03 1.78800e-05 3.70020e-04 6.14080e-02 1.11610e-01 -1.58830e-03 7.23740e-03 6.95070e-05 3.90280e-04 7.67240e-02 1.11750e-01 -1.42270e-03 5.98070e-03 6.43330e-05 3.73450e-04 7.11540e-02 1.08050e-01 -1.34210e-03 7.58080e-03 6.20160e-05 3.52460e-04 7.07650e-02 1.04420e-01 -1.27510e-03 9.08700e-03 5.96790e-05 3.34870e-04 7.02980e-02 1.00860e-01 -1.20150e-03 1.05110e-02 5.75940e-05 3.19350e-04 6.97590e-02 9.73740e-02 -1.13750e-03 1.18460e-02 5.56560e-05 3.05520e-04 6.91490e-02 1.07900e-01 1.47860e-03 1.86160e-02 -2.76330e-05 6.48240e-04 7.62400e-02 9.76810e-02 1.09600e-04 1.58170e-02 1.67190e-05 4.32470e-04 6.98620e-02 3.32540e-02 -8.41110e-03 1.04500e-02 3.02130e-04 -7.49810e-04 5.98060e-02 3.47120e-02 -8.14520e-03 8.75970e-03 3.00250e-04 -7.37360e-04 5.52200e-02 3.30970e-02 -7.87510e-03 9.80250e-03 2.97990e-04 -7.18710e-04 5.43840e-02 3.04710e-02 -7.61000e-03 1.15680e-02 1.06710e-04 -9.78390e-05 5.44830e-02 2.99090e-02 -7.39480e-03 1.14800e-02 1.02600e-05 2.00590e-04 5.24300e-02 2.84020e-02 -7.16110e-03 1.23040e-02 1.05330e-05 1.92910e-04 5.15240e-02 2.98490e-02 -6.95660e-03 1.05090e-02 9.13580e-06 1.87270e-04 4.77100e-02 6.63650e-02 -6.11730e-04 2.08690e-02 5.05730e-05 2.01040e-04 6.01810e-02 6.36470e-02 -5.72400e-04 2.13760e-02 5.09620e-05 1.92430e-04 5.90830e-02 6.09970e-02 -5.35480e-04 2.18190e-02 5.14020e-05 1.84080e-04 5.79610e-02 5.84140e-02 -5.00270e-04 2.21990e-02 5.18870e-05 1.75960e-04 5.68190e-02 5.58980e-02 -4.67170e-04 2.25200e-02 5.23920e-05 1.68070e-04 5.56610e-02 5.34470e-02 -4.35730e-04 2.27830e-02 5.29140e-05 1.60420e-04 5.44870e-02 5.41370e-02 -3.53670e-04 2.09340e-02 5.24380e-05 1.54920e-04 5.13120e-02 4.87390e-02 -3.78170e-04 2.31450e-02 5.39530e-05 1.45760e-04 5.21060e-02 4.64810e-02 -3.51860e-04 2.32490e-02 5.44570e-05 1.38760e-04 5.09030e-02 4.42840e-02 -3.27030e-04 2.33030e-02 5.49440e-05 1.31950e-04 4.96940e-02 4.21490e-02 -3.03730e-04 2.33100e-02 5.54080e-05 1.25350e-04 4.84820e-02 4.00750e-02 -2.81800e-04 2.32730e-02 5.58460e-05 1.18950e-04 4.72680e-02 4.06960e-02 -2.13310e-04 2.15420e-02 5.56790e-05 1.14430e-04 4.46440e-02 3.61030e-02 -2.42000e-04 2.30740e-02 5.66290e-05 1.06710e-04 4.48420e-02 3.42050e-02 -2.24000e-04 2.29150e-02 5.69690e-05 1.00870e-04 4.36320e-02 3.23630e-02 -2.07180e-04 2.27210e-02 5.72730e-05 9.52050e-05 4.24280e-02 3.05770e-02 -1.91510e-04 2.24920e-02 5.75370e-05 8.97160e-05 4.12290e-02 5.39870e-03 -3.44080e-03 1.92100e-02 2.65480e-05 7.46800e-05 3.42430e-02 2.49830e-02 -2.06440e-04 2.31980e-02 5.81330e-05 7.77390e-05 3.98070e-02 2.55470e-02 -1.50810e-04 2.16200e-02 5.80840e-05 7.42500e-05 3.76790e-02 2.39770e-02 -1.39200e-04 2.12730e-02 5.81800e-05 6.94150e-05 3.65150e-02 2.24580e-02 -1.28480e-04 2.09010e-02 5.82320e-05 6.47330e-05 3.53620e-02 2.09900e-02 -1.18610e-04 2.05070e-02 5.82380e-05 6.02020e-05 3.42210e-02 1.95730e-02 -1.09550e-04 2.00910e-02 5.81990e-05 5.58150e-05 3.30930e-02 1.82050e-02 -1.01260e-04 1.96550e-02 5.81130e-05 5.15700e-05 3.19780e-02 1.68860e-02 -9.36880e-05 1.92010e-02 5.79810e-05 4.74630e-05 3.08770e-02 1.72260e-02 -5.05610e-05 1.79430e-02 5.80510e-05 4.47880e-05 2.92900e-02 1.19560e-02 -5.00190e-04 1.74620e-02 -2.19590e-05 2.06970e-04 2.76500e-02 1.47510e-02 -3.79720e-05 1.69690e-02 -6.31950e-05 3.09510e-04 2.71760e-02 1.20860e-02 -6.98880e-05 1.72320e-02 5.69850e-05 3.23350e-05 2.66270e-02 1.10020e-02 -6.53720e-05 1.67090e-02 5.66200e-05 2.88600e-05 2.56040e-02 1.93210e-02 1.50250e-03 1.88150e-02 7.79410e-05 2.98700e-05 2.85050e-02 1.20950e-02 4.70520e-04 1.65060e-02 6.30960e-05 2.37840e-05 2.48920e-02 8.01870e-03 -5.47180e-05 1.50850e-02 5.52530e-05 1.91180e-05 2.26410e-02 7.11270e-03 -5.20250e-05 1.45300e-02 5.47080e-05 1.60880e-05 2.16880e-02 6.25010e-03 -4.97110e-05 1.39700e-02 5.41190e-05 1.31600e-05 2.07540e-02 5.43050e-03 -4.77480e-05 1.34050e-02 5.34880e-05 1.03320e-05 1.98380e-02 4.65360e-03 -4.61060e-05 1.28380e-02 5.28150e-05 7.60160e-06 1.89400e-02 3.91910e-03 -4.47610e-05 1.22680e-02 5.21010e-05 4.96490e-06 1.80610e-02 3.22650e-03 -4.36850e-05 1.16970e-02 5.13460e-05 2.41950e-06 1.72010e-02 2.57570e-03 -4.28560e-05 1.11250e-02 5.05520e-05 -3.77300e-08 1.63590e-02 1.96630e-03 -4.22480e-05 1.05540e-02 4.97200e-05 -2.40940e-06 1.55360e-02 1.39820e-03 -4.18410e-05 9.98350e-03 4.88490e-05 -4.69810e-06 1.47320e-02 1.46480e-03 -2.05010e-05 9.33710e-03 4.88540e-05 -5.91910e-06 1.39890e-02 3.84550e-04 -4.15450e-05 8.84900e-03 4.69970e-05 -9.03800e-06 1.31820e-02 -6.12940e-05 -4.16200e-05 8.28610e-03 4.60150e-05 -1.10940e-05 1.24350e-02 -4.66710e-04 -4.18240e-05 7.72690e-03 4.49970e-05 -1.30780e-05 1.17070e-02 -8.31860e-04 -4.21430e-05 7.17200e-03 4.39390e-05 -1.49910e-05 1.09990e-02 -1.15690e-03 -4.25680e-05 6.62180e-03 4.28390e-05 -1.68340e-05 1.03090e-02 -1.44180e-03 -4.30950e-05 6.07680e-03 4.16910e-05 -1.86100e-05 9.63880e-03 -1.68690e-03 -4.37250e-05 5.53750e-03 4.04850e-05 -2.03160e-05 8.98720e-03 -1.89210e-03 -4.44600e-05 5.00440e-03 3.92070e-05 -2.19510e-05 8.35470e-03 -1.85450e-03 -3.22820e-05 4.59670e-03 3.90540e-05 -2.26590e-05 7.90250e-03 -2.18300e-03 -4.63000e-05 3.95800e-03 3.63470e-05 -2.49810e-05 7.14630e-03 -2.26900e-03 -4.74350e-05 3.44540e-03 3.47010e-05 -2.63540e-05 6.57030e-03 -2.31530e-03 -4.87090e-05 2.94040e-03 3.28580e-05 -2.76090e-05 6.01300e-03 -2.32210e-03 -5.01000e-05 2.44330e-03 3.07750e-05 -2.87220e-05 5.47420e-03 -2.28990e-03 -5.14810e-05 1.95460e-03 2.84210e-05 -2.96720e-05 4.95390e-03 -2.22320e-03 -6.00600e-05 1.29300e-03 2.41140e-05 -3.10390e-05 4.26370e-03 -2.11150e-03 -5.30040e-05 1.00510e-03 2.30120e-05 -3.10670e-05 3.96770e-03 -1.96920e-03 -5.17700e-05 5.46780e-04 2.02790e-05 -3.16470e-05 3.50130e-03 -1.79700e-03 -4.76350e-05 1.02310e-04 1.80960e-05 -3.24600e-05 3.05250e-03 -1.60200e-03 -3.94770e-05 -3.25710e-04 1.71180e-05 -3.41360e-05 2.62170e-03 -1.42610e-03 -2.88600e-05 -6.74440e-04 1.73400e-05 -3.93520e-05 2.27290e-03 -1.17490e-03 -3.28900e-05 -1.15740e-03 2.01730e-05 -5.24980e-05 1.82970e-03 -9.00160e-04 -1.16480e-04 -1.69680e-03 2.69380e-05 -6.75630e-05 1.46770e-03 -7.16070e-04 -1.84960e-04 -2.04450e-03 3.29440e-05 -8.17570e-05 1.29350e-03 1.82370e-01 1.28570e-01 1.24740e-01 -9.73110e-03 2.92810e-03 -3.56830e-02 1.97410e-01 8.77980e-02 7.67300e-02 -6.00390e-03 7.56410e-03 1.32000e-02 2.07610e-01 2.82160e-02 8.82470e-03 4.73730e-04 1.13030e-02 7.39520e-02 2.02750e-01 2.55710e-03 -1.96200e-02 3.56770e-03 1.14630e-02 8.49340e-02 1.92860e-01 -1.82230e-03 -2.43160e-02 3.40990e-03 9.88270e-03 8.07390e-02 1.83880e-01 -1.61580e-03 -2.30330e-02 2.31450e-03 8.01050e-03 7.59430e-02 1.72870e-01 -1.22550e-03 -1.92310e-02 1.38300e-03 6.02520e-03 8.03900e-02 1.70620e-01 -1.43180e-03 -1.97710e-02 1.03500e-03 5.18530e-03 7.13640e-02 1.65070e-01 -1.59050e-03 -1.79350e-02 7.16420e-04 4.18150e-03 7.08230e-02 1.59960e-01 -1.61690e-03 -1.58990e-02 5.18160e-04 3.35080e-03 7.08300e-02 1.54990e-01 -1.73160e-03 -1.37580e-02 3.80900e-04 2.71240e-03 7.11250e-02 1.50270e-01 -1.67870e-03 -1.14810e-02 2.96490e-04 2.19970e-03 7.15440e-02 1.45630e-01 -1.70810e-03 -9.22080e-03 2.37900e-04 1.81470e-03 7.19580e-02 1.41150e-01 -1.62450e-03 -6.93410e-03 2.04300e-04 1.51480e-03 7.23340e-02 1.36760e-01 -1.60590e-03 -4.73240e-03 1.80960e-04 1.29410e-03 7.26160e-02 1.36360e-01 -1.35220e-03 -5.38050e-03 1.65920e-04 1.17210e-03 6.67360e-02 5.85110e-02 -1.13990e-02 -9.30850e-03 5.95290e-05 8.45230e-04 6.32210e-02 5.66750e-02 -1.07790e-02 -7.07040e-03 6.46440e-05 7.55290e-04 6.29740e-02 5.41160e-02 -1.07440e-02 -5.28050e-03 6.53040e-05 6.91650e-04 6.25260e-02 1.12340e-01 -1.38020e-03 8.06400e-03 1.42610e-04 7.63610e-04 7.77950e-02 1.12440e-01 -1.21760e-03 6.80830e-03 1.31760e-04 7.33890e-04 7.22190e-02 1.08670e-01 -1.15010e-03 8.40860e-03 1.25950e-04 6.96300e-04 7.18210e-02 1.04980e-01 -1.09550e-03 9.91210e-03 1.20040e-04 6.64530e-04 7.13410e-02 1.01360e-01 -1.03420e-03 1.13320e-02 1.14740e-04 6.36080e-04 7.07850e-02 9.78110e-02 -9.81710e-04 1.26600e-02 1.09740e-04 6.10480e-04 7.01570e-02 1.43710e-01 6.78320e-03 2.45220e-02 -1.01500e-04 1.69200e-03 8.42430e-02 1.15120e-01 2.81620e-03 2.02360e-02 -1.18910e-05 1.12140e-03 7.60090e-02 3.35230e-02 -8.20590e-03 1.10830e-02 4.10410e-05 4.50260e-04 6.05800e-02 3.49650e-02 -7.93750e-03 9.39460e-03 3.50520e-05 4.38640e-04 5.59840e-02 3.33130e-02 -7.67650e-03 1.04310e-02 3.32020e-05 4.23200e-04 5.51300e-02 3.16680e-02 -7.44940e-03 1.13780e-02 3.17100e-05 4.08250e-04 5.42430e-02 3.00970e-02 -7.20450e-03 1.22700e-02 3.07020e-05 3.93540e-04 5.33410e-02 2.85470e-02 -6.98190e-03 1.30820e-02 2.99960e-05 3.79180e-04 5.24130e-02 2.99720e-02 -6.78000e-03 1.12820e-02 2.64340e-05 3.68530e-04 4.85860e-02 6.63550e-02 -5.44370e-04 2.15870e-02 8.89830e-05 4.10120e-04 6.09790e-02 6.36050e-02 -5.11300e-04 2.20830e-02 8.88250e-05 3.93210e-04 5.98600e-02 6.09240e-02 -4.80250e-04 2.25140e-02 8.88180e-05 3.76750e-04 5.87180e-02 5.83140e-02 -4.50530e-04 2.28830e-02 8.89400e-05 3.60700e-04 5.75560e-02 5.57710e-02 -4.22560e-04 2.31920e-02 8.91550e-05 3.45080e-04 5.63770e-02 5.32970e-02 -3.95900e-04 2.34440e-02 8.94470e-05 3.29870e-04 5.51840e-02 5.39740e-02 -3.14460e-04 2.15880e-02 8.80220e-05 3.18940e-04 5.19980e-02 4.85460e-02 -3.46910e-04 2.37820e-02 9.01780e-05 3.00660e-04 5.27650e-02 4.62690e-02 -3.24430e-04 2.38740e-02 9.05880e-05 2.86640e-04 5.15430e-02 4.40560e-02 -3.03140e-04 2.39160e-02 9.10130e-05 2.73000e-04 5.03170e-02 4.19060e-02 -2.83090e-04 2.39120e-02 9.14420e-05 2.59740e-04 4.90870e-02 3.98170e-02 -2.64170e-04 2.38630e-02 9.18660e-05 2.46840e-04 4.78560e-02 4.45410e-02 5.51170e-04 2.38590e-02 1.40080e-04 1.36640e-04 4.74310e-02 6.41520e-02 3.68930e-03 2.74710e-02 3.34200e-04 -2.66570e-04 5.22740e-02 3.39150e-02 -2.13890e-04 2.34690e-02 9.30430e-05 2.10310e-04 4.41710e-02 3.20650e-02 -1.99130e-04 2.32630e-02 9.33830e-05 1.98820e-04 4.29500e-02 3.02720e-02 -1.85310e-04 2.30220e-02 9.36890e-05 1.87680e-04 4.17360e-02 5.10890e-03 -3.39530e-03 1.97460e-02 4.49690e-05 1.51370e-04 3.47580e-02 2.46650e-02 -2.04940e-04 2.37000e-02 9.45160e-05 1.63290e-04 4.02790e-02 2.52270e-02 -1.49010e-04 2.21150e-02 9.43570e-05 1.56190e-04 3.81430e-02 2.36540e-02 -1.38520e-04 2.17560e-02 9.44850e-05 1.46330e-04 3.69650e-02 2.21340e-02 -1.28760e-04 2.13730e-02 9.45600e-05 1.36760e-04 3.57980e-02 2.06650e-02 -1.19700e-04 2.09670e-02 9.45800e-05 1.27500e-04 3.46440e-02 1.92480e-02 -1.11310e-04 2.05400e-02 9.45420e-05 1.18520e-04 3.35030e-02 1.78800e-02 -1.03550e-04 2.00930e-02 9.44450e-05 1.09830e-04 3.23760e-02 1.65630e-02 -9.63980e-05 1.96270e-02 9.42860e-05 1.01420e-04 3.12630e-02 1.69040e-02 -5.28990e-05 1.83630e-02 9.45150e-05 9.59430e-05 2.96690e-02 1.85250e-03 -2.19290e-03 1.48350e-02 -6.80460e-05 3.63710e-04 2.38180e-02 1.29010e-02 -7.82360e-05 1.81370e-02 9.34270e-05 7.77740e-05 2.80160e-02 1.17750e-02 -7.31820e-05 1.76140e-02 9.30100e-05 7.04040e-05 2.69660e-02 1.06960e-02 -6.85820e-05 1.70800e-02 9.25250e-05 6.32790e-05 2.59330e-02 1.18930e-02 4.38110e-04 1.78250e-02 1.34020e-04 -1.71430e-05 2.64520e-02 9.99740e-03 1.67010e-04 1.63810e-02 1.09500e-04 1.96120e-05 2.44860e-02 7.73030e-03 -5.72360e-05 1.54240e-02 9.06680e-05 4.33170e-05 2.29390e-02 6.83090e-03 -5.41890e-05 1.48590e-02 8.99140e-05 3.71140e-05 2.19760e-02 5.97540e-03 -5.14690e-05 1.42880e-02 8.90930e-05 3.11270e-05 2.10320e-02 5.16320e-03 -4.90540e-05 1.37130e-02 8.82060e-05 2.53500e-05 2.01060e-02 4.39410e-03 -4.69210e-05 1.31350e-02 8.72520e-05 1.97780e-05 1.91990e-02 3.66770e-03 -4.50490e-05 1.25540e-02 8.62330e-05 1.44050e-05 1.83100e-02 2.98350e-03 -4.34190e-05 1.19730e-02 8.51490e-05 9.22560e-06 1.74410e-02 2.34130e-03 -4.20110e-05 1.13910e-02 8.40010e-05 4.23500e-06 1.65900e-02 1.74080e-03 -4.08060e-05 1.08090e-02 8.27890e-05 -5.72150e-07 1.57580e-02 1.18180e-03 -3.97880e-05 1.02290e-02 8.15140e-05 -5.20120e-06 1.49450e-02 1.25360e-03 -1.80030e-05 9.57660e-03 8.18460e-05 -7.66810e-06 1.41980e-02 1.86960e-04 -3.82440e-05 9.07410e-03 7.87790e-05 -1.39450e-05 1.33770e-02 -2.49230e-04 -3.76900e-05 8.50110e-03 7.73180e-05 -1.80700e-05 1.26220e-02 -6.44850e-04 -3.72640e-05 7.93170e-03 7.57930e-05 -2.20370e-05 1.18860e-02 -1.00010e-03 -3.69570e-05 7.36670e-03 7.42020e-05 -2.58490e-05 1.11690e-02 -1.31510e-03 -3.67610e-05 6.80640e-03 7.25370e-05 -2.95090e-05 1.04710e-02 -1.58990e-03 -3.66720e-05 6.25140e-03 7.07900e-05 -3.30210e-05 9.79200e-03 -1.82480e-03 -3.66890e-05 5.70210e-03 6.89430e-05 -3.63840e-05 9.13220e-03 -2.01990e-03 -3.68150e-05 5.15900e-03 6.69730e-05 -3.95930e-05 8.49130e-03 -1.70390e-03 1.46200e-05 4.71270e-03 6.97220e-05 -4.70190e-05 8.09520e-03 -3.87440e-04 2.02550e-04 4.32310e-03 8.33400e-05 -6.83310e-05 8.06480e-03 -2.36680e-03 -3.79480e-05 3.57030e-03 5.99000e-05 -4.81940e-05 6.68200e-03 -2.40360e-03 -3.86060e-05 3.05570e-03 5.69400e-05 -5.06400e-05 6.11650e-03 -2.40140e-03 -3.93870e-05 2.54910e-03 5.35400e-05 -5.28150e-05 5.56960e-03 -2.36070e-03 -4.02190e-05 2.05130e-03 4.96200e-05 -5.46680e-05 5.04120e-03 -2.28320e-03 -4.81500e-05 1.37710e-03 4.19970e-05 -5.73420e-05 4.33940e-03 -2.16780e-03 -4.10990e-05 1.08450e-03 4.02460e-05 -5.73110e-05 4.03900e-03 -2.01940e-03 -4.00040e-05 6.17860e-04 3.53000e-05 -5.82450e-05 3.56470e-03 -1.84140e-03 -3.65770e-05 1.64620e-04 3.11850e-05 -5.94010e-05 3.10790e-03 -1.63970e-03 -2.93480e-05 -2.73440e-04 2.95680e-05 -6.18050e-05 2.66870e-03 -1.42280e-03 -1.95100e-05 -6.98790e-04 3.19540e-05 -6.78030e-05 2.24810e-03 -1.19190e-03 -2.42240e-05 -1.13700e-03 3.83010e-05 -8.08780e-05 1.85060e-03 -9.08880e-04 -1.04230e-04 -1.68880e-03 4.87370e-05 -1.03810e-04 1.48020e-03 -7.20030e-04 -1.69780e-04 -2.04320e-03 5.81070e-05 -1.24760e-04 1.30230e-03 1.77070e-01 1.15290e-01 1.13260e-01 -1.91360e-02 5.37410e-03 -3.77560e-02 1.94420e-01 7.38750e-02 6.72010e-02 -1.06300e-02 1.32530e-02 6.56640e-03 2.04620e-01 1.76660e-02 2.23970e-03 2.87980e-03 1.73180e-02 6.09660e-02 1.98870e-01 -5.30430e-04 -2.17730e-02 6.92500e-03 1.53880e-02 7.01170e-02 1.91480e-01 -1.54780e-03 -2.41940e-02 4.94900e-03 1.20240e-02 6.89110e-02 1.84470e-01 -1.26690e-03 -2.33600e-02 3.01530e-03 9.42060e-03 6.75490e-02 1.75180e-01 -8.83580e-04 -1.94590e-02 1.47450e-03 6.82230e-03 7.58000e-02 1.73140e-01 -9.35730e-04 -1.97420e-02 1.28390e-03 5.91170e-03 6.78020e-02 1.67880e-01 -1.02250e-03 -1.75880e-02 9.35850e-04 4.73570e-03 6.88200e-02 1.62810e-01 -1.05020e-03 -1.53100e-02 7.12530e-04 3.81280e-03 6.99910e-02 1.57790e-01 -1.14260e-03 -1.29200e-02 5.69350e-04 3.09150e-03 7.11500e-02 1.52930e-01 -1.10160e-03 -1.04550e-02 4.73360e-04 2.52850e-03 7.21970e-02 1.48130e-01 -1.13770e-03 -8.03590e-03 4.09690e-04 2.10200e-03 7.30610e-02 1.43490e-01 -1.07560e-03 -5.63380e-03 3.68940e-04 1.77550e-03 7.37490e-02 1.38920e-01 -1.07490e-03 -3.34300e-03 3.40400e-04 1.53490e-03 7.42420e-02 1.38420e-01 -8.36990e-04 -3.96330e-03 3.15630e-04 1.40160e-03 6.84400e-02 6.04630e-02 -1.08130e-02 -7.62120e-03 2.17920e-04 9.50580e-04 6.50950e-02 5.84150e-02 -1.02490e-02 -5.38310e-03 2.19160e-04 8.57400e-04 6.48820e-02 5.57300e-02 -1.02170e-02 -3.57380e-03 2.13990e-04 7.93160e-04 6.44540e-02 1.13690e-01 -9.78960e-04 9.59690e-03 2.73470e-04 9.62530e-04 7.97040e-02 1.13720e-01 -8.23310e-04 8.33390e-03 2.54990e-04 9.29360e-04 7.41120e-02 1.09830e-01 -7.77880e-04 9.92460e-03 2.43180e-04 8.87550e-04 7.36940e-02 1.06020e-01 -7.43690e-04 1.14150e-02 2.31140e-04 8.52110e-04 7.31860e-02 1.02290e-01 -7.02830e-04 1.28190e-02 2.20140e-04 8.19580e-04 7.26000e-02 9.86400e-02 -6.69460e-04 1.41310e-02 2.09450e-04 7.90200e-04 7.19390e-02 9.50670e-02 -6.32680e-04 1.53580e-02 1.99860e-04 7.62080e-04 7.12110e-02 1.39290e-01 6.60360e-03 2.69890e-02 2.41450e-04 8.92050e-04 8.54640e-02 3.40530e-02 -7.89690e-03 1.26190e-02 1.38720e-04 5.49090e-04 6.22510e-02 3.54400e-02 -7.64060e-03 1.09080e-02 1.27540e-04 5.36130e-04 5.76330e-02 3.37000e-02 -7.39900e-03 1.19180e-02 1.21030e-04 5.19310e-04 5.67420e-02 3.19770e-02 -7.18720e-03 1.28390e-02 1.14950e-04 5.02880e-04 5.58170e-02 3.03280e-02 -6.95940e-03 1.37050e-02 1.09640e-04 4.86460e-04 5.48770e-02 2.87080e-02 -6.75110e-03 1.44930e-02 1.04740e-04 4.70320e-04 5.39120e-02 3.00910e-02 -6.55550e-03 1.26750e-02 9.71480e-05 4.57840e-04 5.00620e-02 6.63760e-02 -3.82760e-04 2.28480e-02 1.45310e-04 5.46780e-04 6.23950e-02 6.35680e-02 -3.60830e-04 2.33220e-02 1.41900e-04 5.25370e-04 6.12390e-02 6.08330e-02 -3.40260e-04 2.37310e-02 1.38770e-04 5.04450e-04 6.00610e-02 5.81720e-02 -3.20470e-04 2.40780e-02 1.35950e-04 4.83930e-04 5.88640e-02 5.55830e-02 -3.01840e-04 2.43650e-02 1.33360e-04 4.63890e-04 5.76510e-02 5.30650e-02 -2.84000e-04 2.45940e-02 1.31000e-04 4.44260e-04 5.64240e-02 5.37200e-02 -2.03710e-04 2.27270e-02 1.27190e-04 4.29970e-04 5.32180e-02 4.82380e-02 -2.51120e-04 2.48890e-02 1.26830e-04 4.06330e-04 5.39380e-02 4.59270e-02 -2.35970e-04 2.49580e-02 1.24980e-04 3.88030e-04 5.26840e-02 4.36830e-02 -2.21560e-04 2.49790e-02 1.23280e-04 3.70150e-04 5.14260e-02 4.15050e-02 -2.07960e-04 2.49520e-02 1.21700e-04 3.52700e-04 5.01650e-02 3.93910e-02 -1.95060e-04 2.48820e-02 1.20230e-04 3.35690e-04 4.89030e-02 4.68870e-02 1.12370e-03 2.59230e-02 1.34190e-04 3.39170e-04 4.98390e-02 6.38510e-02 3.77860e-03 2.81770e-02 1.65380e-04 3.62350e-04 5.30180e-02 3.34280e-02 -1.60540e-04 2.44240e-02 1.16380e-04 2.87200e-04 4.51310e-02 3.15630e-02 -1.50310e-04 2.41970e-02 1.15240e-04 2.71880e-04 4.38830e-02 2.97560e-02 -1.40690e-04 2.39350e-02 1.14170e-04 2.56970e-04 4.26420e-02 4.56110e-03 -3.34490e-03 2.06770e-02 6.87390e-05 1.95560e-04 3.56320e-02 2.41250e-02 -1.71040e-04 2.45630e-02 1.12190e-04 2.24270e-04 4.11220e-02 2.46840e-02 -1.15140e-04 2.29660e-02 1.11220e-04 2.14700e-04 3.89710e-02 2.31050e-02 -1.07660e-04 2.25880e-02 1.10300e-04 2.01410e-04 3.77690e-02 2.15810e-02 -1.00650e-04 2.21850e-02 1.09410e-04 1.88500e-04 3.65780e-02 2.01100e-02 -9.40970e-05 2.17590e-02 1.08540e-04 1.75990e-04 3.54010e-02 1.86920e-02 -8.79760e-05 2.13110e-02 1.07670e-04 1.63850e-04 3.42370e-02 1.73250e-02 -8.22690e-05 2.08450e-02 1.06810e-04 1.52090e-04 3.30870e-02 1.60100e-02 -7.69540e-05 2.03600e-02 1.05950e-04 1.40700e-04 3.19520e-02 1.63530e-02 -3.34590e-05 1.90850e-02 1.05950e-04 1.33300e-04 3.03460e-02 1.35290e-02 -6.74240e-05 1.93430e-02 1.04210e-04 1.18980e-04 2.97300e-02 1.23620e-02 -6.31720e-05 1.88130e-02 1.03320e-04 1.08650e-04 2.86430e-02 1.12430e-02 -5.92370e-05 1.82710e-02 1.02420e-04 9.86640e-05 2.75730e-02 1.01710e-02 -5.56030e-05 1.77190e-02 1.01490e-04 8.90110e-05 2.65200e-02 7.87520e-03 -8.53410e-05 1.76780e-02 9.91930e-05 7.63250e-05 2.57630e-02 8.16740e-03 -4.91700e-05 1.65860e-02 9.95740e-05 7.06820e-05 2.44680e-02 7.23430e-03 -4.63400e-05 1.60080e-02 9.85740e-05 6.19940e-05 2.34690e-02 6.34620e-03 -4.37480e-05 1.54250e-02 9.75430e-05 5.36150e-05 2.24890e-02 5.50260e-03 -4.13780e-05 1.48360e-02 9.64810e-05 4.55370e-05 2.15270e-02 4.70310e-03 -3.92180e-05 1.42430e-02 9.53850e-05 3.77550e-05 2.05830e-02 3.94720e-03 -3.72520e-05 1.36470e-02 9.42530e-05 3.02620e-05 1.96590e-02 3.23460e-03 -3.54690e-05 1.30500e-02 9.30830e-05 2.30500e-05 1.87540e-02 2.56480e-03 -3.38560e-05 1.24510e-02 9.18760e-05 1.61140e-05 1.78670e-02 1.93750e-03 -3.24010e-05 1.18510e-02 9.06280e-05 9.44710e-06 1.70000e-02 1.35230e-03 -3.10930e-05 1.12520e-02 8.93390e-05 3.04200e-06 1.61520e-02 8.08920e-04 -2.99210e-05 1.06550e-02 8.80090e-05 -3.10750e-06 1.53240e-02 8.89850e-04 -7.92450e-06 9.99270e-03 8.89260e-05 -6.27740e-06 1.45670e-02 -1.53450e-04 -2.79440e-05 9.46560e-03 8.52170e-05 -1.46660e-05 1.37240e-02 -5.72950e-04 -2.71220e-05 8.87540e-03 8.37520e-05 -2.00880e-05 1.29530e-02 -9.51630e-04 -2.64010e-05 8.28900e-03 8.22380e-05 -2.52810e-05 1.22020e-02 -1.28970e-03 -2.57730e-05 7.70690e-03 8.06700e-05 -3.02490e-05 1.14690e-02 -1.58730e-03 -2.52350e-05 7.12960e-03 7.90400e-05 -3.49990e-05 1.07560e-02 -1.84460e-03 -2.47820e-05 6.55750e-03 7.73360e-05 -3.95330e-05 1.00620e-02 -2.06190e-03 -2.44150e-05 5.99120e-03 7.55410e-05 -4.38540e-05 9.38720e-03 -2.23920e-03 -2.41340e-05 5.43100e-03 7.36270e-05 -4.79600e-05 8.73140e-03 -2.10080e-03 9.55260e-06 4.91310e-03 7.37700e-05 -5.37940e-05 8.21460e-03 -1.74650e-03 6.44490e-05 4.51870e-03 7.68440e-05 -5.77000e-05 7.87540e-03 -2.53350e-03 -2.38680e-05 3.79150e-03 6.66830e-05 -5.88800e-05 6.87760e-03 -2.55330e-03 -2.39920e-05 3.26010e-03 6.37070e-05 -6.19750e-05 6.29730e-03 -2.53480e-03 -2.42210e-05 2.73710e-03 6.02150e-05 -6.47220e-05 5.73580e-03 -2.47880e-03 -2.45170e-05 2.22320e-03 5.60720e-05 -6.70610e-05 5.19280e-03 -2.38180e-03 -3.19140e-05 1.52690e-03 4.70430e-05 -7.05580e-05 4.47040e-03 -2.26000e-03 -2.48080e-05 1.22610e-03 4.55280e-05 -7.02610e-05 4.16190e-03 -2.10170e-03 -2.41610e-05 7.45160e-04 3.94840e-05 -7.11240e-05 3.67340e-03 -1.91510e-03 -2.19080e-05 2.77750e-04 3.41140e-05 -7.18630e-05 3.20260e-03 -1.70500e-03 -1.71360e-05 -1.76460e-04 3.17480e-05 -7.35150e-05 2.74900e-03 -1.47580e-03 -8.41320e-06 -6.21130e-04 3.65360e-05 -7.88290e-05 2.31250e-03 -1.22970e-03 -6.30390e-06 -1.08190e-03 4.94340e-05 -9.48450e-05 1.89500e-03 -9.31050e-04 -7.36990e-05 -1.66290e-03 6.63940e-05 -1.30660e-04 1.50300e-03 -7.34540e-04 -1.30940e-04 -2.03530e-03 7.92140e-05 -1.66830e-04 1.31560e-03 1.68420e-01 9.23530e-02 9.25800e-02 -3.34260e-02 6.35750e-03 -4.78790e-02 1.85740e-01 4.65320e-02 4.39450e-02 -1.52570e-02 1.45040e-02 -1.04660e-02 1.91840e-01 4.71670e-03 -1.10300e-02 6.16910e-03 1.64270e-02 3.58260e-02 1.93400e-01 -4.98790e-04 -2.23860e-02 7.35520e-03 1.21780e-02 4.90960e-02 1.92040e-01 -6.42170e-04 -2.39920e-02 4.44640e-03 8.88500e-03 5.49520e-02 1.88080e-01 -4.36330e-04 -2.28830e-02 2.62730e-03 6.54930e-03 5.85150e-02 1.80050e-01 -4.22040e-04 -1.87980e-02 1.57110e-03 4.68900e-03 7.14600e-02 1.78120e-01 -3.52920e-04 -1.86440e-02 1.32930e-03 3.96880e-03 6.47750e-02 1.72830e-01 -3.74910e-04 -1.60430e-02 1.10040e-03 3.18490e-03 6.76180e-02 1.67560e-01 -4.22760e-04 -1.34340e-02 9.74090e-04 2.53450e-03 7.01120e-02 1.62290e-01 -4.70080e-04 -1.07260e-02 8.78800e-04 2.06490e-03 7.22290e-02 1.57130e-01 -4.57650e-04 -8.05800e-03 8.17970e-04 1.68250e-03 7.39430e-02 1.52030e-01 -4.86700e-04 -5.46560e-03 7.68750e-04 1.41090e-03 7.52660e-02 1.47080e-01 -4.56270e-04 -2.96430e-03 7.34680e-04 1.19770e-03 7.62530e-02 1.42230e-01 -4.67340e-04 -6.01080e-04 7.04740e-04 1.04950e-03 7.69350e-02 1.41580e-01 -2.46080e-04 -1.21550e-03 6.77150e-04 9.64760e-04 7.11890e-02 6.33890e-02 -1.01480e-02 -4.47350e-03 6.13690e-04 6.03560e-04 6.79340e-02 6.10470e-02 -9.64800e-03 -2.28130e-03 6.00270e-04 5.52750e-04 6.77250e-02 5.81670e-02 -9.61680e-03 -4.93300e-04 5.82020e-04 5.22120e-04 6.72920e-02 1.15750e-01 -5.18840e-04 1.23040e-02 5.90500e-04 7.12960e-04 8.25410e-02 1.15680e-01 -3.63280e-04 1.10140e-02 5.63770e-04 6.93210e-04 7.69190e-02 1.11610e-01 -3.41970e-04 1.25620e-02 5.40780e-04 6.70540e-04 7.64590e-02 1.07630e-01 -3.29330e-04 1.40070e-02 5.18120e-04 6.51200e-04 7.59060e-02 1.03730e-01 -3.10720e-04 1.53640e-02 4.96120e-04 6.33260e-04 7.52710e-02 9.99200e-02 -2.97710e-04 1.66280e-02 4.74850e-04 6.16560e-04 7.45580e-02 9.61950e-02 -2.81330e-04 1.78080e-02 4.54430e-04 6.00290e-04 7.37780e-02 1.40180e-01 6.86320e-03 2.91430e-02 4.54370e-04 7.32470e-04 8.79870e-02 3.48770e-02 -7.53630e-03 1.51850e-02 3.97180e-04 4.23600e-04 6.46580e-02 3.61860e-02 -7.28510e-03 1.34340e-02 3.77960e-04 4.15930e-04 6.00070e-02 3.43180e-02 -7.06400e-03 1.43880e-02 3.60570e-04 4.07450e-04 5.90610e-02 3.24750e-02 -6.86910e-03 1.52560e-02 3.43990e-04 3.98720e-04 5.80830e-02 3.07100e-02 -6.65960e-03 1.60660e-02 3.28160e-04 3.89570e-04 5.70890e-02 2.89820e-02 -6.46720e-03 1.68010e-02 3.13070e-04 3.80150e-04 5.60710e-02 3.03050e-02 -6.27370e-03 1.49520e-02 2.97920e-04 3.71560e-04 5.21890e-02 6.64280e-02 -1.75520e-04 2.48780e-02 3.08720e-04 4.58510e-04 6.44750e-02 6.35320e-02 -1.66040e-04 2.53070e-02 2.96060e-04 4.42890e-04 6.32670e-02 6.07160e-02 -1.57250e-04 2.56730e-02 2.83960e-04 4.27330e-04 6.20380e-02 5.79780e-02 -1.48680e-04 2.59770e-02 2.72390e-04 4.11880e-04 6.07900e-02 5.53180e-02 -1.40660e-04 2.62210e-02 2.61330e-04 3.96550e-04 5.95260e-02 5.27340e-02 -1.32910e-04 2.64090e-02 2.50740e-04 3.81360e-04 5.82500e-02 5.33540e-02 -5.19640e-05 2.45180e-02 2.41310e-04 3.69570e-04 5.50150e-02 4.77900e-02 -1.18610e-04 2.66220e-02 2.30930e-04 3.51460e-04 5.56680e-02 4.54280e-02 -1.11990e-04 2.66510e-02 2.21660e-04 3.36780e-04 5.43680e-02 4.31370e-02 -1.05670e-04 2.66320e-02 2.12800e-04 3.22310e-04 5.30630e-02 4.09160e-02 -9.96880e-05 2.65670e-02 2.04340e-04 3.08060e-04 5.17580e-02 3.87650e-02 -9.39850e-05 2.64590e-02 1.96240e-04 2.94040e-04 5.04520e-02 4.62310e-02 1.21280e-03 2.74340e-02 1.97630e-04 2.97330e-04 5.13560e-02 6.31730e-02 3.85010e-03 2.95960e-02 2.10970e-04 3.17390e-04 5.45160e-02 3.27100e-02 -7.86160e-05 2.58900e-02 1.74060e-04 2.53480e-04 4.65540e-02 3.08210e-02 -7.40150e-05 2.56270e-02 1.67330e-04 2.40490e-04 4.52660e-02 2.89940e-02 -6.96680e-05 2.53310e-02 1.60900e-04 2.27780e-04 4.39850e-02 3.76490e-03 -3.26840e-03 2.21010e-02 1.27310e-04 1.76390e-04 3.69070e-02 2.33260e-02 -1.14450e-04 2.58750e-02 1.47280e-04 1.99810e-04 4.23730e-02 2.38790e-02 -5.79910e-05 2.42600e-02 1.43330e-04 1.91380e-04 4.02010e-02 2.22920e-02 -5.45270e-05 2.38480e-02 1.38000e-04 1.79840e-04 3.89630e-02 2.07610e-02 -5.12590e-05 2.34130e-02 1.32920e-04 1.68600e-04 3.77370e-02 1.92870e-02 -4.81820e-05 2.29550e-02 1.28080e-04 1.57660e-04 3.65250e-02 1.78670e-02 -4.52840e-05 2.24770e-02 1.23470e-04 1.47020e-04 3.53280e-02 1.65020e-02 -4.25590e-05 2.19790e-02 1.19070e-04 1.36700e-04 3.41450e-02 1.51890e-02 -3.99970e-05 2.14640e-02 1.14880e-04 1.26670e-04 3.29780e-02 1.55350e-02 3.56500e-06 2.01710e-02 1.13050e-04 1.20240e-04 3.13530e-02 1.27200e-02 -3.53380e-05 2.03870e-02 1.07070e-04 1.07540e-04 3.06930e-02 1.15610e-02 -3.32250e-05 1.98280e-02 1.03440e-04 9.84280e-05 2.95760e-02 1.04520e-02 -3.12460e-05 1.92580e-02 9.99770e-05 8.96160e-05 2.84770e-02 9.39250e-03 -2.93960e-05 1.86770e-02 9.66760e-05 8.11010e-05 2.73950e-02 7.11540e-03 -6.23680e-05 1.85960e-02 9.10670e-05 6.97400e-05 2.65980e-02 7.41630e-03 -2.60550e-05 1.74880e-02 9.05270e-05 6.49530e-05 2.52870e-02 6.49880e-03 -2.45520e-05 1.68830e-02 8.76620e-05 5.73130e-05 2.42610e-02 5.62750e-03 -2.31520e-05 1.62720e-02 8.49290e-05 4.99570e-05 2.32530e-02 4.80190e-03 -2.18500e-05 1.56570e-02 8.23190e-05 4.28810e-05 2.22650e-02 4.02130e-03 -2.06410e-05 1.50370e-02 7.98270e-05 3.60810e-05 2.12950e-02 3.28540e-03 -1.95190e-05 1.44150e-02 7.74450e-05 2.95520e-05 2.03450e-02 2.59350e-03 -1.84790e-05 1.37910e-02 7.51680e-05 2.32890e-05 1.94150e-02 1.94520e-03 -1.75170e-05 1.31670e-02 7.29880e-05 1.72870e-05 1.85030e-02 1.34010e-03 -1.66280e-05 1.25410e-02 7.09010e-05 1.15410e-05 1.76120e-02 7.77840e-04 -1.58070e-05 1.19170e-02 6.89000e-05 6.04570e-06 1.67400e-02 2.57980e-04 -1.50510e-05 1.12940e-02 6.69790e-05 7.94760e-07 1.58870e-02 3.52640e-04 6.85340e-06 1.06170e-02 6.81840e-05 -1.50110e-06 1.51160e-02 -6.55770e-04 -1.37150e-05 1.00540e-02 6.33550e-05 -8.99620e-06 1.42400e-02 -1.05030e-03 -1.31300e-05 9.43840e-03 6.16400e-05 -1.35480e-05 1.34460e-02 -1.40360e-03 -1.25950e-05 8.82690e-03 5.99820e-05 -1.78790e-05 1.26710e-02 -1.71590e-03 -1.21080e-05 8.21960e-03 5.83720e-05 -2.19950e-05 1.19160e-02 -1.98750e-03 -1.16680e-05 7.61720e-03 5.68020e-05 -2.59010e-05 1.11800e-02 -2.21850e-03 -1.12710e-05 7.02010e-03 5.52580e-05 -2.96030e-05 1.04630e-02 -2.40930e-03 -1.09190e-05 6.42880e-03 5.37260e-05 -3.31020e-05 9.76600e-03 -2.55990e-03 -1.06110e-05 5.84350e-03 5.21810e-05 -3.64030e-05 9.08770e-03 -2.67070e-03 -1.03490e-05 5.26480e-03 5.05920e-05 -3.95010e-05 8.42850e-03 -2.59900e-03 1.40600e-06 4.84840e-03 5.25090e-05 -4.00600e-05 7.97630e-03 -2.77410e-03 -9.97160e-06 4.12870e-03 4.70910e-05 -4.50580e-05 7.16700e-03 -2.76760e-03 -9.85710e-06 3.57230e-03 4.50360e-05 -4.74810e-05 6.56460e-03 -2.72360e-03 -9.80070e-06 3.02440e-03 4.26440e-05 -4.96220e-05 5.98080e-03 -2.64330e-03 -9.77600e-06 2.48590e-03 3.97850e-05 -5.14330e-05 5.41570e-03 -2.51520e-03 -1.67920e-05 1.75540e-03 3.18630e-05 -5.47410e-05 4.66190e-03 -2.38300e-03 -9.70080e-06 1.44160e-03 3.21710e-05 -5.38090e-05 4.34080e-03 -2.21000e-03 -9.41960e-06 9.38810e-04 2.74570e-05 -5.42850e-05 3.83060e-03 -2.01430e-03 -8.62050e-06 4.50650e-04 2.29000e-05 -5.43620e-05 3.33820e-03 -1.80000e-03 -6.56680e-06 -2.34610e-05 2.04680e-05 -5.46850e-05 2.86330e-03 -1.56650e-03 -3.15260e-06 -4.91370e-04 2.46540e-05 -5.70020e-05 2.40570e-03 -1.30170e-03 3.57610e-06 -9.74770e-04 4.11790e-05 -6.74740e-05 1.96230e-03 -9.69300e-04 -3.49860e-05 -1.58120e-03 6.14910e-05 -1.03140e-04 1.53310e-03 -7.52830e-04 -7.24620e-05 -1.97090e-03 7.54950e-05 -1.46760e-04 1.32800e-03 1.74300e-01 7.81260e-02 7.98840e-02 -4.72140e-02 7.91410e-03 -7.23080e-02 1.80010e-01 2.85760e-02 2.72540e-02 -1.65990e-02 1.58630e-02 -3.60460e-02 1.78020e-01 1.57970e-04 -1.90360e-02 8.56480e-03 1.36410e-02 1.49980e-02 1.92960e-01 6.19730e-04 -2.26990e-02 5.11760e-03 9.65260e-03 3.62480e-02 1.94550e-01 -9.63080e-04 -2.53770e-02 3.71110e-03 7.00220e-03 4.70710e-02 1.92260e-01 -1.47230e-04 -2.26060e-02 1.78260e-03 5.47200e-03 5.37930e-02 1.83750e-01 3.93320e-04 -1.75880e-02 1.22890e-03 4.28700e-03 6.93330e-02 1.81710e-01 -2.06750e-04 -1.76420e-02 1.14070e-03 3.88830e-03 6.37480e-02 1.75990e-01 -3.12380e-04 -1.48820e-02 1.11630e-03 3.43540e-03 6.77250e-02 1.70480e-01 -2.54660e-04 -1.18520e-02 9.92980e-04 3.04410e-03 7.10620e-02 1.64880e-01 -3.13540e-04 -8.98800e-03 9.65930e-04 2.77070e-03 7.37450e-02 1.59480e-01 -2.68930e-04 -6.11140e-03 9.00630e-04 2.53110e-03 7.58430e-02 1.54110e-01 -2.98660e-04 -3.42690e-03 8.69260e-04 2.36500e-03 7.74030e-02 1.48950e-01 -2.62610e-04 -8.37010e-04 8.23640e-04 2.22120e-03 7.85310e-02 1.43890e-01 -2.76090e-04 1.55990e-03 7.91300e-04 2.12040e-03 7.92850e-02 1.43150e-01 -3.77410e-05 9.67930e-04 7.41850e-04 2.05250e-03 7.35520e-02 6.49270e-02 -9.76820e-03 -1.97560e-03 6.88410e-04 1.72410e-03 7.02880e-02 6.24200e-02 -9.29220e-03 1.83110e-04 6.56290e-04 1.67610e-03 7.00580e-02 5.94010e-02 -9.26720e-03 1.94020e-03 6.24570e-04 1.63750e-03 6.95970e-02 1.16620e-01 -3.77260e-04 1.44100e-02 6.15970e-04 1.80630e-03 8.48330e-02 1.16490e-01 -2.13100e-04 1.31010e-02 5.75650e-04 1.77470e-03 7.91850e-02 1.12310e-01 -2.00280e-04 1.46160e-02 5.40690e-04 1.73470e-03 7.86850e-02 1.08220e-01 -1.95190e-04 1.60280e-02 5.07610e-04 1.69670e-03 7.80910e-02 1.04230e-01 -1.84380e-04 1.73500e-02 4.74920e-04 1.65860e-03 7.74140e-02 1.00320e-01 -1.78410e-04 1.85790e-02 4.44110e-04 1.62110e-03 7.66590e-02 9.65060e-02 -1.69020e-04 1.97240e-02 4.14160e-04 1.58340e-03 7.58360e-02 1.40220e-01 6.80590e-03 3.07920e-02 4.03340e-04 1.68730e-03 9.00120e-02 3.51120e-02 -7.31690e-03 1.72130e-02 3.42440e-04 1.35700e-03 6.65890e-02 3.63830e-02 -7.05480e-03 1.54470e-02 3.15110e-04 1.33270e-03 6.19130e-02 3.44370e-02 -6.84220e-03 1.63610e-02 2.90400e-04 1.30140e-03 6.09260e-02 3.25180e-02 -6.65740e-03 1.71880e-02 2.67400e-04 1.26980e-03 5.99060e-02 3.06840e-02 -6.45590e-03 1.79600e-02 2.45360e-04 1.23800e-03 5.88710e-02 2.88880e-02 -6.27280e-03 1.86550e-02 2.24820e-04 1.20590e-03 5.78120e-02 3.01800e-02 -6.07380e-03 1.67860e-02 2.03990e-04 1.18130e-03 5.39070e-02 6.61010e-02 -1.10710e-04 2.64950e-02 2.07870e-04 1.24330e-03 6.61540e-02 6.31540e-02 -1.05230e-04 2.68930e-02 1.90990e-04 1.20590e-03 6.49060e-02 6.02910e-02 -1.00230e-04 2.72270e-02 1.75220e-04 1.16870e-03 6.36360e-02 5.75090e-02 -9.52560e-05 2.75000e-02 1.60400e-04 1.13190e-03 6.23490e-02 5.48090e-02 -9.06490e-05 2.77140e-02 1.46580e-04 1.09530e-03 6.10470e-02 5.21890e-02 -8.61260e-05 2.78710e-02 1.33650e-04 1.05910e-03 5.97320e-02 5.27900e-02 -2.73270e-06 2.59620e-02 1.21800e-04 1.03270e-03 5.64760e-02 4.71820e-02 -7.77850e-05 2.80240e-02 1.10430e-04 9.87740e-04 5.70760e-02 4.47920e-02 -7.39160e-05 2.80230e-02 1.00060e-04 9.52710e-04 5.57400e-02 4.24770e-02 -7.01780e-05 2.79760e-02 9.04530e-05 9.18150e-04 5.44000e-02 4.02350e-02 -6.66470e-05 2.78820e-02 8.15930e-05 8.84060e-04 5.30590e-02 3.80640e-02 -6.32510e-05 2.77450e-02 7.34290e-05 8.50480e-04 5.17200e-02 4.54960e-02 1.21890e-03 2.86640e-02 7.35030e-05 8.38530e-04 5.25980e-02 6.23850e-02 3.80870e-03 3.07420e-02 8.46140e-05 8.47700e-04 5.57390e-02 3.19670e-02 -5.40360e-05 2.70930e-02 5.28650e-05 7.52940e-04 4.77230e-02 3.00690e-02 -5.12470e-05 2.68030e-02 4.72070e-05 7.21560e-04 4.64030e-02 2.82350e-02 -4.86010e-05 2.64790e-02 4.21020e-05 6.90760e-04 4.50910e-02 3.04400e-03 -3.19500e-03 2.32870e-02 1.47580e-05 6.10040e-04 3.79640e-02 2.25560e-02 -9.91200e-05 2.69600e-02 3.26960e-05 6.22040e-04 4.34070e-02 2.31090e-02 -4.14080e-05 2.53290e-02 2.97920e-05 6.02010e-04 4.12180e-02 2.15220e-02 -3.92490e-05 2.48930e-02 2.66010e-05 5.73680e-04 3.99510e-02 1.99930e-02 -3.71980e-05 2.44320e-02 2.38200e-05 5.45980e-04 3.86980e-02 1.85220e-02 -3.52540e-05 2.39490e-02 2.14260e-05 5.18920e-04 3.74580e-02 1.71070e-02 -3.34110e-05 2.34460e-02 1.93920e-05 4.92500e-04 3.62340e-02 1.57480e-02 -3.16660e-05 2.29240e-02 1.76970e-05 4.66740e-04 3.50250e-02 1.44430e-02 -3.00120e-05 2.23850e-02 1.63150e-05 4.41630e-04 3.38320e-02 1.47930e-02 1.41360e-05 2.10780e-02 1.64560e-05 4.25260e-04 3.21930e-02 1.19920e-02 -2.69700e-05 2.12600e-02 1.44060e-05 3.93380e-04 3.14970e-02 1.08440e-02 -2.55740e-05 2.06780e-02 1.38370e-05 3.70240e-04 3.03560e-02 9.74730e-03 -2.42540e-05 2.00840e-02 1.34960e-05 3.47750e-04 2.92320e-02 8.70030e-03 -2.30100e-05 1.94800e-02 1.33640e-05 3.25930e-04 2.81270e-02 6.44310e-03 -5.74260e-05 1.93670e-02 1.18410e-05 2.97310e-04 2.72960e-02 6.75280e-03 -2.07320e-05 1.82460e-02 1.36550e-05 2.84230e-04 2.59720e-02 5.85090e-03 -1.96920e-05 1.76180e-02 1.40410e-05 2.64370e-04 2.49230e-02 4.99590e-03 -1.87130e-05 1.69850e-02 1.45650e-05 2.45150e-04 2.38940e-02 4.18730e-03 -1.77930e-05 1.63470e-02 1.52110e-05 2.26570e-04 2.28830e-02 3.42440e-03 -1.69300e-05 1.57050e-02 1.59630e-05 2.08640e-04 2.18920e-02 2.70660e-03 -1.61190e-05 1.50610e-02 1.68050e-05 1.91340e-04 2.09210e-02 2.03350e-03 -1.53590e-05 1.44160e-02 1.77230e-05 1.74680e-04 1.99690e-02 1.40450e-03 -1.46480e-05 1.37690e-02 1.87030e-05 1.58650e-04 1.90370e-02 8.19150e-04 -1.39820e-05 1.31220e-02 1.97300e-05 1.43240e-04 1.81250e-02 2.77030e-04 -1.33590e-05 1.24760e-02 2.07930e-05 1.28450e-04 1.72320e-02 -2.22290e-04 -1.27790e-05 1.18310e-02 2.18770e-05 1.14270e-04 1.63600e-02 -1.15630e-04 9.12120e-06 1.11420e-02 2.54620e-05 1.06390e-04 1.55770e-02 -1.09400e-03 -1.17330e-05 1.05480e-02 2.40610e-05 8.77370e-05 1.46730e-02 -1.46700e-03 -1.12660e-05 9.91160e-03 2.51370e-05 7.53680e-05 1.38590e-02 -1.79860e-03 -1.08320e-05 9.27870e-03 2.61860e-05 6.35910e-05 1.30650e-02 -2.08900e-03 -1.04320e-05 8.65020e-03 2.71960e-05 5.23980e-05 1.22900e-02 -2.33840e-03 -1.00640e-05 8.02640e-03 2.81540e-05 4.17850e-05 1.15350e-02 -2.54720e-03 -9.72700e-06 7.40800e-03 2.90460e-05 3.17460e-05 1.07990e-02 -2.71540e-03 -9.42170e-06 6.79520e-03 2.98550e-05 2.22770e-05 1.00830e-02 -2.84340e-03 -9.14690e-06 6.18860e-03 3.05610e-05 1.33730e-05 9.38570e-03 -2.93150e-03 -8.90220e-06 5.58840e-03 3.11400e-05 5.03570e-06 8.70750e-03 -2.84670e-03 2.81130e-06 5.15940e-03 3.49550e-05 1.39170e-06 8.24430e-03 -2.98930e-03 -8.50380e-06 4.40910e-03 3.17680e-05 -9.93800e-06 7.40810e-03 -2.96020e-03 -8.34840e-06 3.83100e-03 3.17110e-05 -1.65590e-05 6.78680e-03 -2.89370e-03 -8.19980e-06 3.26150e-03 3.13210e-05 -2.25710e-05 6.18410e-03 -2.79170e-03 -8.06490e-06 2.70130e-03 3.04710e-05 -2.79600e-05 5.60010e-03 -2.63480e-03 -1.46270e-05 1.94080e-03 2.48470e-05 -3.58250e-05 4.81920e-03 -2.49280e-03 -7.56070e-06 1.61520e-03 2.70180e-05 -3.66490e-05 4.48720e-03 -2.30530e-03 -6.82980e-06 1.09330e-03 2.44340e-05 -3.98150e-05 3.95800e-03 -2.10160e-03 -5.79630e-06 5.88080e-04 2.14890e-05 -4.23140e-05 3.44680e-03 -1.88700e-03 -2.99760e-06 1.01520e-04 2.02770e-05 -4.41250e-05 2.95340e-03 -1.66220e-03 -1.50410e-07 -3.75360e-04 2.32640e-05 -4.69660e-05 2.47830e-03 -1.39910e-03 8.57350e-06 -8.60390e-04 4.13280e-05 -5.30410e-05 2.01950e-03 -1.03830e-03 -1.37420e-05 -1.47390e-03 6.54100e-05 -8.36750e-05 1.56490e-03 -7.96090e-04 -4.02890e-05 -1.87480e-03 8.14790e-05 -1.27340e-04 1.34490e-03 6.02720e-02 4.64370e-02 4.36450e-02 -3.69460e-03 -6.41400e-03 -8.22140e-02 4.39280e-02 1.97280e-02 6.19340e-03 -4.42490e-03 -1.55360e-02 -4.45960e-02 5.37330e-02 1.02650e-02 -1.21980e-02 -5.32930e-03 -1.46740e-02 8.93620e-03 6.64990e-02 1.16030e-02 -1.46160e-02 -3.62840e-03 -1.04170e-02 3.18050e-02 -1.64950e-02 -2.07740e-03 -2.02350e-02 -5.05780e-04 -6.51190e-03 4.79590e-02 -1.63400e-02 -5.70890e-04 -1.98100e-02 -8.55790e-04 -5.46110e-03 4.29650e-02 -1.69390e-02 -2.41910e-04 -1.85310e-02 -5.12780e-04 -4.32660e-03 4.62280e-02 -1.87300e-02 -3.66730e-04 -1.72280e-02 -5.98810e-04 -3.58940e-03 4.88180e-02 -2.06610e-02 -2.70430e-04 -1.51500e-02 -5.19680e-04 -3.02330e-03 5.07900e-02 -2.28210e-02 -3.00190e-04 -1.29430e-02 -5.83230e-04 -2.63030e-03 5.22220e-02 -2.47810e-02 -2.62310e-04 -1.05450e-02 -5.79270e-04 -2.30580e-03 5.30930e-02 -2.65410e-02 -2.60470e-04 -8.19900e-03 -6.20390e-04 -2.08660e-03 5.34970e-02 -2.79880e-02 -2.42340e-04 -5.92920e-03 -6.27410e-04 -1.90680e-03 5.35170e-02 -2.91530e-02 -2.33180e-04 -3.79580e-03 -6.42730e-04 -1.78900e-03 5.32460e-02 -5.27980e-02 -3.97620e-03 -5.87820e-03 -6.29550e-04 -1.62120e-03 4.72690e-02 -9.89790e-02 -1.14800e-02 -1.21060e-02 -6.03000e-04 -1.41570e-03 3.56360e-02 -9.73030e-02 -9.38560e-03 -5.89160e-03 -6.05550e-04 -1.35210e-03 4.01960e-02 -3.37490e-02 -2.73970e-04 6.14620e-03 -6.04380e-04 -1.52720e-03 5.59960e-02 -3.18160e-02 -1.90690e-04 4.75820e-03 -5.61940e-04 -1.50140e-03 4.98030e-02 -3.19750e-02 -1.82370e-04 6.11320e-03 -5.31830e-04 -1.47290e-03 4.89480e-02 -3.20730e-02 -1.75930e-04 7.37130e-03 -4.99710e-04 -1.44510e-03 4.80800e-02 -3.21200e-02 -1.68060e-04 8.54630e-03 -4.67060e-04 -1.41950e-03 4.72020e-02 -3.21300e-02 -1.61510e-04 9.64050e-03 -4.34400e-04 -1.39350e-03 4.63200e-02 -3.21070e-02 -1.54040e-04 1.06630e-02 -4.02300e-04 -1.36790e-03 4.54350e-02 -3.20590e-02 -1.47500e-04 1.16150e-02 -3.71150e-04 -1.34160e-03 4.45520e-02 -3.19850e-02 -1.40460e-04 1.25030e-02 -3.41110e-04 -1.31500e-03 4.36710e-02 1.54100e-02 7.08510e-03 2.38480e-02 -3.16090e-04 -1.41580e-03 5.91120e-02 -8.18910e-02 -7.08520e-03 9.22400e-03 -2.86800e-04 -1.12540e-03 3.31890e-02 -7.88130e-02 -7.02370e-03 7.15470e-03 -2.56130e-04 -1.10840e-03 2.86780e-02 -7.72380e-02 -6.84370e-03 7.85220e-03 -2.30780e-04 -1.08580e-03 2.78910e-02 -7.56350e-02 -6.64160e-03 8.51850e-03 -2.06650e-04 -1.06240e-03 2.71370e-02 -7.40670e-02 -6.46150e-03 9.12910e-03 -1.83970e-04 -1.03860e-03 2.64030e-02 -7.24860e-02 -6.26880e-03 9.70640e-03 -1.62480e-04 -1.01420e-03 2.56980e-02 -6.94810e-02 -6.18160e-03 7.69450e-03 -1.37980e-04 -9.95450e-04 2.20400e-02 1.11690e-02 5.85560e-03 2.28410e-02 -1.36410e-04 -1.15640e-03 4.49160e-02 -3.01590e-02 -8.37710e-05 1.83230e-02 -1.14210e-04 -1.02600e-03 3.52040e-02 -2.98810e-02 -7.92590e-05 1.86400e-02 -9.82760e-05 -9.95960e-04 3.44090e-02 -2.95890e-02 -7.49110e-05 1.89160e-02 -8.34040e-05 -9.65920e-04 3.36250e-02 -2.92830e-02 -7.07760e-05 1.91510e-02 -6.95540e-05 -9.35950e-04 3.28530e-02 -2.89630e-02 -6.68060e-05 1.93480e-02 -5.66870e-05 -9.06060e-04 3.20920e-02 -2.86310e-02 -6.30270e-05 1.95080e-02 -4.47640e-05 -8.76310e-04 3.13430e-02 -2.65260e-02 -3.42550e-05 1.76150e-02 -2.99090e-05 -8.54140e-04 2.85340e-02 -1.77230e-02 1.42180e-03 2.11450e-02 -2.64570e-05 -8.39620e-04 3.25250e-02 7.79910e-04 4.29630e-03 2.59510e-02 -2.82470e-05 -8.45600e-04 3.89330e-02 1.01800e-04 4.14840e-03 2.58340e-02 -2.02450e-05 -8.13760e-04 3.79880e-02 1.50220e-03 4.11470e-03 2.40010e-02 -1.02500e-05 -7.90650e-04 3.54320e-02 -1.83450e-02 1.28050e-03 2.22780e-02 2.20410e-06 -7.16830e-04 3.06920e-02 -2.60130e-02 -4.10050e-05 1.97040e-02 1.52460e-05 -6.74750e-04 2.64400e-02 -2.56030e-02 -3.84340e-05 1.96160e-02 2.08800e-05 -6.47280e-04 2.57860e-02 -2.51870e-02 -3.59900e-05 1.95030e-02 2.58760e-05 -6.20210e-04 2.51440e-02 -4.71280e-02 -3.31640e-03 1.58150e-02 4.20670e-05 -5.48490e-04 1.79730e-02 -3.17530e-02 -1.13510e-03 1.79920e-02 3.89000e-05 -5.52430e-04 2.17050e-02 -5.79050e-03 2.96560e-03 2.50620e-02 1.79440e-05 -5.69020e-04 3.18490e-02 -1.74220e-02 9.80500e-04 2.08210e-02 3.27930e-05 -5.25530e-04 2.55050e-02 -2.30110e-02 -2.55380e-05 1.85950e-02 4.23830e-05 -4.91600e-04 2.20970e-02 -2.25610e-02 -2.37690e-05 1.83530e-02 4.41940e-05 -4.67330e-04 2.15180e-02 -2.21050e-02 -2.20970e-05 1.80920e-02 4.55730e-05 -4.43570e-04 2.09480e-02 -1.62100e-02 7.85080e-04 1.87550e-02 4.22520e-05 -4.30900e-04 2.21140e-02 -4.97170e-03 2.42200e-03 2.04210e-02 3.16500e-05 -4.29530e-04 2.50300e-02 -2.07150e-02 -1.76270e-05 1.72110e-02 4.73820e-05 -3.75470e-04 1.92930e-02 -2.02450e-02 -1.63070e-05 1.68860e-02 4.72920e-05 -3.53860e-04 1.87580e-02 -1.97720e-02 -1.50640e-05 1.65480e-02 4.68950e-05 -3.32800e-04 1.82320e-02 -1.92960e-02 -1.38970e-05 1.61970e-02 4.62140e-05 -3.12290e-04 1.77120e-02 -1.88170e-02 -1.28010e-05 1.58340e-02 4.52710e-05 -2.92350e-04 1.72000e-02 -1.89580e-02 -1.73350e-05 1.61380e-02 4.12330e-05 -2.67670e-04 1.72520e-02 -1.78520e-02 -1.08120e-05 1.50720e-02 4.26820e-05 -2.54160e-04 1.61970e-02 -1.73660e-02 -9.91240e-06 1.46760e-02 4.10770e-05 -2.35920e-04 1.57040e-02 -1.68790e-02 -9.07220e-06 1.42700e-02 3.92910e-05 -2.18250e-04 1.52180e-02 -1.63900e-02 -8.28750e-06 1.38550e-02 3.73420e-05 -2.01150e-04 1.47370e-02 -1.58990e-02 -7.55620e-06 1.34310e-02 3.52480e-05 -1.84620e-04 1.42610e-02 -1.54060e-02 -6.87590e-06 1.29990e-02 3.30260e-05 -1.68660e-04 1.37910e-02 -1.49130e-02 -6.24310e-06 1.25600e-02 3.06930e-05 -1.53270e-04 1.33250e-02 -1.44180e-02 -5.65580e-06 1.21150e-02 2.82650e-05 -1.38450e-04 1.28630e-02 -1.39210e-02 -5.11150e-06 1.16620e-02 2.57580e-05 -1.24200e-04 1.24060e-02 -1.51920e-02 -2.91420e-04 1.06570e-02 2.79180e-05 -1.08820e-04 1.10840e-02 -1.82370e-02 -8.79650e-04 9.12100e-03 3.70620e-05 -9.12610e-05 8.94950e-03 -7.17970e-03 8.07780e-04 1.13900e-02 5.77530e-06 -9.77620e-05 1.31420e-02 -1.19280e-02 -3.31310e-06 9.79940e-03 1.52230e-05 -7.28090e-05 1.06100e-02 -7.55390e-03 6.07390e-04 1.03870e-02 4.18540e-07 -6.48590e-05 1.20310e-02 -9.63320e-03 2.05050e-04 9.18940e-03 5.04640e-06 -5.19900e-05 1.03360e-02 -1.04250e-02 -2.30520e-06 8.35680e-03 7.16850e-06 -4.00880e-05 9.29340e-03 -9.92270e-03 -2.02410e-06 7.86930e-03 4.52120e-06 -3.02720e-05 8.85870e-03 -8.52830e-03 1.32930e-04 7.57340e-03 -4.01860e-07 -2.35900e-05 8.84430e-03 -6.38200e-03 3.84400e-04 7.43010e-03 -9.95230e-06 -1.76210e-05 9.17570e-03 -6.15000e-03 3.40370e-04 6.85530e-03 -1.19270e-05 -9.03320e-06 8.63320e-03 -5.90120e-03 2.98990e-04 6.28330e-03 -1.38120e-05 -9.97660e-07 8.09870e-03 -5.63570e-03 2.60270e-04 5.71450e-03 -1.55910e-05 6.48290e-06 7.57190e-03 -5.36710e-03 2.45580e-04 5.29510e-03 -1.76670e-05 1.07450e-05 7.18660e-03 -7.96700e-03 -2.11570e-04 4.30030e-03 -3.24610e-06 2.56550e-05 5.24390e-03 -5.89740e-03 -5.30610e-07 3.89520e-03 -1.41380e-05 2.85710e-05 5.43140e-03 -5.39570e-03 -4.20210e-07 3.39480e-03 -1.58830e-05 3.32620e-05 5.00840e-03 -4.89590e-03 -3.23400e-07 2.89590e-03 -1.73920e-05 3.72180e-05 4.58750e-03 -4.39940e-03 -2.40570e-07 2.39980e-03 -1.86150e-05 4.03530e-05 4.16960e-03 -3.90820e-03 -1.72580e-07 1.90880e-03 -1.94970e-05 4.25770e-05 3.75630e-03 -3.23200e-03 -1.05350e-07 1.23260e-03 -2.02310e-05 4.41450e-05 3.18770e-03 -2.95310e-03 -7.98710e-08 9.53640e-04 -2.03020e-05 4.45410e-05 2.95300e-03 -2.49450e-03 -5.95680e-08 4.94930e-04 -2.07970e-05 4.55780e-05 2.56720e-03 -2.04580e-03 -4.84060e-08 4.62020e-05 -2.28370e-05 4.98860e-05 2.18960e-03 -1.58830e-03 -6.26930e-08 -4.11360e-04 -2.96660e-05 6.45260e-05 1.80440e-03 -1.05190e-03 1.45440e-08 -9.47710e-04 -4.86060e-05 1.05170e-04 1.35220e-03 -7.34470e-04 1.31930e-07 -1.26510e-03 -7.12290e-05 1.53740e-04 1.08440e-03 7.33590e-02 5.57830e-02 5.26310e-02 -2.93810e-03 -5.76930e-03 -5.74570e-02 5.29130e-02 2.44140e-02 1.26080e-02 -5.76060e-03 -1.49560e-02 -1.90780e-02 5.47010e-02 1.20710e-02 -8.88550e-03 -7.74030e-03 -1.80040e-02 2.92630e-02 6.15540e-02 1.16370e-02 -1.38510e-02 -5.22700e-03 -1.34290e-02 4.41850e-02 -2.46250e-02 -4.53700e-04 -1.96690e-02 -5.51620e-04 -8.29860e-03 5.37900e-02 -2.38490e-02 -2.82280e-04 -2.03850e-02 -7.31380e-04 -6.59250e-03 4.70450e-02 -2.37220e-02 -1.80490e-04 -1.98050e-02 -3.66350e-04 -4.81710e-03 4.83020e-02 -2.44280e-02 -2.31890e-04 -1.86210e-02 -2.34540e-04 -3.56350e-03 4.94280e-02 -2.55950e-02 -2.81340e-04 -1.70090e-02 -2.00510e-04 -2.63900e-03 5.03600e-02 -2.69320e-02 -3.21180e-04 -1.49930e-02 -2.33220e-04 -1.95850e-03 5.10520e-02 -2.82780e-02 -3.62600e-04 -1.28560e-02 -2.86020e-04 -1.43570e-03 5.14420e-02 -2.94710e-02 -3.74880e-04 -1.06230e-02 -3.52630e-04 -1.06400e-03 5.15350e-02 -3.04930e-02 -3.94850e-04 -8.46540e-03 -4.12970e-04 -7.86850e-04 5.13780e-02 -3.12940e-02 -3.91900e-04 -6.36710e-03 -4.64880e-04 -6.00370e-04 5.10080e-02 -5.46500e-02 -4.11630e-03 -8.51080e-03 -4.87260e-04 -3.76420e-04 4.50190e-02 -1.00550e-01 -1.15280e-02 -1.47690e-02 -4.79740e-04 -1.06280e-04 3.34100e-02 -9.85750e-02 -9.42720e-03 -8.52240e-03 -5.33640e-04 -4.19690e-05 3.79940e-02 -3.49570e-02 -4.35040e-04 3.62390e-03 -5.57730e-04 -2.86990e-04 5.37580e-02 -3.29500e-02 -3.56920e-04 2.26470e-03 -5.34530e-04 -2.73340e-04 4.75870e-02 -3.29790e-02 -3.41770e-04 3.66290e-03 -5.22120e-04 -2.63100e-04 4.67670e-02 -3.29600e-02 -3.29370e-04 4.96450e-03 -5.05620e-04 -2.57550e-04 4.59350e-02 -3.28960e-02 -3.14270e-04 6.18470e-03 -4.86410e-04 -2.55900e-04 4.50950e-02 -3.28010e-02 -3.01140e-04 7.32370e-03 -4.65760e-04 -2.55540e-04 4.42520e-02 -3.26780e-02 -2.86720e-04 8.39110e-03 -4.44410e-04 -2.56180e-04 4.34070e-02 -3.25330e-02 -2.73760e-04 9.38780e-03 -4.23040e-04 -2.56760e-04 4.25630e-02 -3.23660e-02 -2.60310e-04 1.03200e-02 -4.01980e-04 -2.57190e-04 4.17210e-02 1.50290e-02 6.88230e-03 2.17570e-02 -3.73470e-04 -4.27610e-04 5.71470e-02 -8.19550e-02 -7.10350e-03 7.09200e-03 -3.73850e-04 -9.71120e-05 3.14060e-02 -7.88300e-02 -7.04110e-03 5.05810e-03 -3.50930e-04 -1.00290e-04 2.69190e-02 -7.71800e-02 -6.85760e-03 5.79930e-03 -3.31630e-04 -1.06230e-04 2.61710e-02 -7.55100e-02 -6.65430e-03 6.50740e-03 -3.13140e-04 -1.11100e-04 2.54550e-02 -7.38750e-02 -6.47120e-03 7.16070e-03 -2.95440e-04 -1.15160e-04 2.47600e-02 -7.22340e-02 -6.27720e-03 7.77900e-03 -2.78490e-04 -1.18310e-04 2.40930e-02 -6.91940e-02 -6.19170e-03 5.79610e-03 -2.59290e-04 -1.18530e-04 2.04580e-02 1.13280e-02 5.70520e-03 2.10500e-02 -2.42710e-04 -3.50330e-04 4.32420e-02 -2.98330e-02 -1.54110e-04 1.65500e-02 -2.32090e-04 -2.30500e-04 3.36480e-02 -2.95060e-02 -1.45760e-04 1.69060e-02 -2.19040e-04 -2.25110e-04 3.28900e-02 -2.91680e-02 -1.37750e-04 1.72190e-02 -2.06600e-04 -2.19370e-04 3.21430e-02 -2.88190e-02 -1.30110e-04 1.74920e-02 -1.94740e-04 -2.13310e-04 3.14070e-02 -2.84600e-02 -1.22790e-04 1.77260e-02 -1.83450e-04 -2.06970e-04 3.06830e-02 -2.80920e-02 -1.15800e-04 1.79220e-02 -1.72710e-04 -2.00390e-04 2.99690e-02 -2.59690e-02 -8.97730e-05 1.60520e-02 -1.60060e-04 -1.94110e-04 2.71800e-02 -2.29580e-02 5.19640e-04 1.86950e-02 -9.84480e-05 -2.94200e-04 2.96120e-02 -9.72540e-03 2.46200e-03 2.14440e-02 -7.14270e-05 -3.54970e-04 3.32020e-02 6.91450e-04 4.05820e-03 2.44110e-02 -1.43660e-04 -2.37030e-04 3.66980e-02 2.10470e-03 4.02290e-03 2.25970e-02 -1.34680e-04 -2.28090e-04 3.41620e-02 -1.76670e-02 1.23030e-03 2.09130e-02 -1.23230e-04 -1.76800e-04 2.95040e-02 -2.53010e-02 -7.50790e-05 1.83610e-02 -1.11430e-04 -1.49950e-04 2.52950e-02 -2.48770e-02 -7.03220e-05 1.83060e-02 -1.04480e-04 -1.42440e-04 2.46720e-02 -2.44480e-02 -6.58030e-05 1.82250e-02 -9.79380e-05 -1.34920e-04 2.40600e-02 -4.63220e-02 -3.30220e-03 1.45680e-02 -8.21750e-05 -8.21390e-05 1.69710e-02 -3.09780e-02 -1.14720e-03 1.67780e-02 -8.20340e-05 -1.04980e-04 2.06960e-02 -5.07440e-03 2.90910e-03 2.39030e-02 -9.51060e-05 -1.50610e-04 3.08230e-02 -1.66710e-02 9.47210e-04 1.96760e-02 -8.11420e-05 -1.17750e-04 2.45250e-02 -2.22420e-02 -4.64850e-05 1.74730e-02 -7.08490e-05 -9.78490e-05 2.11530e-02 -2.17900e-02 -4.32200e-05 1.72600e-02 -6.64550e-05 -9.06430e-05 2.06000e-02 -2.13360e-02 -4.01370e-05 1.70280e-02 -6.23700e-05 -8.35390e-05 2.00570e-02 -1.54570e-02 7.58000e-04 1.77190e-02 -6.26110e-05 -8.64240e-05 2.12330e-02 -4.24930e-03 2.37580e-03 1.94100e-02 -6.94460e-05 -9.93930e-05 2.41470e-02 -1.99570e-02 -3.19060e-05 1.62330e-02 -5.18410e-05 -6.29280e-05 1.84770e-02 -1.94930e-02 -2.94790e-05 1.59360e-02 -4.88630e-05 -5.63220e-05 1.79660e-02 -1.90270e-02 -2.71970e-05 1.56260e-02 -4.61310e-05 -4.98620e-05 1.74630e-02 -1.85600e-02 -2.50570e-05 1.53010e-02 -4.36340e-05 -4.35520e-05 1.69670e-02 -1.80910e-02 -2.30500e-05 1.49650e-02 -4.13590e-05 -3.74000e-05 1.64780e-02 -1.82480e-02 -2.53590e-05 1.53070e-02 -4.06770e-05 -3.03250e-05 1.65620e-02 -1.71490e-02 -1.94120e-05 1.42560e-02 -3.74320e-05 -2.55860e-05 1.55190e-02 -1.66760e-02 -1.77700e-05 1.38860e-02 -3.57580e-05 -1.99320e-05 1.50490e-02 -1.62030e-02 -1.62390e-05 1.35050e-02 -3.42640e-05 -1.44510e-05 1.45840e-02 -1.57280e-02 -1.48120e-05 1.31150e-02 -3.29400e-05 -9.14700e-06 1.41250e-02 -1.52520e-02 -1.34840e-05 1.27170e-02 -3.17760e-05 -4.02070e-06 1.36700e-02 -1.47760e-02 -1.22510e-05 1.23100e-02 -3.07620e-05 9.25980e-07 1.32200e-02 -1.42990e-02 -1.11060e-05 1.18960e-02 -2.98910e-05 5.69190e-06 1.27750e-02 -1.38210e-02 -1.00460e-05 1.14750e-02 -2.91520e-05 1.02760e-05 1.23340e-02 -1.33430e-02 -9.06490e-06 1.10470e-02 -2.85370e-05 1.46790e-05 1.18960e-02 -1.46200e-02 -2.91000e-04 1.00630e-02 -2.39070e-05 2.16250e-05 1.05960e-02 -1.76600e-02 -8.71010e-04 8.54820e-03 -1.32560e-05 3.18790e-05 8.48650e-03 -6.67700e-03 7.92880e-04 1.08300e-02 -3.96950e-05 1.67510e-05 1.26690e-02 -1.14250e-02 -5.84500e-06 9.27920e-03 -2.71570e-05 3.04780e-05 1.01800e-02 -7.10610e-03 5.95630e-04 9.89330e-03 -3.76890e-05 2.79930e-05 1.16150e-02 -9.18300e-03 1.99920e-04 8.71700e-03 -3.12120e-05 3.50310e-05 9.94230e-03 -9.98390e-03 -4.05720e-06 7.90660e-03 -2.70390e-05 4.04560e-05 8.92030e-03 -9.50290e-03 -3.56170e-06 7.44220e-03 -2.71360e-05 4.34330e-05 8.50460e-03 -8.13480e-03 1.28950e-04 7.16340e-03 -2.98020e-05 4.43670e-05 8.50300e-03 -6.02870e-03 3.75830e-04 7.04060e-03 -3.63550e-05 4.36960e-05 8.84980e-03 -5.81800e-03 3.32400e-04 6.48830e-03 -3.60960e-05 4.65390e-05 8.32660e-03 -5.59080e-03 2.91590e-04 5.93890e-03 -3.58450e-05 4.91820e-05 7.81130e-03 -5.34700e-03 2.53380e-04 5.39260e-03 -3.55820e-05 5.16150e-05 7.30370e-03 -5.09120e-03 2.38910e-04 4.98630e-03 -3.62070e-05 5.27460e-05 6.92950e-03 -7.66870e-03 -2.06640e-04 4.03380e-03 -2.10480e-05 6.25710e-05 5.02120e-03 -5.65310e-03 -9.65880e-07 3.65110e-03 -2.89680e-05 6.02740e-05 5.22780e-03 -5.17370e-03 -7.76140e-07 3.17330e-03 -2.90410e-05 6.11220e-05 4.82350e-03 -4.69610e-03 -6.09860e-07 2.69660e-03 -2.89520e-05 6.14640e-05 4.42100e-03 -4.22130e-03 -4.66220e-07 2.22230e-03 -2.86390e-05 6.11890e-05 4.02110e-03 -3.75090e-03 -3.45440e-07 1.75200e-03 -2.80460e-05 6.01870e-05 3.62500e-03 -3.10110e-03 -2.11160e-07 1.10210e-03 -2.69440e-05 5.78370e-05 3.07810e-03 -2.83060e-03 -1.69160e-07 8.31490e-04 -2.62670e-05 5.66140e-05 2.85040e-03 -2.38350e-03 -1.16890e-07 3.84170e-04 -2.60100e-05 5.60840e-05 2.47400e-03 -1.94150e-03 -8.66560e-08 -5.79840e-05 -2.81760e-05 6.07390e-05 2.10190e-03 -1.48980e-03 -9.92360e-08 -5.09830e-04 -3.66460e-05 7.89840e-05 1.72140e-03 -9.77160e-04 -2.37910e-08 -1.02250e-03 -5.68740e-05 1.22540e-04 1.28910e-03 -6.79240e-04 8.78700e-08 -1.32030e-03 -7.88710e-05 1.69890e-04 1.03770e-03 8.92120e-02 7.22730e-02 6.95300e-02 -3.07280e-03 -5.37290e-03 -4.73610e-02 6.36830e-02 3.35090e-02 2.38440e-02 -5.85180e-03 -1.43250e-02 -2.54090e-03 5.91690e-02 1.47310e-02 -3.96700e-03 -8.55530e-03 -1.93170e-02 5.39280e-02 5.92740e-02 1.07570e-02 -1.36220e-02 -6.57960e-03 -1.70360e-02 6.52680e-02 -3.55030e-02 -2.07530e-03 -2.11870e-02 -1.73340e-03 -1.15170e-02 6.46710e-02 -3.43690e-02 -1.48700e-03 -2.18510e-02 -1.00650e-03 -9.60230e-03 5.55950e-02 -3.34720e-02 -9.70830e-04 -2.14890e-02 -1.77980e-04 -7.16250e-03 5.32540e-02 -3.32470e-02 -9.53160e-04 -2.06920e-02 1.87550e-04 -5.45830e-03 5.19820e-02 -3.34400e-02 -9.27180e-04 -1.93990e-02 3.46730e-04 -4.10720e-03 5.11530e-02 -3.38500e-02 -9.73810e-04 -1.76970e-02 3.67720e-04 -3.11720e-03 5.06210e-02 -3.43550e-02 -9.96430e-04 -1.57880e-02 3.27230e-04 -2.33390e-03 5.01390e-02 -3.48100e-02 -1.00820e-03 -1.37330e-02 2.49960e-04 -1.76750e-03 4.96410e-02 -3.52050e-02 -1.01730e-03 -1.16910e-02 1.65250e-04 -1.33590e-03 4.90930e-02 -3.54750e-02 -1.00580e-03 -9.66440e-03 8.42690e-05 -1.03470e-03 4.84770e-02 -5.85440e-02 -4.80180e-03 -1.19810e-02 5.14030e-05 -7.17570e-04 4.23760e-02 -1.04370e-01 -1.23680e-02 -1.85110e-02 6.02540e-05 -3.66790e-04 3.06970e-02 -1.01660e-01 -9.99400e-03 -1.20070e-02 -3.39730e-05 -2.36770e-04 3.52470e-02 -3.76160e-02 -9.62890e-04 3.58480e-04 -1.21930e-04 -4.71330e-04 5.09700e-02 -3.54780e-02 -8.89300e-04 -9.75450e-04 -1.15950e-04 -4.40440e-04 4.48100e-02 -3.52870e-02 -8.53390e-04 4.73980e-04 -1.21770e-04 -4.09100e-04 4.40190e-02 -3.50650e-02 -8.19980e-04 1.83150e-03 -1.21680e-04 -3.86050e-04 4.32240e-02 -3.48120e-02 -7.83380e-04 3.11060e-03 -1.17240e-04 -3.70980e-04 4.24260e-02 -3.45390e-02 -7.49010e-04 4.31000e-03 -1.10340e-04 -3.58800e-04 4.16280e-02 -3.42450e-02 -7.13450e-04 5.43880e-03 -1.01840e-04 -3.49960e-04 4.08310e-02 -3.39380e-02 -6.79920e-04 6.49700e-03 -9.28160e-05 -3.41770e-04 4.00370e-02 -3.36160e-02 -6.46340e-04 7.49040e-03 -8.36320e-05 -3.34870e-04 3.92450e-02 -8.54800e-02 -8.18110e-03 2.18150e-03 3.67570e-04 -1.25250e-03 2.92910e-02 -8.21880e-02 -7.68790e-03 2.03010e-03 8.88390e-05 -5.04140e-04 2.63800e-02 -7.96860e-02 -7.39300e-03 2.29180e-03 -4.76630e-05 -1.36740e-04 2.46440e-02 -7.79090e-02 -7.19340e-03 3.09470e-03 -3.95450e-05 -1.38480e-04 2.39470e-02 -7.61140e-02 -6.97210e-03 3.86520e-03 -3.21670e-05 -1.39370e-04 2.32820e-02 -7.43640e-02 -6.77370e-03 4.57890e-03 -2.52780e-05 -1.39920e-04 2.26380e-02 -7.26110e-02 -6.56350e-03 5.25780e-03 -1.90340e-05 -1.39760e-04 2.20220e-02 -6.95150e-02 -6.48130e-03 3.30680e-03 -8.47050e-06 -1.38430e-04 1.84170e-02 1.11730e-02 5.47400e-03 1.88190e-02 -3.75010e-05 -4.03290e-04 4.11710e-02 7.66980e-03 5.17240e-03 2.09440e-02 2.93100e-04 -1.23690e-03 4.25010e-02 6.85640e-03 5.02680e-03 2.12630e-02 2.88500e-04 -1.19420e-03 4.16250e-02 6.07940e-03 4.88770e-03 2.15360e-02 2.83360e-04 -1.15220e-03 4.07500e-02 7.70790e-03 4.84470e-03 1.95950e-02 2.85060e-04 -1.12280e-03 3.75450e-02 -2.81970e-02 -2.97790e-04 1.56840e-02 -9.06710e-06 -2.26770e-04 2.89170e-02 -2.77640e-02 -2.80210e-04 1.59310e-02 -6.87480e-06 -2.18030e-04 2.82500e-02 -2.56060e-02 -2.54880e-04 1.40890e-02 -9.30540e-07 -2.10830e-04 2.54880e-02 -2.68860e-02 -2.47450e-04 1.63150e-02 -3.28840e-06 -2.00430e-04 2.69480e-02 -2.22360e-02 3.51030e-04 1.69710e-02 3.94590e-05 -2.92520e-04 2.73450e-02 -9.42360e-03 2.23460e-03 1.97160e-02 4.67590e-05 -3.52220e-04 3.08770e-02 1.40190e-03 3.84290e-03 2.18800e-02 5.96560e-05 -4.43840e-04 3.35740e-02 2.24060e-03 3.76390e-03 2.03830e-02 2.27040e-04 -8.17740e-04 3.14220e-02 -2.46410e-02 -1.78340e-04 1.66990e-02 1.64450e-06 -1.56410e-04 2.38790e-02 -2.41850e-02 -1.66520e-04 1.66880e-02 2.03550e-06 -1.47720e-04 2.32960e-02 -2.37290e-02 -1.55310e-04 1.66500e-02 2.25470e-06 -1.39100e-04 2.27220e-02 -4.55780e-02 -3.38880e-03 1.30040e-02 2.54340e-05 -7.52450e-05 1.57140e-02 -3.02120e-02 -1.22580e-03 1.52750e-02 1.05120e-05 -1.03910e-04 1.94480e-02 -4.27460e-03 2.85190e-03 2.25130e-02 -2.77560e-05 -1.59920e-04 2.95870e-02 -1.58660e-02 8.85750e-04 1.82850e-02 -8.82660e-06 -1.20730e-04 2.33310e-02 -2.14290e-02 -1.07720e-04 1.61010e-02 1.11370e-06 -9.74080e-05 1.99980e-02 -2.09680e-02 -9.97370e-05 1.59260e-02 5.06870e-07 -8.94150e-05 1.94790e-02 -2.05060e-02 -9.22230e-05 1.57330e-02 -2.04550e-07 -8.15550e-05 1.89690e-02 -1.46220e-02 7.10260e-04 1.64660e-02 -9.06050e-06 -8.62840e-05 2.01670e-02 -3.41280e-03 2.33280e-03 1.82040e-02 -2.77360e-05 -1.03390e-04 2.30890e-02 -1.91180e-02 -7.22860e-05 1.50470e-02 -2.87760e-06 -5.88380e-05 1.74850e-02 -1.86560e-02 -6.64480e-05 1.47860e-02 -3.92080e-06 -5.15710e-05 1.70050e-02 -1.81940e-02 -6.09830e-05 1.45100e-02 -5.02700e-06 -4.44640e-05 1.65320e-02 -1.77310e-02 -5.58750e-05 1.42200e-02 -6.18880e-06 -3.75210e-05 1.60660e-02 -1.72690e-02 -5.11070e-05 1.39170e-02 -7.39920e-06 -3.07460e-05 1.56060e-02 -1.74380e-02 -4.83270e-05 1.43060e-02 -1.06590e-05 -2.26510e-05 1.57290e-02 -1.63460e-02 -4.25250e-05 1.32740e-02 -9.93890e-06 -1.77110e-05 1.47030e-02 -1.58850e-02 -3.86800e-05 1.29360e-02 -1.12550e-05 -1.14570e-05 1.42600e-02 -1.54240e-02 -3.51130e-05 1.25870e-02 -1.25940e-05 -5.38020e-06 1.38220e-02 -1.49640e-02 -3.18080e-05 1.22290e-02 -1.39500e-05 5.16420e-07 1.33890e-02 -1.45030e-02 -2.87520e-05 1.18620e-02 -1.53190e-05 6.23160e-06 1.29600e-02 -1.40430e-02 -2.59310e-05 1.14850e-02 -1.66940e-05 1.17640e-05 1.25360e-02 -1.35840e-02 -2.33310e-05 1.11010e-02 -1.80720e-05 1.71130e-05 1.21160e-02 -1.31250e-02 -2.09390e-05 1.07100e-02 -1.94470e-05 2.22780e-05 1.16990e-02 -1.26660e-02 -1.87420e-05 1.03120e-02 -2.08150e-05 2.72580e-05 1.12860e-02 -1.39530e-02 -2.98010e-04 9.35300e-03 -1.52140e-05 3.59300e-05 1.00120e-02 -1.69930e-02 -8.73940e-04 7.85910e-03 -1.30310e-06 4.87730e-05 7.92880e-03 -6.07630e-03 7.79440e-04 1.01690e-02 -4.40490e-05 2.74540e-05 1.21080e-02 -1.08340e-02 -1.16800e-05 8.65940e-03 -2.61350e-05 4.53350e-05 9.66550e-03 -6.57220e-03 5.83700e-04 9.30860e-03 -4.52420e-05 4.05280e-05 1.11210e-02 -8.64930e-03 1.93230e-04 8.15570e-03 -3.50370e-05 5.01320e-05 9.47350e-03 -9.46240e-03 -7.89330e-06 7.37100e-03 -2.98660e-05 5.69670e-05 8.47540e-03 -9.00580e-03 -6.86740e-06 6.93430e-03 -3.10430e-05 6.04780e-05 8.08260e-03 -7.66850e-03 1.23010e-04 6.67610e-03 -3.65250e-05 6.10020e-05 8.09670e-03 -5.61030e-03 3.64350e-04 6.57770e-03 -4.73500e-05 5.94220e-05 8.46150e-03 -5.42580e-03 3.20950e-04 6.05180e-03 -4.75750e-05 6.28950e-05 7.96100e-03 -5.22480e-03 2.80160e-04 5.52880e-03 -4.77110e-05 6.61430e-05 7.46830e-03 -5.00770e-03 2.41920e-04 5.00880e-03 -4.77370e-05 6.91470e-05 6.98330e-03 -4.76720e-03 2.27410e-04 4.61770e-03 -4.83010e-05 7.07310e-05 6.62220e-03 -6.35910e-03 -6.87890e-05 3.82060e-03 -3.25460e-05 7.47750e-05 5.19990e-03 -5.36160e-03 -1.76000e-06 3.36020e-03 -3.81950e-05 8.05900e-05 4.98490e-03 -4.90830e-03 -1.41080e-06 2.90870e-03 -3.85040e-05 8.15350e-05 4.60230e-03 -4.45620e-03 -1.10890e-06 2.45770e-03 -3.85440e-05 8.18510e-05 4.22110e-03 -4.00610e-03 -8.50650e-07 2.00810e-03 -3.82600e-05 8.14200e-05 3.84170e-03 -3.55890e-03 -6.34510e-07 1.56110e-03 -3.76340e-05 8.02110e-05 3.46500e-03 -2.93920e-03 -3.95530e-07 9.41010e-04 -3.65010e-05 7.77590e-05 2.94290e-03 -2.67900e-03 -3.23870e-07 6.80580e-04 -3.60000e-05 7.68620e-05 2.72370e-03 -2.24890e-03 -2.33130e-07 2.50110e-04 -3.63410e-05 7.76470e-05 2.36130e-03 -1.82530e-03 -1.95710e-07 -1.73860e-04 -3.98740e-05 8.53060e-05 2.00430e-03 -1.39940e-03 -2.18810e-07 -6.00130e-04 -4.98500e-05 1.06860e-04 1.64530e-03 -9.24340e-04 -1.67250e-07 -1.07530e-03 -6.91260e-05 1.48510e-04 1.24460e-03 -6.46620e-04 -9.18570e-08 -1.35300e-03 -8.73430e-05 1.87870e-04 1.01020e-03 9.58960e-02 8.08630e-02 7.79010e-02 -2.55280e-03 -3.05980e-03 -4.59170e-02 6.75280e-02 3.93910e-02 2.97370e-02 -3.96510e-03 -8.51740e-03 3.68760e-03 6.25990e-02 1.72220e-02 -2.09910e-04 -5.75370e-03 -1.28650e-02 6.71060e-02 6.05780e-02 1.02930e-02 -1.25510e-02 -5.05370e-03 -1.28040e-02 8.06130e-02 -4.01560e-02 -4.58690e-03 -2.20980e-02 -1.80410e-03 -9.79370e-03 7.18260e-02 -4.00820e-02 -2.94370e-03 -2.15690e-02 -1.01740e-03 -8.00340e-03 6.49180e-02 -3.93350e-02 -2.05250e-03 -2.15410e-02 -2.81520e-04 -6.43170e-03 5.86530e-02 -3.88600e-02 -1.86970e-03 -2.10990e-02 1.64610e-04 -4.92670e-03 5.52570e-02 -3.85970e-02 -1.71220e-03 -2.00780e-02 3.72020e-04 -3.76960e-03 5.28770e-02 -3.85070e-02 -1.71340e-03 -1.86570e-02 4.40910e-04 -2.86220e-03 5.12120e-02 -3.85020e-02 -1.69460e-03 -1.69690e-02 4.29410e-04 -2.16680e-03 4.99080e-02 -3.84870e-02 -1.68520e-03 -1.51030e-02 3.78160e-04 -1.63980e-03 4.88230e-02 -3.84590e-02 -1.67330e-03 -1.32050e-02 3.09670e-04 -1.24610e-03 4.78650e-02 -3.83610e-02 -1.64570e-03 -1.12870e-02 2.40710e-04 -9.60120e-04 4.69700e-02 -6.12650e-02 -5.51420e-03 -1.37800e-02 2.15270e-04 -6.79920e-04 4.07120e-02 -1.07110e-01 -1.32440e-02 -2.05540e-02 2.33870e-04 -3.78610e-04 2.89160e-02 -7.78000e-02 -6.79320e-03 -9.98510e-03 1.80620e-04 -6.15530e-04 3.88330e-02 -3.94050e-02 -1.51330e-03 -1.43610e-03 4.20730e-05 -4.13800e-04 4.90660e-02 -3.71720e-02 -1.43630e-03 -2.77200e-03 4.15850e-05 -3.82730e-04 4.29020e-02 -3.68240e-02 -1.37890e-03 -1.31530e-03 3.03220e-05 -3.48600e-04 4.21170e-02 -3.64600e-02 -1.32360e-03 5.56050e-05 2.44370e-05 -3.23750e-04 4.13390e-02 -3.60750e-02 -1.26470e-03 1.35310e-03 2.25200e-05 -3.06140e-04 4.05630e-02 -3.56790e-02 -1.20820e-03 2.57380e-03 2.30550e-05 -2.92350e-04 3.97940e-02 -3.52700e-02 -1.15070e-03 3.72630e-03 2.51660e-05 -2.81640e-04 3.90270e-02 -3.48540e-02 -1.09570e-03 4.80960e-03 2.79960e-05 -2.72350e-04 3.82660e-02 1.38860e-02 5.92080e-03 1.58860e-02 3.30710e-04 -1.50420e-03 5.34780e-02 -8.55650e-02 -8.24820e-03 1.52920e-03 4.99440e-05 -1.00000e-04 2.83010e-02 -8.21910e-02 -8.03410e-03 -2.54340e-04 5.75120e-05 -9.99590e-05 2.37090e-02 -8.02580e-02 -7.77680e-03 6.47350e-04 6.03250e-05 -9.98770e-05 2.30290e-02 -7.83960e-02 -7.55990e-03 1.47900e-03 6.28310e-05 -9.97480e-05 2.23690e-02 -7.65160e-02 -7.31880e-03 2.28020e-03 6.48900e-05 -9.92290e-05 2.17410e-02 -7.46880e-02 -7.10380e-03 3.02310e-03 6.66020e-05 -9.85290e-05 2.11330e-02 -7.28600e-02 -6.87570e-03 3.73230e-03 6.79230e-05 -9.74790e-05 2.05530e-02 -7.06450e-02 -6.73150e-03 3.39260e-03 1.81510e-04 -3.87820e-04 1.88620e-02 -6.79920e-02 -6.61270e-03 2.10530e-03 4.07480e-04 -9.59150e-04 1.61780e-02 -1.73530e-02 1.25780e-03 1.52260e-02 1.45140e-04 -5.03100e-04 3.39870e-02 -1.72950e-02 1.23600e-03 1.56290e-02 1.42620e-04 -4.85220e-04 3.32570e-02 -7.59090e-03 2.61380e-03 1.74520e-02 9.26570e-05 -3.90570e-04 3.49910e-02 6.26170e-03 4.61910e-03 2.02090e-02 1.09080e-04 -5.00580e-04 3.82310e-02 7.06490e-03 4.46890e-03 1.87410e-02 2.90940e-04 -9.63230e-04 3.57040e-02 -3.17130e-02 -1.10160e-03 1.34870e-02 9.06770e-06 -5.15410e-05 2.53110e-02 -3.56790e-02 -1.96120e-03 1.07630e-02 -3.27880e-05 9.39100e-05 2.10030e-02 -2.65670e-02 -3.91780e-04 1.51190e-02 3.95910e-05 -1.44570e-04 2.58140e-02 -2.60900e-02 -3.67150e-04 1.52850e-02 3.83030e-05 -1.37640e-04 2.52110e-02 -2.15460e-02 2.39120e-04 1.59740e-02 7.06560e-05 -2.24410e-04 2.56470e-02 -9.15710e-03 2.08270e-03 1.86800e-02 7.07290e-05 -2.76870e-04 2.91150e-02 2.52730e-03 3.68720e-03 1.97740e-02 7.60390e-06 -1.76590e-04 3.08130e-02 -2.41810e-02 -2.80220e-04 1.56330e-02 3.23350e-05 -1.10450e-04 2.28960e-02 -2.37050e-02 -2.61200e-04 1.56460e-02 3.06770e-05 -1.03820e-04 2.23410e-02 -2.32300e-02 -2.43180e-04 1.56330e-02 2.89650e-05 -9.72620e-05 2.17960e-02 -4.50710e-02 -3.48670e-03 1.19970e-02 5.32970e-05 -4.43360e-05 1.48340e-02 -2.96870e-02 -1.30680e-03 1.43030e-02 3.44870e-05 -6.91310e-05 1.85810e-02 -3.71630e-03 2.80580e-03 2.16040e-02 -7.85150e-06 -1.17220e-04 2.87430e-02 -1.53100e-02 8.29260e-04 1.73760e-02 1.09120e-05 -8.47940e-05 2.25110e-02 -2.08710e-02 -1.66920e-04 1.52050e-02 1.98220e-05 -6.58320e-05 1.92010e-02 -2.04030e-02 -1.54190e-04 1.50540e-02 1.79150e-05 -5.98450e-05 1.87060e-02 -1.99360e-02 -1.42220e-04 1.48830e-02 1.59940e-05 -5.39670e-05 1.82200e-02 -1.71240e-02 2.11510e-04 1.50710e-02 3.39840e-05 -1.01090e-04 1.84400e-02 -1.10230e-02 1.04590e-03 1.57910e-02 7.50440e-05 -2.22060e-04 1.96740e-02 -3.03390e-03 2.15700e-03 1.68380e-02 1.22970e-04 -3.84990e-04 2.15260e-02 -1.80840e-02 -1.01340e-04 1.40250e-02 8.27190e-06 -3.15970e-05 1.63450e-02 -1.76240e-02 -9.27160e-05 1.37710e-02 6.35370e-06 -2.63020e-05 1.58940e-02 -1.71660e-02 -8.46730e-05 1.35030e-02 4.44870e-06 -2.11300e-05 1.54480e-02 -1.67090e-02 -7.71820e-05 1.32210e-02 2.56060e-06 -1.60830e-05 1.50080e-02 -1.68860e-02 -6.99910e-05 1.36410e-02 -9.99860e-07 -1.00020e-05 1.51590e-02 -1.57990e-02 -6.37510e-05 1.26200e-02 -1.15100e-06 -6.36850e-06 1.41440e-02 -1.53460e-02 -5.77590e-05 1.23030e-02 -2.96780e-06 -1.70400e-06 1.37200e-02 -1.48940e-02 -5.22160e-05 1.19740e-02 -4.75470e-06 2.83070e-06 1.33010e-02 -1.44430e-02 -4.70980e-05 1.16360e-02 -6.50910e-06 7.23450e-06 1.28860e-02 -1.39930e-02 -4.23810e-05 1.12890e-02 -8.22840e-06 1.15070e-05 1.24750e-02 -1.35450e-02 -3.80410e-05 1.09330e-02 -9.91030e-06 1.56470e-05 1.20690e-02 -6.52020e-03 1.01040e-03 1.25910e-02 3.28580e-05 -1.45780e-04 1.47740e-02 -5.97180e-03 9.85060e-04 1.17690e-02 2.92160e-05 -1.35600e-04 1.39580e-02 -5.98830e-03 9.15270e-04 1.12660e-02 2.36620e-05 -1.20880e-04 1.33860e-02 -5.98820e-03 8.47810e-04 1.07600e-02 1.83310e-05 -1.06700e-04 1.28220e-02 -5.56120e-03 8.23100e-04 1.00750e-02 1.48870e-05 -9.75130e-05 1.21490e-02 -5.76310e-03 7.83650e-04 9.84810e-03 -8.56880e-05 1.35030e-04 1.18260e-02 -1.04320e-02 -1.64790e-05 8.24150e-03 -2.04680e-05 4.09010e-05 9.31560e-03 -6.20770e-03 5.76060e-04 8.91540e-03 -3.93340e-05 3.54850e-05 1.07860e-02 -8.28630e-03 1.88500e-04 7.77730e-03 -2.91570e-05 4.39810e-05 9.15500e-03 -9.10830e-03 -1.09220e-05 7.00930e-03 -2.42540e-05 4.97290e-05 8.17310e-03 -8.66830e-03 -9.43920e-06 6.59110e-03 -2.54090e-05 5.24040e-05 7.79580e-03 -7.35130e-03 1.18740e-04 6.34720e-03 -3.08670e-05 5.23200e-05 7.82050e-03 -5.32480e-03 3.56270e-04 6.26670e-03 -4.12600e-05 5.02570e-05 8.19750e-03 -5.15800e-03 3.12720e-04 5.75880e-03 -4.14260e-05 5.29880e-05 7.71240e-03 -4.97500e-03 2.71750e-04 5.25350e-03 -4.14940e-05 5.55440e-05 7.23490e-03 -4.77580e-03 2.33320e-04 4.75130e-03 -4.14460e-05 5.79080e-05 6.76510e-03 -4.54560e-03 2.18690e-04 4.37040e-03 -4.17550e-05 5.91860e-05 6.41260e-03 -5.70180e-03 -3.00570e-06 3.69610e-03 -3.12260e-05 6.61920e-05 5.27410e-03 -5.22640e-03 -2.70490e-06 3.22480e-03 -2.10500e-05 4.50680e-05 4.87330e-03 -4.72680e-03 -1.85280e-06 2.72810e-03 -3.21930e-05 6.81880e-05 4.45120e-03 -4.29140e-03 -1.45730e-06 2.29390e-03 -3.22080e-05 6.83060e-05 4.08390e-03 -3.85740e-03 -1.12200e-06 1.86030e-03 -3.19730e-05 6.78780e-05 3.71790e-03 -3.42540e-03 -8.43120e-07 1.42830e-03 -3.15080e-05 6.69480e-05 3.35370e-03 -2.82600e-03 -5.38870e-07 8.28460e-04 -3.08180e-05 6.54510e-05 2.84850e-03 -2.57340e-03 -4.45830e-07 5.75570e-04 -3.06710e-05 6.52630e-05 2.63550e-03 -2.15800e-03 -3.31870e-07 1.59640e-04 -3.14550e-05 6.70020e-05 2.28530e-03 -1.75260e-03 -2.87290e-07 -2.46340e-04 -3.46320e-05 7.38970e-05 1.94340e-03 -1.34900e-03 -3.14030e-07 -6.50420e-04 -4.16620e-05 8.90990e-05 1.60300e-03 -8.98770e-04 -3.54220e-07 -1.10090e-03 -5.35880e-05 1.14960e-04 1.22310e-03 -6.33400e-04 -3.86140e-07 -1.36640e-03 -6.42650e-05 1.38120e-04 9.99160e-04 9.82960e-02 8.44620e-02 8.12220e-02 -1.48270e-03 -1.34730e-03 -4.54510e-02 6.89360e-02 4.22150e-02 3.20720e-02 -2.02130e-03 -3.83070e-03 6.00180e-03 6.40110e-02 1.90160e-02 1.65250e-03 -2.76170e-03 -6.09060e-03 7.32840e-02 6.13650e-02 1.02020e-02 -1.17320e-02 -2.55270e-03 -6.49590e-03 8.84160e-02 8.02740e-03 -3.65740e-03 -2.25160e-02 -1.63690e-03 -5.50660e-03 8.19470e-02 -4.34880e-02 -4.00310e-03 -2.01700e-02 -3.89370e-04 -4.29340e-03 7.43330e-02 -4.23590e-02 -2.97720e-03 -2.12390e-02 -2.28230e-04 -3.64490e-03 6.25060e-02 -4.18520e-02 -2.54440e-03 -2.08940e-02 6.11580e-05 -2.83960e-03 5.77520e-02 -4.14800e-02 -2.32570e-03 -2.01310e-02 2.07830e-04 -2.17150e-03 5.43690e-02 -4.11470e-02 -2.24090e-03 -1.88560e-02 2.62210e-04 -1.66150e-03 5.19280e-02 -4.09030e-02 -2.20190e-03 -1.73510e-02 2.67870e-04 -1.25430e-03 5.00620e-02 -4.06250e-02 -2.15750e-03 -1.56050e-02 2.43750e-04 -9.51480e-04 4.85580e-02 -4.03650e-02 -2.13470e-03 -1.38250e-02 2.08610e-04 -7.19320e-04 4.73050e-02 -4.00510e-02 -2.08870e-03 -1.19880e-02 1.70150e-04 -5.52040e-04 4.62010e-02 -6.28170e-02 -5.96670e-03 -1.45720e-02 1.58140e-04 -3.91260e-04 3.98210e-02 -1.08580e-01 -1.37090e-02 -2.14250e-02 1.69300e-04 -2.23730e-04 2.79390e-02 -4.86230e-02 -3.05880e-03 -7.34400e-03 1.24650e-04 -4.44850e-04 4.26020e-02 -4.01260e-02 -1.75260e-03 -2.04740e-03 -2.40260e-04 1.11490e-03 4.82070e-02 -3.86650e-02 -1.75830e-03 -2.61460e-03 -5.13160e-05 2.39900e-04 4.35690e-02 -3.77070e-02 -1.74330e-03 -2.20810e-03 4.41600e-05 -1.85220e-04 4.10100e-02 -3.72590e-02 -1.67310e-03 -8.38950e-04 3.93820e-05 -1.69900e-04 4.02380e-02 -3.67960e-02 -1.59870e-03 4.60910e-04 3.69140e-05 -1.58980e-04 3.94730e-02 -3.63290e-02 -1.52700e-03 1.68650e-03 3.59320e-05 -1.50480e-04 3.87180e-02 -3.58530e-02 -1.45420e-03 2.84590e-03 3.59170e-05 -1.43910e-04 3.79680e-02 -3.53730e-02 -1.38430e-03 3.93750e-03 3.63820e-05 -1.38280e-04 3.72260e-02 1.38130e-02 5.90310e-03 1.56190e-02 1.89690e-05 -2.19250e-04 5.29120e-02 -8.59110e-02 -8.49600e-03 6.73630e-04 5.07790e-05 -4.48440e-05 2.73230e-02 -8.25090e-02 -8.27900e-03 -1.10470e-03 5.40400e-05 -4.46300e-05 2.27430e-02 -8.05250e-02 -8.00870e-03 -1.91360e-04 5.46000e-05 -4.42900e-05 2.20850e-02 -7.86140e-02 -7.77940e-03 6.52280e-04 5.50240e-05 -4.39960e-05 2.14460e-02 -7.66890e-02 -7.52640e-03 1.46570e-03 5.52280e-05 -4.35330e-05 2.08400e-02 -5.81960e-02 -4.79260e-03 5.76420e-03 1.06250e-04 -2.48380e-04 2.56360e-02 -4.52610e-02 -2.95980e-03 7.95460e-03 1.40430e-04 -3.77000e-04 2.75160e-02 -5.45170e-02 -4.42250e-03 6.10320e-03 1.06140e-04 -2.37930e-04 2.32070e-02 -6.79590e-02 -6.71060e-03 1.73340e-03 5.67860e-05 -4.07310e-05 1.57250e-02 -2.98940e-02 -7.56840e-04 1.21670e-02 3.64410e-05 -9.43830e-05 2.95110e-02 -2.93900e-02 -7.13320e-04 1.26170e-02 3.55750e-05 -9.06820e-05 2.88600e-02 -2.36900e-02 5.58120e-05 1.36650e-02 7.31780e-05 -2.04600e-04 2.93910e-02 -7.77380e-03 2.40960e-03 1.70690e-02 8.02530e-05 -2.64420e-04 3.35210e-02 7.21050e-03 4.47730e-03 1.84650e-02 1.63470e-05 -1.25920e-04 3.52940e-02 -3.71630e-02 -2.13190e-03 1.10750e-02 3.81520e-05 -6.23810e-05 2.21840e-02 -5.62010e-02 -5.28070e-03 5.50110e-03 5.08820e-05 -3.21200e-05 1.33970e-02 -2.63800e-02 -4.90920e-04 1.44620e-02 2.90960e-05 -6.89350e-05 2.51500e-02 -2.58830e-02 -4.59750e-04 1.46410e-02 2.78790e-05 -6.54040e-05 2.45660e-02 -2.53870e-02 -4.30120e-04 1.47880e-02 2.66360e-05 -6.19040e-05 2.39910e-02 -2.09960e-02 1.53400e-04 1.54610e-02 5.67910e-05 -1.45820e-04 2.44490e-02 -1.43620e-02 9.28980e-04 1.51460e-02 9.77900e-05 -2.56630e-04 2.41440e-02 -2.39120e-02 -3.49900e-04 1.50410e-02 2.27990e-05 -5.16310e-05 2.23220e-02 -2.34250e-02 -3.25880e-04 1.50670e-02 2.14940e-05 -4.82890e-05 2.17840e-02 -2.29400e-02 -3.03150e-04 1.50670e-02 2.01810e-05 -4.49920e-05 2.12550e-02 -4.47520e-02 -3.53780e-03 1.14490e-02 3.57530e-05 -1.60340e-05 1.43250e-02 -2.93730e-02 -1.35660e-03 1.37640e-02 2.33580e-05 -3.00870e-05 1.80780e-02 -3.41560e-03 2.75950e-03 2.10810e-02 -3.49050e-06 -5.72510e-05 2.82480e-02 -1.49960e-02 7.85880e-04 1.68620e-02 8.18060e-06 -3.94860e-05 2.20310e-02 -2.05470e-02 -2.07080e-04 1.47010e-02 1.35880e-05 -2.92440e-05 1.87370e-02 -2.00760e-02 -1.91070e-04 1.45620e-02 1.22810e-05 -2.62530e-05 1.82570e-02 -1.96070e-02 -1.76030e-04 1.44040e-02 1.09820e-05 -2.33180e-05 1.77840e-02 -1.91400e-02 -1.61920e-04 1.42270e-02 9.69490e-06 -2.04400e-05 1.73190e-02 -1.35180e-02 6.11100e-04 1.49410e-02 3.05120e-06 -2.33080e-05 1.84860e-02 -2.83170e-03 2.16790e-03 1.66230e-02 -9.46240e-06 -3.17900e-05 2.13010e-02 -1.77530e-02 -1.24760e-04 1.35950e-02 5.91780e-06 -1.21600e-05 1.59620e-02 -1.72950e-02 -1.13970e-04 1.33520e-02 4.69330e-06 -9.52020e-06 1.55230e-02 -1.68390e-02 -1.03920e-04 1.30960e-02 3.48870e-06 -6.94170e-06 1.50890e-02 -1.63850e-02 -9.45680e-05 1.28260e-02 2.30570e-06 -4.42520e-06 1.46610e-02 -1.65680e-02 -8.45090e-05 1.32620e-02 2.22630e-07 -1.39420e-06 1.48290e-02 -1.54830e-02 -7.78300e-05 1.22480e-02 9.45880e-09 4.19600e-07 1.38200e-02 -1.50340e-02 -7.03770e-05 1.19420e-02 -1.10110e-06 2.74690e-06 1.34080e-02 -6.16570e-03 1.32840e-03 1.44660e-02 7.39560e-05 -2.05680e-04 1.70980e-02 -5.49920e-03 1.29990e-03 1.35010e-02 7.02290e-05 -1.95840e-04 1.61120e-02 -5.58820e-03 1.22030e-03 1.30230e-02 6.44500e-05 -1.81590e-04 1.55110e-02 -5.66070e-03 1.14290e-03 1.25390e-02 5.88420e-05 -1.67810e-04 1.49190e-02 -9.44700e-03 5.10330e-04 1.13540e-02 2.40850e-05 -7.03750e-05 1.30310e-02 -1.01730e-02 3.02890e-04 1.04510e-02 1.22760e-05 -3.70830e-05 1.19330e-02 -9.88900e-03 2.82530e-04 1.00410e-02 9.92360e-06 -3.16500e-05 1.14870e-02 -9.60000e-03 2.62670e-04 9.62500e-03 7.65790e-06 -2.64190e-05 1.10460e-02 -8.31530e-03 3.79520e-04 9.29640e-03 1.27190e-05 -4.27420e-05 1.08840e-02 -5.37890e-03 7.65420e-04 9.41260e-03 3.04730e-05 -9.83350e-05 1.14580e-02 -1.02000e-02 -1.94990e-05 8.00180e-03 -1.13930e-05 2.40740e-05 9.11380e-03 -5.95300e-03 5.70450e-04 8.64090e-03 1.92950e-05 -7.06660e-05 1.05500e-02 -5.58080e-03 5.50100e-04 8.05100e-03 1.66910e-05 -6.42840e-05 9.98720e-03 -5.49100e-03 4.96280e-04 7.54860e-03 1.29880e-05 -5.50260e-05 9.48130e-03 -5.38510e-03 4.44960e-04 7.04730e-03 9.49090e-06 -4.62130e-05 8.98350e-03 -5.26300e-03 3.96130e-04 6.54750e-03 6.20150e-06 -3.78440e-05 8.49360e-03 -5.12480e-03 3.49840e-04 6.04970e-03 3.12330e-06 -2.99210e-05 8.01150e-03 -4.97040e-03 3.06060e-04 5.55420e-03 2.61260e-07 -2.24470e-05 7.53710e-03 -4.79980e-03 2.64850e-04 5.06150e-03 -2.37930e-06 -1.54260e-05 7.07040e-03 -4.56700e-03 2.49230e-04 4.66810e-03 -4.15230e-06 -1.10320e-05 6.70420e-03 -4.44680e-03 2.13460e-04 4.25910e-03 -4.09480e-05 7.03400e-05 6.31760e-03 -6.03200e-03 -6.33910e-05 3.51340e-03 -2.02900e-05 4.87080e-05 4.94480e-03 -5.07780e-03 -2.72790e-06 3.07730e-03 -1.35970e-05 2.89210e-05 4.74880e-03 -4.59860e-03 -2.19160e-06 2.60070e-03 -6.89750e-06 1.48980e-05 4.34460e-03 -4.31340e-03 -1.87380e-06 2.31610e-03 -8.08810e-06 1.74830e-05 4.10360e-03 -3.77070e-03 -1.28350e-06 1.77420e-03 -1.76370e-05 3.73880e-05 3.64580e-03 -3.17120e-03 -8.98460e-07 1.17480e-03 -1.18140e-05 2.52900e-05 3.14040e-03 -2.91170e-03 -7.46210e-07 9.14960e-04 -1.25010e-05 2.67910e-05 2.92150e-03 -2.49880e-03 -5.47360e-07 5.01440e-04 -1.35560e-05 2.90420e-05 2.57320e-03 -2.26740e-03 -4.54930e-07 2.69790e-04 -1.43170e-05 3.06890e-05 2.37810e-03 -1.71200e-03 -3.46680e-07 -2.86720e-04 -1.93670e-05 4.12650e-05 1.90940e-03 -1.32090e-03 -3.81990e-07 -6.78340e-04 -2.27910e-05 4.86760e-05 1.57950e-03 -8.84360e-04 -5.08980e-07 -1.11540e-03 -2.83620e-05 6.07950e-05 1.21100e-03 -6.25850e-04 -6.29900e-07 -1.37410e-03 -3.33510e-05 7.16460e-05 9.92850e-04 1.08110e-02 1.03280e-02 8.65390e-03 6.82730e-04 1.25580e-04 -4.52360e-02 -1.07610e-04 2.45320e-04 -5.76310e-03 5.82240e-04 3.87660e-04 6.16670e-03 -3.57520e-03 -3.90690e-03 -1.50170e-02 6.88280e-04 6.03920e-04 7.31700e-02 -6.91180e-03 -4.78280e-03 -1.92020e-02 2.93990e-04 5.88180e-04 8.80590e-02 -3.29790e-02 -8.76510e-03 -2.38630e-02 1.11190e-04 2.01320e-04 8.15120e-02 -4.43050e-02 -3.92740e-03 -1.95150e-02 -5.29860e-05 -4.54260e-04 7.60520e-02 -4.32140e-02 -3.25560e-03 -2.09830e-02 -1.52850e-04 -9.25070e-05 6.38320e-02 -4.28130e-02 -2.83770e-03 -2.08230e-02 -3.28520e-05 3.14670e-04 5.86860e-02 -4.23710e-02 -2.52110e-03 -2.00500e-02 -5.07410e-05 6.51350e-04 5.49270e-02 -4.20080e-02 -2.44900e-03 -1.88900e-02 -4.70650e-05 8.86970e-04 5.22360e-02 -4.16710e-02 -2.37090e-03 -1.74100e-02 -9.03090e-05 1.06670e-03 5.01590e-02 -5.57370e-02 -3.46910e-03 -1.58230e-02 -7.99790e-05 6.89990e-04 4.78900e-02 -6.52950e-02 -5.51480e-03 -1.65670e-02 -6.26650e-05 3.98690e-04 4.39610e-02 -6.47200e-02 -5.70040e-03 -1.49380e-02 -6.96290e-05 4.15400e-04 4.26030e-02 -7.41830e-02 -6.94020e-03 -1.57300e-02 -1.12240e-04 6.69830e-04 3.69320e-02 -1.09230e-01 -1.40080e-02 -2.17380e-02 -2.35730e-04 1.41000e-03 2.76110e-02 -3.93720e-02 -2.08770e-03 -7.03430e-03 -1.85230e-09 8.23080e-10 4.30930e-02 -3.89210e-02 -2.01780e-03 -5.43770e-03 -1.85200e-09 7.23230e-10 4.22480e-02 -4.03080e-02 -1.92180e-03 -1.06460e-03 -2.87320e-04 1.29830e-03 4.65080e-02 -3.79920e-02 -1.87130e-03 -2.47710e-03 -2.94010e-04 1.27970e-03 4.06490e-02 -3.75160e-02 -1.79560e-03 -1.10970e-03 -2.99470e-04 1.25230e-03 3.98770e-02 -3.70280e-02 -1.71600e-03 1.89380e-04 -3.02860e-04 1.22260e-03 3.91160e-02 -3.65370e-02 -1.63880e-03 1.41550e-03 -3.05110e-04 1.19250e-03 3.83650e-02 -3.60390e-02 -1.56070e-03 2.57600e-03 -3.06170e-04 1.16150e-03 3.76210e-02 -3.55380e-02 -1.48550e-03 3.66930e-03 -3.06530e-04 1.13080e-03 3.68850e-02 1.37500e-02 5.86640e-03 1.53610e-02 -2.56300e-09 -4.19040e-10 5.25980e-02 -8.61160e-02 -8.65230e-03 3.90630e-04 -1.25520e-09 8.16060e-12 2.69790e-02 -8.26970e-02 -8.42720e-03 -1.38020e-03 -9.72660e-10 1.12170e-10 2.24030e-02 -8.06930e-02 -8.14950e-03 -4.63090e-04 -9.22950e-10 6.04930e-11 2.17530e-02 -7.87650e-02 -7.91490e-03 3.83240e-04 -8.74320e-10 1.45380e-11 2.11210e-02 -5.96070e-02 -5.03630e-03 4.83640e-03 5.72860e-05 -1.82990e-04 2.60200e-02 -3.84790e-02 -1.95550e-03 8.91990e-03 4.11800e-05 -1.29270e-04 3.06620e-02 -3.14410e-02 -9.65100e-04 1.03010e-02 -1.32960e-09 -3.58420e-10 3.12350e-02 -4.34860e-02 -2.88440e-03 7.57200e-03 -1.04320e-09 -2.53560e-10 2.56840e-02 -6.80350e-02 -6.81970e-03 1.48180e-03 -5.17140e-10 -1.18110e-11 1.54340e-02 -2.98930e-02 -8.11200e-04 1.19320e-02 -1.26350e-09 -4.54200e-10 2.92470e-02 -2.93780e-02 -7.64440e-04 1.23850e-02 -1.26440e-09 -4.86330e-10 2.86020e-02 -2.88640e-02 -7.19750e-04 1.27950e-02 -1.27720e-09 -5.20110e-10 2.79670e-02 -2.33160e-02 4.79230e-05 1.38310e-02 3.86150e-05 -1.06440e-04 2.85260e-02 -1.05460e-02 1.86760e-03 1.58300e-02 1.30750e-04 -3.56160e-04 3.08560e-02 6.59480e-03 4.34220e-03 1.84660e-02 2.52990e-04 -6.80430e-04 3.43480e-02 -5.61970e-02 -5.35980e-03 5.27540e-03 -7.25870e-10 -2.78380e-10 1.31550e-02 -2.63180e-02 -5.25580e-04 1.42530e-02 -1.46490e-09 -7.30550e-10 2.49320e-02 -2.58140e-02 -4.92120e-04 1.44370e-02 -1.50650e-09 -7.79120e-10 2.43540e-02 -2.53130e-02 -4.60310e-04 1.45870e-02 -1.54170e-09 -8.27350e-10 2.37850e-02 -2.48140e-02 -4.30090e-04 1.47050e-02 -1.56750e-09 -8.73400e-10 2.32260e-02 -2.28470e-02 -4.06410e-04 1.30280e-02 -1.43100e-09 -7.84810e-10 2.09840e-02 -2.38240e-02 -3.74220e-04 1.48510e-02 -1.58260e-09 -9.51990e-10 2.21340e-02 -2.33330e-02 -3.48450e-04 1.48820e-02 -1.56920e-09 -9.81270e-10 2.16020e-02 -2.28440e-02 -3.24060e-04 1.48850e-02 -1.54140e-09 -1.00250e-09 2.10780e-02 -4.46840e-02 -3.58310e-03 1.12650e-02 -1.18530e-09 -8.99060e-10 1.41440e-02 -2.92820e-02 -1.38320e-03 1.35880e-02 -1.33630e-09 -9.79120e-10 1.79080e-02 -3.28380e-03 2.76850e-03 2.09200e-02 -1.84470e-09 -1.31250e-09 2.80990e-02 -1.48820e-02 7.79160e-04 1.66990e-02 -1.45380e-09 -1.10160e-09 2.18790e-02 -2.04420e-02 -2.21040e-04 1.45390e-02 -1.22000e-09 -9.89160e-10 1.85850e-02 -1.99690e-02 -2.03890e-04 1.44040e-02 -1.13570e-09 -9.68150e-10 1.81100e-02 -1.94990e-02 -1.87770e-04 1.42500e-02 -1.05240e-09 -9.43930e-10 1.76420e-02 -1.90320e-02 -1.72660e-04 1.40770e-02 -9.74020e-10 -9.18020e-10 1.71810e-02 -1.63540e-02 1.69630e-04 1.42760e-02 2.08770e-05 -4.71920e-05 1.74240e-02 -1.05710e-02 9.81620e-04 1.50350e-02 7.02690e-05 -1.58350e-04 1.86760e-02 -3.00110e-03 2.07710e-03 1.61480e-02 1.35370e-04 -3.03260e-04 2.05430e-02 -1.71870e-02 -1.21330e-04 1.32170e-02 -7.68020e-10 -8.29710e-10 1.54020e-02 -1.83220e-02 -3.78070e-04 1.24020e-02 -1.71110e-05 3.78710e-05 1.41870e-02 -1.85060e-02 -4.79490e-04 1.19170e-02 -6.96190e-05 1.53510e-04 1.34650e-02 -1.64640e-02 -8.95310e-05 1.31390e-02 -1.09410e-04 2.40080e-04 1.47210e-02 -1.55770e-02 -8.21340e-05 1.23510e-02 -3.58160e-05 7.85720e-05 1.38980e-02 -6.05380e-03 1.41140e-03 1.49370e-02 9.77540e-05 -2.12860e-04 1.77280e-02 -1.01770e-02 6.58190e-04 1.30110e-02 4.74430e-05 -1.03030e-04 1.50310e-02 -1.11840e-02 3.93100e-04 1.19470e-02 3.00180e-05 -6.51300e-05 1.36950e-02 -1.09200e-02 3.70690e-04 1.15660e-02 2.82930e-05 -6.12050e-05 1.32310e-02 -1.06510e-02 3.48680e-04 1.11770e-02 2.66140e-05 -5.74120e-05 1.27720e-02 -1.17380e-02 1.22410e-04 1.04970e-02 1.09140e-05 -2.35600e-05 1.18060e-02 -1.22890e-02 -3.86200e-05 9.80690e-03 -9.67720e-10 -8.65870e-10 1.09360e-02 -1.18540e-02 -3.42590e-05 9.44250e-03 -9.73520e-10 -8.62370e-10 1.05530e-02 -1.14200e-02 -3.02940e-05 9.07140e-03 -9.68200e-10 -8.53010e-10 1.01730e-02 -1.02350e-02 8.39620e-05 8.84090e-03 7.93660e-06 -1.68690e-05 1.00830e-02 -8.04630e-03 3.51220e-04 8.81600e-03 2.62380e-05 -5.59040e-05 1.03940e-02 -5.34900e-03 7.02950e-04 8.91350e-03 4.98250e-05 -1.05540e-04 1.09320e-02 -5.72890e-03 5.94690e-04 8.55760e-03 1.53290e-05 -3.24140e-05 1.04980e-02 -7.02790e-03 3.31090e-04 7.70420e-03 8.02550e-06 -1.69410e-05 9.33460e-03 -7.71460e-03 1.56570e-04 6.99780e-03 1.25620e-05 -2.66040e-05 8.44920e-03 -7.39490e-03 1.40710e-04 6.56170e-03 1.14490e-05 -2.42210e-05 8.03990e-03 -7.07020e-03 1.25540e-04 6.12400e-03 1.03930e-05 -2.19620e-05 7.63430e-03 -6.74050e-03 1.11090e-04 5.68510e-03 9.39250e-06 -1.98260e-05 7.23210e-03 -6.40570e-03 9.73560e-05 5.24540e-03 8.44900e-06 -1.78130e-05 6.83310e-03 -6.06590e-03 8.43710e-05 4.80510e-03 7.56230e-06 -1.59190e-05 6.43740e-03 -5.74650e-03 7.96420e-05 4.43510e-03 6.96100e-06 -1.47340e-05 6.10990e-03 -6.62940e-03 -1.01440e-04 3.77910e-03 -8.96570e-06 1.86800e-05 5.07320e-03 -6.87990e-03 -1.83750e-04 3.33500e-03 -1.63110e-05 3.43380e-05 4.44290e-03 -5.01070e-03 -2.74130e-06 3.01080e-03 -2.95550e-10 -2.90220e-10 4.69260e-03 -4.58740e-03 -2.19360e-06 2.58940e-03 -2.76200e-10 -2.62370e-10 4.33510e-03 -4.21050e-03 -1.77810e-06 2.21360e-03 3.12470e-06 -6.51240e-06 4.01710e-03 -3.59310e-03 -1.20690e-06 1.59680e-03 7.77990e-06 -1.61770e-05 3.49630e-03 -3.26890e-03 -9.76530e-07 1.27250e-03 2.42100e-06 -5.04420e-06 3.22280e-03 -2.90420e-03 -7.52130e-07 9.07460e-04 -2.04640e-10 -1.71990e-10 2.91520e-03 -2.49220e-03 -5.53420e-07 4.94910e-04 -1.76280e-10 -1.55700e-10 2.56770e-03 -2.14680e-03 -4.34830e-07 1.48960e-04 1.24580e-06 -2.56710e-06 2.27640e-03 -1.87100e-03 -3.70730e-07 -1.27330e-04 3.73110e-06 -7.71060e-06 2.04370e-03 -1.31180e-03 -4.06660e-07 -6.87430e-04 -7.76310e-11 -1.41440e-10 1.57180e-03 -8.79540e-04 -5.67550e-07 -1.12020e-03 -2.98080e-11 -1.40100e-10 1.20700e-03 -6.23320e-04 -7.22290e-07 -1.37670e-03 7.00750e-12 -1.41390e-10 9.90740e-04 -3.28860e-02 -2.64730e-02 -2.73620e-02 4.30420e-03 1.27700e-03 -4.56450e-02 -3.47640e-02 -2.13070e-02 -2.54140e-02 4.36250e-03 3.82780e-03 4.84150e-03 -3.76300e-02 -1.53250e-02 -2.39990e-02 4.05980e-03 6.18520e-03 7.06400e-02 -4.09380e-02 -1.16150e-02 -2.31930e-02 2.96590e-03 6.56240e-03 8.41760e-02 -4.25590e-02 -7.03250e-03 -2.18630e-02 1.70490e-03 5.74830e-03 7.81850e-02 -1.15410e-01 1.02030e-03 -9.03250e-03 2.43420e-04 4.36990e-03 6.69740e-02 -5.66340e-02 -1.76250e-03 -1.86790e-02 8.68410e-05 3.44370e-03 6.36720e-02 -4.18520e-02 -2.54440e-03 -2.08940e-02 -6.11620e-05 2.83960e-03 5.77520e-02 -4.14800e-02 -2.32570e-03 -2.01310e-02 -2.07840e-04 2.17150e-03 5.43690e-02 -4.11470e-02 -2.24090e-03 -1.88560e-02 -2.62220e-04 1.66150e-03 5.19280e-02 -4.09030e-02 -2.20190e-03 -1.73510e-02 -2.67870e-04 1.25430e-03 5.00620e-02 -1.13190e-01 -8.05510e-03 -1.63390e-02 -4.96800e-04 2.06810e-03 4.54450e-02 -1.13770e-01 -1.19850e-02 -2.18670e-02 -4.70210e-04 1.96050e-03 3.76510e-02 -1.12830e-01 -1.26270e-02 -2.05570e-02 -4.55610e-04 1.83020e-03 3.59560e-02 -1.06480e-01 -9.29740e-03 -1.85970e-02 -4.51150e-04 1.75320e-03 2.92170e-02 -3.75880e-02 -1.95580e-03 -1.12580e-02 -1.18970e-04 3.66220e-04 3.85670e-02 -3.89810e-02 -1.94570e-03 -6.78600e-03 -8.16600e-05 2.79570e-04 4.34330e-02 -3.85700e-02 -1.87950e-03 -5.17880e-03 -6.42640e-05 2.36780e-04 4.26010e-02 -3.81490e-02 -1.81570e-03 -3.65870e-03 -5.20900e-05 2.06220e-04 4.17980e-02 -3.96510e-02 -1.74890e-03 6.77380e-04 -3.77180e-05 1.79590e-04 4.60270e-02 -3.72590e-02 -1.67310e-03 -8.38950e-04 -3.93860e-05 1.69900e-04 4.02380e-02 -3.67960e-02 -1.59870e-03 4.60910e-04 -3.69170e-05 1.58980e-04 3.94730e-02 -3.63290e-02 -1.52700e-03 1.68650e-03 -3.59350e-05 1.50480e-04 3.87180e-02 -3.58530e-02 -1.45420e-03 2.84590e-03 -3.59200e-05 1.43910e-04 3.79680e-02 -3.53730e-02 -1.38430e-03 3.93750e-03 -3.63850e-05 1.38280e-04 3.72260e-02 1.37040e-02 5.85770e-03 1.54150e-02 -3.20790e-04 1.28460e-03 5.26910e-02 -8.59110e-02 -8.49600e-03 6.73630e-04 -5.07820e-05 4.48440e-05 2.73230e-02 -6.36170e-02 -5.47440e-03 2.63610e-03 1.26070e-05 -1.25170e-04 2.84560e-02 -4.90910e-02 -3.40810e-03 5.12510e-03 5.59390e-05 -2.33900e-04 3.03090e-02 -4.81270e-02 -3.29330e-03 5.93400e-03 5.49460e-05 -2.27220e-04 2.96210e-02 -3.91050e-02 -1.94270e-03 8.51740e-03 1.56020e-06 -3.14380e-05 3.16840e-02 -3.19090e-02 -9.52130e-04 9.91020e-03 -3.87660e-05 1.09340e-04 3.22080e-02 -3.14060e-02 -9.00050e-04 1.05460e-02 -3.83930e-05 1.05560e-04 3.15210e-02 -4.34420e-02 -2.80590e-03 7.81820e-03 -4.42660e-05 8.23270e-05 2.59690e-02 -6.79590e-02 -6.71060e-03 1.73340e-03 -5.67860e-05 4.07310e-05 1.57250e-02 -2.98940e-02 -7.56840e-04 1.21670e-02 -3.64430e-05 9.43820e-05 2.95110e-02 -2.93900e-02 -7.13320e-04 1.26170e-02 -3.55780e-05 9.06810e-05 2.88600e-02 -2.88860e-02 -6.71720e-04 1.30230e-02 -3.46350e-05 8.70060e-05 2.82170e-02 -2.83830e-02 -6.32040e-04 1.33880e-02 -3.36240e-05 8.33430e-05 2.75850e-02 -2.30200e-02 1.12840e-04 1.43960e-02 8.86080e-06 -1.69840e-05 2.81510e-02 -1.49210e-02 1.10080e-03 1.42050e-02 6.37200e-05 -1.46300e-04 2.76570e-02 -5.62010e-02 -5.28070e-03 5.50110e-03 -5.08830e-05 3.21190e-05 1.33970e-02 -2.63800e-02 -4.90920e-04 1.44620e-02 -2.90990e-05 6.89340e-05 2.51500e-02 -2.58830e-02 -4.59750e-04 1.46410e-02 -2.78820e-05 6.54020e-05 2.45660e-02 -2.53870e-02 -4.30120e-04 1.47880e-02 -2.66390e-05 6.19020e-05 2.39910e-02 -2.09960e-02 1.53400e-04 1.54610e-02 -5.67940e-05 1.45810e-04 2.44490e-02 -1.43620e-02 9.28980e-04 1.51460e-02 -9.77930e-05 2.56630e-04 2.41440e-02 -2.39120e-02 -3.49900e-04 1.50410e-02 -2.28020e-05 5.16290e-05 2.23220e-02 -2.34250e-02 -3.25880e-04 1.50670e-02 -2.14970e-05 4.82870e-05 2.17840e-02 -2.29400e-02 -3.03150e-04 1.50670e-02 -2.01840e-05 4.49900e-05 2.12550e-02 -4.47520e-02 -3.53780e-03 1.14490e-02 -3.57550e-05 1.60320e-05 1.43250e-02 -2.93730e-02 -1.35660e-03 1.37640e-02 -2.33610e-05 3.00850e-05 1.80780e-02 -3.41560e-03 2.75950e-03 2.10810e-02 3.48690e-06 5.72480e-05 2.82480e-02 -1.49960e-02 7.85880e-04 1.68620e-02 -8.18330e-06 3.94840e-05 2.20310e-02 -2.05470e-02 -2.07080e-04 1.47010e-02 -1.35910e-05 2.92420e-05 1.87370e-02 -2.00760e-02 -1.91070e-04 1.45620e-02 -1.22830e-05 2.62510e-05 1.82570e-02 -1.96070e-02 -1.76030e-04 1.44040e-02 -1.09840e-05 2.33160e-05 1.77840e-02 -1.91400e-02 -1.61920e-04 1.42270e-02 -9.69670e-06 2.04390e-05 1.73190e-02 -1.86750e-02 -1.48700e-04 1.40330e-02 -8.42210e-06 1.76190e-05 1.68600e-02 -1.61190e-02 1.77290e-04 1.42110e-02 1.56060e-05 -2.76860e-05 1.70900e-02 -1.23550e-02 6.13970e-04 1.39090e-02 4.58760e-05 -8.50320e-05 1.70370e-02 -1.70160e-02 -1.17050e-04 1.30300e-02 -4.77190e-05 1.03670e-04 1.52530e-02 -2.04800e-02 -7.35310e-04 1.16900e-02 -1.34800e-04 2.77040e-04 1.31820e-02 -2.74480e-02 -1.99560e-03 8.82910e-03 -1.42460e-04 2.56040e-04 9.17810e-03 -1.59330e-02 -8.58830e-05 1.25430e-02 -1.14690e-06 1.96970e-06 1.42380e-02 -1.60090e-02 -8.15100e-05 1.28350e-02 -1.03810e-04 2.25800e-04 1.42980e-02 -1.24650e-02 4.27110e-04 1.34210e-02 4.07210e-05 -7.13170e-05 1.52390e-02 -1.33280e-02 1.52220e-04 1.20770e-02 1.86710e-05 -3.36500e-05 1.36290e-02 -1.41430e-02 -5.71450e-05 1.12980e-02 3.24030e-06 -7.21110e-06 1.25950e-02 -1.36990e-02 -5.13040e-05 1.09620e-02 4.26870e-06 -9.34550e-06 1.21950e-02 -1.32580e-02 -4.59400e-05 1.06170e-02 5.26790e-06 -1.14150e-05 1.17990e-02 -1.28170e-02 -4.10260e-05 1.02630e-02 6.23730e-06 -1.34200e-05 1.14060e-02 -1.23780e-02 -3.65330e-05 9.90240e-03 7.17610e-06 -1.53590e-05 1.10170e-02 -1.19400e-02 -3.24360e-05 9.53440e-03 8.08360e-06 -1.72330e-05 1.06310e-02 -1.15040e-02 -2.87080e-05 9.15980e-03 8.95940e-06 -1.90410e-05 1.02480e-02 -1.10680e-02 -2.53240e-05 8.77920e-03 9.80290e-06 -2.07840e-05 9.86740e-03 -9.02470e-03 2.12980e-04 8.70830e-03 1.41440e-05 -2.02430e-05 1.01160e-02 -5.42880e-03 7.00200e-04 8.99180e-03 2.24060e-05 -1.73110e-05 1.09980e-02 -5.70380e-03 6.04490e-04 8.60210e-03 2.27570e-05 -1.98640e-05 1.05440e-02 -8.07830e-03 1.84700e-04 7.55950e-03 1.65140e-05 -2.53520e-05 8.97100e-03 -8.90430e-03 -1.27880e-05 6.80150e-03 1.35240e-05 -2.85210e-05 7.99880e-03 -8.47390e-03 -1.10110e-05 6.39390e-03 1.41670e-05 -2.98710e-05 7.63050e-03 -8.04410e-03 -9.43370e-06 5.98320e-03 1.47740e-05 -3.11510e-05 7.26360e-03 -7.61480e-03 -8.03820e-06 5.56980e-03 1.53440e-05 -3.23580e-05 6.89810e-03 -7.18610e-03 -6.80850e-06 5.15390e-03 1.58740e-05 -3.34860e-05 6.53360e-03 -6.75780e-03 -5.72870e-06 4.73590e-03 1.63590e-05 -3.45260e-05 6.17010e-03 -6.39280e-03 -5.03330e-06 4.37530e-03 1.65780e-05 -3.52080e-05 5.86010e-03 -7.51570e-03 -2.20140e-04 3.68700e-03 -8.05310e-06 -2.16200e-06 4.71150e-03 -5.47510e-03 -3.25080e-06 3.47180e-03 1.74710e-05 -3.69410e-05 5.08440e-03 -5.04820e-03 -2.63660e-06 3.04810e-03 1.76850e-05 -3.74190e-05 4.72380e-03 -4.62170e-03 -2.10970e-06 2.62360e-03 1.77930e-05 -3.76720e-05 4.36370e-03 -4.19570e-03 -1.66150e-06 2.19880e-03 1.77780e-05 -3.76670e-05 4.00430e-03 -3.62020e-03 -1.15850e-06 1.62380e-03 1.75980e-05 -3.72410e-05 3.51890e-03 -3.34740e-03 -9.70340e-07 1.35080e-03 1.73940e-05 -3.68970e-05 3.28870e-03 -2.92700e-03 -7.18160e-07 9.30130e-04 1.71420e-05 -3.63860e-05 2.93420e-03 -2.51220e-03 -5.25880e-07 5.14730e-04 1.70970e-05 -3.63170e-05 2.58440e-03 -2.10630e-03 -3.98760e-07 1.08230e-04 1.76560e-05 -3.75510e-05 2.24200e-03 -1.77250e-03 -3.42850e-07 -2.26110e-04 2.00880e-05 -4.27310e-05 1.96050e-03 -1.32710e-03 -3.62320e-07 -6.72250e-04 2.65800e-05 -5.65970e-05 1.58460e-03 -8.87520e-04 -4.57280e-07 -1.11220e-03 3.42770e-05 -7.33410e-05 1.21370e-03 -6.27510e-04 -5.46640e-07 -1.37230e-03 4.13560e-05 -8.87370e-05 9.94240e-04 -3.42890e-02 -2.84210e-02 -2.96940e-02 8.75120e-03 2.88600e-03 -4.62590e-02 -3.54700e-02 -2.13280e-02 -2.65880e-02 8.84550e-03 8.45990e-03 2.41320e-03 -3.76870e-02 -1.39020e-02 -2.47330e-02 8.07460e-03 1.29910e-02 6.43710e-02 -4.03320e-02 -9.46850e-03 -2.37590e-02 5.45040e-03 1.28830e-02 7.64030e-02 -4.05520e-02 -5.11840e-03 -2.21390e-02 2.77790e-03 1.06950e-02 7.09000e-02 -1.12350e-01 2.77930e-03 -8.89660e-03 1.66020e-04 7.47500e-03 6.34980e-02 -6.27490e-02 -2.91500e-04 -1.80380e-02 9.41670e-06 6.19450e-03 5.83250e-02 -3.88600e-02 -1.86970e-03 -2.10990e-02 -1.64610e-04 4.92670e-03 5.52570e-02 -3.85970e-02 -1.71220e-03 -2.00780e-02 -3.72030e-04 3.76960e-03 5.28770e-02 -3.85070e-02 -1.71340e-03 -1.86570e-02 -4.40910e-04 2.86220e-03 5.12120e-02 -3.85020e-02 -1.69460e-03 -1.69690e-02 -4.29420e-04 2.16680e-03 4.99080e-02 -3.84870e-02 -1.68520e-03 -1.51030e-02 -3.78170e-04 1.63980e-03 4.88230e-02 -3.84590e-02 -1.67330e-03 -1.32050e-02 -3.09670e-04 1.24610e-03 4.78650e-02 -3.83610e-02 -1.64570e-03 -1.12870e-02 -2.40720e-04 9.60120e-04 4.69700e-02 -3.82230e-02 -1.62020e-03 -9.43650e-03 -1.78440e-04 7.52420e-04 4.61240e-02 -3.61810e-02 -1.53270e-03 -1.04620e-02 -1.54460e-04 6.47310e-04 3.95400e-02 -3.77780e-02 -1.53830e-03 -5.93470e-03 -8.83670e-05 5.03500e-04 4.44900e-02 -3.74880e-02 -1.48640e-03 -4.30620e-03 -6.04060e-05 4.32830e-04 4.36900e-02 -3.71720e-02 -1.43630e-03 -2.77200e-03 -4.15880e-05 3.82730e-04 4.29020e-02 -3.88070e-02 -1.39450e-03 1.57130e-03 -1.86050e-05 3.39700e-04 4.71330e-02 -3.64600e-02 -1.32360e-03 5.56060e-05 -2.44400e-05 3.23750e-04 4.13390e-02 -3.60750e-02 -1.26470e-03 1.35310e-03 -2.25230e-05 3.06140e-04 4.05630e-02 -3.56790e-02 -1.20820e-03 2.57380e-03 -2.30580e-05 2.92350e-04 3.97940e-02 -3.52700e-02 -1.15070e-03 3.72630e-03 -2.51690e-05 2.81640e-04 3.90270e-02 -3.48540e-02 -1.09570e-03 4.80960e-03 -2.79990e-05 2.72350e-04 3.82660e-02 -3.44280e-02 -1.04120e-03 5.82930e-03 -3.11250e-05 2.64290e-04 3.75090e-02 -8.57970e-02 -8.35680e-03 1.06420e-03 -4.13820e-04 1.19190e-03 2.78590e-02 -4.47320e-02 -2.42330e-03 7.62790e-03 -1.11680e-04 4.34110e-04 3.57200e-02 -3.31130e-02 -8.89990e-04 8.52070e-03 -3.92750e-05 2.42420e-04 3.52740e-02 -3.26640e-02 -8.43150e-04 9.30310e-03 -4.12340e-05 2.35490e-04 3.45420e-02 -3.22110e-02 -7.98500e-04 1.00310e-02 -4.27590e-05 2.28540e-04 3.38170e-02 -3.17540e-02 -7.55510e-04 1.07060e-02 -4.38940e-05 2.21620e-04 3.31000e-02 -3.12940e-02 -7.14510e-04 1.13300e-02 -4.46580e-05 2.14660e-04 3.23910e-02 -4.33710e-02 -2.62840e-03 8.59360e-03 -5.43590e-05 1.71570e-04 2.68160e-02 -6.79300e-02 -6.53860e-03 2.50390e-03 -7.38660e-05 9.44910e-05 1.65490e-02 -2.98940e-02 -6.01660e-04 1.29140e-02 -4.51580e-05 1.93680e-04 3.03170e-02 -2.94230e-02 -5.67340e-04 1.33510e-02 -4.48410e-05 1.86650e-04 2.96440e-02 -2.89490e-02 -5.34530e-04 1.37440e-02 -4.43330e-05 1.79610e-04 2.89810e-02 -2.84750e-02 -5.03220e-04 1.40960e-02 -4.36550e-05 1.72580e-04 2.83280e-02 -2.79990e-02 -4.73330e-04 1.44080e-02 -4.28280e-05 1.65540e-04 2.76840e-02 -2.57790e-02 -4.44500e-04 1.25580e-02 -4.55020e-05 1.59950e-04 2.48360e-02 -5.63770e-02 -5.17030e-03 6.17900e-03 -7.23330e-05 7.75430e-05 1.40780e-02 -2.65670e-02 -3.91780e-04 1.51190e-02 -3.95940e-05 1.44570e-04 2.58140e-02 -2.60900e-02 -3.67150e-04 1.52850e-02 -3.83050e-05 1.37640e-04 2.52110e-02 -2.56120e-02 -3.43720e-04 1.54180e-02 -3.69270e-05 1.30750e-04 2.46180e-02 -1.60360e-02 9.96780e-04 1.68830e-02 -2.70820e-05 1.44060e-04 2.64730e-02 2.52730e-03 3.68720e-03 1.97740e-02 -7.60700e-06 1.76590e-04 3.08130e-02 -2.08380e-02 2.66140e-04 1.66610e-02 -6.25460e-05 1.95270e-04 2.43430e-02 -2.37050e-02 -2.61200e-04 1.56460e-02 -3.06790e-05 1.03820e-04 2.23410e-02 -2.32300e-02 -2.43180e-04 1.56330e-02 -2.89680e-05 9.72600e-05 2.17960e-02 -4.50710e-02 -3.48670e-03 1.19970e-02 -5.32990e-05 4.43350e-05 1.48340e-02 -2.96870e-02 -1.30680e-03 1.43030e-02 -3.44890e-05 6.91290e-05 1.85810e-02 -3.71630e-03 2.80580e-03 2.16040e-02 7.84840e-06 1.17210e-04 2.87430e-02 -1.53100e-02 8.29260e-04 1.73760e-02 -1.09140e-05 8.47920e-05 2.25110e-02 -2.08710e-02 -1.66920e-04 1.52050e-02 -1.98230e-05 6.58300e-05 1.92010e-02 -2.04030e-02 -1.54190e-04 1.50540e-02 -1.79160e-05 5.98430e-05 1.87060e-02 -1.99360e-02 -1.42220e-04 1.48830e-02 -1.59960e-05 5.39650e-05 1.82200e-02 -1.94710e-02 -1.30980e-04 1.46940e-02 -1.40660e-05 4.81990e-05 1.77410e-02 -1.90070e-02 -1.20440e-04 1.44880e-02 -1.21330e-05 4.25470e-05 1.72690e-02 -1.85450e-02 -1.10570e-04 1.42640e-02 -1.02010e-05 3.70110e-05 1.68040e-02 -1.72720e-02 -1.01520e-04 1.31020e-02 -1.02590e-05 3.28270e-05 1.55700e-02 -1.67180e-02 -1.09350e-04 1.27000e-02 -1.42590e-04 3.14230e-04 1.49990e-02 -1.71660e-02 -8.46730e-05 1.35030e-02 -4.44980e-06 2.11280e-05 1.54480e-02 -1.67090e-02 -7.71820e-05 1.32210e-02 -2.56170e-06 1.60810e-05 1.50080e-02 -1.62530e-02 -7.02170e-05 1.29270e-02 -6.94020e-07 1.11600e-05 1.45730e-02 -6.49870e-03 1.53050e-03 1.61100e-02 1.26470e-04 -1.98150e-04 1.89670e-02 -1.37040e-02 2.65370e-04 1.32410e-02 2.84610e-05 -3.87700e-05 1.48700e-02 -1.48940e-02 -5.22160e-05 1.19740e-02 4.75340e-06 -2.83220e-06 1.33010e-02 -1.44430e-02 -4.70980e-05 1.16360e-02 6.50770e-06 -7.23610e-06 1.28860e-02 -1.39930e-02 -4.23810e-05 1.12890e-02 8.22700e-06 -1.15080e-05 1.24750e-02 -1.35450e-02 -3.80410e-05 1.09330e-02 9.90880e-06 -1.56480e-05 1.20690e-02 -1.30980e-02 -3.40580e-05 1.05680e-02 1.15510e-05 -1.96560e-05 1.16660e-02 -1.26510e-02 -3.04090e-05 1.01960e-02 1.31520e-05 -2.35300e-05 1.12670e-02 -1.22060e-02 -2.70730e-05 9.81740e-03 1.47090e-05 -2.72710e-05 1.08710e-02 -1.17610e-02 -2.40320e-05 9.43200e-03 1.62200e-05 -3.08790e-05 1.04780e-02 -1.13170e-02 -2.12640e-05 9.04050e-03 1.76840e-05 -3.43530e-05 1.00880e-02 -9.26220e-03 2.18210e-04 8.96120e-03 2.48480e-05 -3.38940e-05 1.03300e-02 -5.65180e-03 7.08390e-04 9.23880e-03 3.86090e-05 -2.92580e-05 1.12090e-02 -5.91410e-03 6.12060e-04 8.83400e-03 3.92960e-05 -3.42260e-05 1.07420e-02 -8.28630e-03 1.88500e-04 7.77730e-03 2.91560e-05 -4.39830e-05 9.15500e-03 -9.10830e-03 -1.09220e-05 7.00930e-03 2.42530e-05 -4.97310e-05 8.17310e-03 -8.66830e-03 -9.43940e-06 6.59110e-03 2.54080e-05 -5.24050e-05 7.79580e-03 -8.22880e-03 -8.11700e-06 6.16990e-03 2.65040e-05 -5.49420e-05 7.42000e-03 -7.78970e-03 -6.94170e-06 5.74590e-03 2.75410e-05 -5.73340e-05 7.04550e-03 -7.35100e-03 -5.90100e-06 5.31950e-03 2.85120e-05 -5.95730e-05 6.67220e-03 -6.91270e-03 -4.98220e-06 4.89100e-03 2.94090e-05 -6.16430e-05 6.30000e-03 -6.54200e-03 -4.35090e-06 4.52450e-03 2.98050e-05 -6.30050e-05 5.98500e-03 -6.03710e-03 -3.46730e-06 4.02900e-03 3.09320e-05 -6.51690e-05 5.55810e-03 -5.59980e-03 -2.85030e-06 3.59610e-03 3.15180e-05 -6.65410e-05 5.18840e-03 -5.16300e-03 -2.31490e-06 3.16230e-03 3.19500e-05 -6.75730e-05 4.81940e-03 -4.72680e-03 -1.85290e-06 2.72810e-03 3.21920e-05 -6.81890e-05 4.45120e-03 -4.29140e-03 -1.45730e-06 2.29390e-03 3.22070e-05 -6.83070e-05 4.08390e-03 -3.70300e-03 -1.01390e-06 1.70600e-03 3.19100e-05 -6.76180e-05 3.58780e-03 -3.42540e-03 -8.43220e-07 1.42830e-03 3.15080e-05 -6.69480e-05 3.35370e-03 -2.99670e-03 -6.17940e-07 9.99380e-04 3.09520e-05 -6.58140e-05 2.99240e-03 -2.57340e-03 -4.45960e-07 5.75570e-04 3.06710e-05 -6.52630e-05 2.63550e-03 -2.15800e-03 -3.31970e-07 1.59640e-04 3.14540e-05 -6.70020e-05 2.28530e-03 -1.75260e-03 -2.87450e-07 -2.46340e-04 3.46320e-05 -7.38970e-05 1.94340e-03 -1.34900e-03 -3.14120e-07 -6.50420e-04 4.16620e-05 -8.90990e-05 1.60300e-03 -8.98770e-04 -3.54430e-07 -1.10090e-03 5.35880e-05 -1.14960e-04 1.22310e-03 -6.33400e-04 -3.86650e-07 -1.36640e-03 6.42650e-05 -1.38120e-04 9.99160e-04 -3.49390e-02 -2.81650e-02 -3.03140e-02 1.41460e-02 5.00020e-03 -4.80580e-02 -3.69860e-02 -2.09100e-02 -2.88700e-02 1.39380e-02 1.40670e-02 -4.01820e-03 -3.86960e-02 -1.03380e-02 -2.57020e-02 1.10030e-02 1.93950e-02 5.11770e-02 -3.75570e-02 -5.35930e-03 -2.32310e-02 5.94270e-03 1.70830e-02 6.12280e-02 -3.57630e-02 -2.71970e-03 -2.23670e-02 2.69970e-03 1.28160e-02 5.88740e-02 -1.05700e-01 2.90990e-03 -1.06150e-02 -6.63760e-04 8.48230e-03 5.67850e-02 -5.67570e-02 4.60780e-04 -1.83140e-02 -1.58460e-04 6.86510e-03 5.33870e-02 -3.32470e-02 -9.53160e-04 -2.06920e-02 -1.87550e-04 5.45830e-03 5.19820e-02 -3.34400e-02 -9.27180e-04 -1.93990e-02 -3.46730e-04 4.10720e-03 5.11530e-02 -3.38500e-02 -9.73810e-04 -1.76970e-02 -3.67720e-04 3.11720e-03 5.06210e-02 -3.43550e-02 -9.96430e-04 -1.57880e-02 -3.27230e-04 2.33390e-03 5.01390e-02 -3.48100e-02 -1.00820e-03 -1.37330e-02 -2.49960e-04 1.76750e-03 4.96410e-02 -3.52050e-02 -1.01730e-03 -1.16910e-02 -1.65250e-04 1.33590e-03 4.90930e-02 -3.54750e-02 -1.00580e-03 -9.66440e-03 -8.42720e-05 1.03470e-03 4.84770e-02 -3.56540e-02 -9.97520e-04 -7.73710e-03 -1.57870e-05 8.13530e-04 4.78130e-02 -3.37730e-02 -9.10870e-04 -8.72390e-03 8.50340e-06 7.06210e-04 4.13110e-02 -3.57080e-02 -9.51220e-04 -4.15410e-03 7.63450e-05 5.58650e-04 4.63580e-02 -3.56180e-02 -9.18810e-04 -2.51170e-03 1.01490e-04 4.89610e-04 4.55900e-02 -3.54780e-02 -8.89300e-04 -9.75450e-04 1.15940e-04 4.40440e-04 4.48100e-02 -3.73350e-02 -8.86830e-04 3.35380e-03 1.34920e-04 4.01360e-04 4.90290e-02 -3.50650e-02 -8.19980e-04 1.83150e-03 1.21670e-04 3.86050e-04 4.32240e-02 -3.48120e-02 -7.83380e-04 3.11060e-03 1.17240e-04 3.70980e-04 4.24260e-02 -3.45390e-02 -7.49010e-04 4.31000e-03 1.10330e-04 3.58800e-04 4.16280e-02 -3.42450e-02 -7.13450e-04 5.43880e-03 1.01830e-04 3.49960e-04 4.08310e-02 -3.39380e-02 -6.79920e-04 6.49700e-03 9.28140e-05 3.41770e-04 4.00370e-02 -3.36160e-02 -6.46340e-04 7.49040e-03 8.36300e-05 3.34870e-04 3.92450e-02 -3.32840e-02 -6.14580e-04 8.42000e-03 7.48150e-05 3.27810e-04 3.84590e-02 -3.50600e-02 -6.00820e-04 1.20340e-02 7.11900e-05 3.20040e-04 4.14210e-02 -3.25870e-02 -5.53780e-04 1.01000e-02 5.87110e-05 3.14160e-04 3.69020e-02 -3.22240e-02 -5.25020e-04 1.08550e-02 5.15850e-05 3.07220e-04 3.61320e-02 -3.18530e-02 -4.97680e-04 1.15550e-02 4.51320e-05 2.99910e-04 3.53710e-02 -3.14740e-02 -4.71290e-04 1.22030e-02 3.92530e-05 2.92530e-04 3.46160e-02 -3.10870e-02 -4.46150e-04 1.27990e-02 3.39620e-05 2.84830e-04 3.38710e-02 -4.32110e-02 -2.35790e-03 1.00560e-02 2.24170e-05 2.32230e-04 2.82610e-02 -6.77920e-02 -6.24820e-03 3.98140e-03 3.23130e-06 1.37400e-04 1.79600e-02 -2.98830e-02 -3.76810e-04 1.42990e-02 2.09670e-05 2.60800e-04 3.16880e-02 -2.94690e-02 -3.55710e-04 1.47080e-02 1.74810e-05 2.52450e-04 3.09800e-02 -2.90500e-02 -3.35500e-04 1.50750e-02 1.43460e-05 2.44000e-04 3.02820e-02 -2.86260e-02 -3.16220e-04 1.53990e-02 1.15540e-05 2.35420e-04 2.95940e-02 -2.81970e-02 -2.97790e-04 1.56840e-02 9.06580e-06 2.26770e-04 2.89170e-02 -2.60010e-02 -2.71260e-04 1.38190e-02 2.77200e-06 2.19580e-04 2.60480e-02 -5.66100e-02 -4.97360e-03 7.45520e-03 -2.22790e-05 1.18860e-04 1.52490e-02 -2.68860e-02 -2.47450e-04 1.63150e-02 3.28690e-06 2.00430e-04 2.69480e-02 -2.64420e-02 -2.32210e-04 1.64550e-02 1.86390e-06 1.91600e-04 2.63140e-02 -2.59950e-02 -2.17710e-04 1.65620e-02 6.72800e-07 1.82770e-04 2.56890e-02 -1.64510e-02 1.10740e-03 1.79940e-02 6.66050e-06 1.98220e-04 2.75210e-02 2.07890e-03 3.77550e-03 2.08440e-02 2.16070e-05 2.36820e-04 3.18450e-02 -1.31800e-02 1.65300e-03 2.01200e-02 -1.15150e-04 4.61050e-04 2.88170e-02 -2.09840e-02 3.40840e-04 1.76390e-02 -3.62720e-05 2.31570e-04 2.46760e-02 -2.37290e-02 -1.55310e-04 1.66500e-02 -2.25630e-06 1.39100e-04 2.27220e-02 -4.55780e-02 -3.38880e-03 1.30040e-02 -2.54350e-05 7.52440e-05 1.57140e-02 -3.02120e-02 -1.22580e-03 1.52750e-02 -1.05130e-05 1.03910e-04 1.94480e-02 -4.27460e-03 2.85190e-03 2.25130e-02 2.77530e-05 1.59920e-04 2.95870e-02 -1.58660e-02 8.85750e-04 1.82850e-02 8.82490e-06 1.20730e-04 2.33310e-02 -2.14290e-02 -1.07720e-04 1.61010e-02 -1.11490e-06 9.74070e-05 1.99980e-02 -2.09680e-02 -9.97370e-05 1.59260e-02 -5.07990e-07 8.94140e-05 1.94790e-02 -2.05060e-02 -9.22230e-05 1.57330e-02 2.03530e-07 8.15530e-05 1.89690e-02 -2.00430e-02 -8.51560e-05 1.55210e-02 1.01040e-06 7.38340e-05 1.84670e-02 -1.95810e-02 -7.85160e-05 1.52920e-02 1.90430e-06 6.62590e-05 1.79720e-02 -1.69880e-02 2.29420e-04 1.53680e-02 -1.77840e-05 1.07270e-04 1.81200e-02 -1.31740e-02 6.46740e-04 1.49510e-02 -4.43500e-05 1.63830e-04 1.79810e-02 -1.81940e-02 -6.09830e-05 1.45100e-02 5.02630e-06 4.44630e-05 1.65320e-02 -1.77310e-02 -5.58750e-05 1.42200e-02 6.18810e-06 3.75200e-05 1.60660e-02 -1.72690e-02 -5.11070e-05 1.39170e-02 7.39860e-06 3.07450e-05 1.56060e-02 -1.68080e-02 -4.66620e-05 1.36020e-02 8.65080e-06 2.41410e-05 1.51510e-02 -6.92030e-03 1.51920e-03 1.65610e-02 3.64320e-05 3.84510e-05 1.93790e-02 -1.27410e-02 4.88800e-04 1.40210e-02 2.05570e-05 1.84400e-05 1.57940e-02 -1.54240e-02 -3.51130e-05 1.25870e-02 1.25930e-05 5.37880e-06 1.38220e-02 -1.49630e-02 -3.18080e-05 1.22290e-02 1.39490e-05 -5.17790e-07 1.33890e-02 -1.45030e-02 -2.87520e-05 1.18620e-02 1.53180e-05 -6.23290e-06 1.29600e-02 -1.40430e-02 -2.59310e-05 1.14850e-02 1.66930e-05 -1.17660e-05 1.25360e-02 -1.35840e-02 -2.33310e-05 1.11010e-02 1.80710e-05 -1.71150e-05 1.21160e-02 -1.31250e-02 -2.09390e-05 1.07100e-02 1.94460e-05 -2.22790e-05 1.16990e-02 -1.26660e-02 -1.87420e-05 1.03120e-02 2.08140e-05 -2.72600e-05 1.12860e-02 -1.22070e-02 -1.67300e-05 9.90690e-03 2.21710e-05 -3.20550e-05 1.08770e-02 -1.17490e-02 -1.48890e-05 9.49630e-03 2.35120e-05 -3.66660e-05 1.04700e-02 -9.67710e-03 2.24870e-04 9.40100e-03 3.05450e-05 -3.69500e-05 1.07010e-02 -6.04660e-03 7.16430e-04 9.66570e-03 4.47190e-05 -3.24600e-05 1.15740e-02 -6.28560e-03 6.19850e-04 9.23490e-03 4.52930e-05 -3.88880e-05 1.10840e-02 -8.64930e-03 1.93230e-04 8.15570e-03 3.50360e-05 -5.01340e-05 9.47350e-03 -9.46240e-03 -7.89340e-06 7.37100e-03 2.98660e-05 -5.69680e-05 8.47540e-03 -9.00580e-03 -6.86760e-06 6.93430e-03 3.10420e-05 -6.04790e-05 8.08260e-03 -8.54940e-03 -5.94520e-06 6.49460e-03 3.21790e-05 -6.38050e-05 7.69130e-03 -8.09320e-03 -5.11820e-06 6.05220e-03 3.32710e-05 -6.69390e-05 7.30140e-03 -7.63720e-03 -4.37930e-06 5.60750e-03 3.43100e-05 -6.98730e-05 6.91280e-03 -7.18150e-03 -3.72030e-06 5.16080e-03 3.52880e-05 -7.25920e-05 6.52530e-03 -6.46690e-03 4.20590e-05 4.82760e-03 3.91900e-05 -7.84180e-05 6.35440e-03 -4.85700e-03 2.31440e-04 4.72010e-03 5.38380e-05 -9.29750e-05 6.70780e-03 -5.81590e-03 -2.16060e-06 3.81170e-03 3.76760e-05 -7.91350e-05 5.36860e-03 -5.36160e-03 -1.76010e-06 3.36020e-03 3.81950e-05 -8.05910e-05 4.98490e-03 -4.90830e-03 -1.41090e-06 2.90870e-03 3.85030e-05 -8.15350e-05 4.60230e-03 -4.45620e-03 -1.10900e-06 2.45770e-03 3.85440e-05 -8.18510e-05 4.22110e-03 -3.84490e-03 -7.74010e-07 1.84710e-03 3.81950e-05 -8.11050e-05 3.70610e-03 -3.55890e-03 -6.34610e-07 1.56110e-03 3.76340e-05 -8.02110e-05 3.46500e-03 -3.11610e-03 -4.58740e-07 1.11800e-03 3.67530e-05 -7.84140e-05 3.09190e-03 -2.67900e-03 -3.24010e-07 6.80580e-04 3.59990e-05 -7.68630e-05 2.72370e-03 -2.24890e-03 -2.33230e-07 2.50110e-04 3.63410e-05 -7.76470e-05 2.36130e-03 -1.82530e-03 -1.95930e-07 -1.73860e-04 3.98740e-05 -8.53060e-05 2.00430e-03 -1.39940e-03 -2.18790e-07 -6.00130e-04 4.98500e-05 -1.06860e-04 1.64530e-03 -9.24340e-04 -1.67330e-07 -1.07530e-03 6.91260e-05 -1.48510e-04 1.24460e-03 -6.46620e-04 -9.24610e-08 -1.35300e-03 8.73430e-05 -1.87870e-04 1.01020e-03 -4.51450e-02 -3.23980e-02 -3.69850e-02 2.07200e-02 5.06060e-03 -5.86720e-02 -4.35200e-02 -1.59540e-02 -2.97830e-02 1.58640e-02 1.44380e-02 -2.06930e-02 -3.42490e-02 -3.25160e-03 -2.19020e-02 8.16810e-03 1.80190e-02 2.67400e-02 -2.83440e-02 -1.75130e-03 -2.13750e-02 3.78080e-03 1.34200e-02 4.04530e-02 -2.51110e-02 -5.94810e-04 -2.07290e-02 1.68710e-03 9.41980e-03 4.52120e-02 -9.53760e-02 1.76410e-03 -1.12480e-02 -2.07710e-04 5.69350e-03 5.02860e-02 -4.71900e-02 5.87480e-04 -1.71050e-02 9.11810e-05 4.59860e-03 4.89760e-02 -2.44280e-02 -2.31890e-04 -1.86210e-02 2.34530e-04 3.56350e-03 4.94280e-02 -2.55950e-02 -2.81340e-04 -1.70090e-02 2.00510e-04 2.63900e-03 5.03600e-02 -2.69320e-02 -3.21180e-04 -1.49930e-02 2.33220e-04 1.95850e-03 5.10520e-02 -2.82780e-02 -3.62600e-04 -1.28560e-02 2.86020e-04 1.43570e-03 5.14420e-02 -2.94710e-02 -3.74880e-04 -1.06230e-02 3.52630e-04 1.06400e-03 5.15350e-02 -3.04930e-02 -3.94850e-04 -8.46540e-03 4.12960e-04 7.86850e-04 5.13780e-02 -3.12930e-02 -3.91900e-04 -6.36710e-03 4.64880e-04 6.00380e-04 5.10080e-02 -3.19140e-02 -3.96370e-04 -4.40700e-03 5.02570e-04 4.67470e-04 5.04910e-02 -3.02590e-02 -3.01600e-04 -5.38270e-03 5.02740e-04 4.05330e-04 4.40520e-02 -3.26610e-02 -3.80920e-04 -8.37120e-04 5.39180e-04 3.26850e-04 4.91470e-02 -3.28460e-02 -3.66970e-04 7.72200e-04 5.40900e-04 2.93990e-04 4.83820e-02 -3.29500e-02 -3.56920e-04 2.26470e-03 5.34530e-04 2.73340e-04 4.75870e-02 -3.51190e-02 -3.99630e-04 6.51880e-03 5.32550e-04 2.62290e-04 5.17640e-02 -3.29600e-02 -3.29370e-04 4.96460e-03 5.05620e-04 2.57550e-04 4.59350e-02 -3.28960e-02 -3.14270e-04 6.18470e-03 4.86410e-04 2.55900e-04 4.50950e-02 -3.28010e-02 -3.01140e-04 7.32370e-03 4.65760e-04 2.55540e-04 4.42520e-02 -3.26780e-02 -2.86720e-04 8.39110e-03 4.44410e-04 2.56180e-04 4.34070e-02 -3.25330e-02 -2.73760e-04 9.38780e-03 4.23040e-04 2.56760e-04 4.25630e-02 -3.23660e-02 -2.60310e-04 1.03200e-02 4.01980e-04 2.57190e-04 4.17220e-02 -3.21820e-02 -2.47950e-04 1.11880e-02 3.81530e-04 2.57090e-04 4.08840e-02 -3.41630e-02 -2.73130e-04 1.47160e-02 3.64420e-04 2.57710e-04 4.37740e-02 -3.17630e-02 -2.23970e-04 1.27490e-02 3.42850e-04 2.55200e-04 3.92230e-02 -3.15300e-02 -2.12570e-04 1.34440e-02 3.24730e-04 2.53310e-04 3.84010e-02 -3.12820e-02 -2.01850e-04 1.40860e-02 3.07430e-04 2.50840e-04 3.75870e-02 -3.10190e-02 -1.91410e-04 1.46760e-02 2.90910e-04 2.47770e-04 3.67810e-02 -3.07420e-02 -1.81520e-04 1.52150e-02 2.75150e-04 2.44180e-04 3.59840e-02 -4.29450e-02 -2.09600e-03 1.24570e-02 2.60130e-04 2.00800e-04 3.03160e-02 -6.75760e-02 -5.97710e-03 6.40840e-03 2.43770e-04 1.20340e-04 1.99500e-02 -2.98330e-02 -1.54110e-04 1.65500e-02 2.32090e-04 2.30490e-04 3.36480e-02 -2.95060e-02 -1.45760e-04 1.69060e-02 2.19040e-04 2.25110e-04 3.28900e-02 -2.91670e-02 -1.37750e-04 1.72190e-02 2.06600e-04 2.19360e-04 3.21430e-02 -2.88190e-02 -1.30110e-04 1.74920e-02 1.94740e-04 2.13310e-04 3.14070e-02 -2.84600e-02 -1.22790e-04 1.77260e-02 1.83450e-04 2.06970e-04 3.06830e-02 -2.63010e-02 -9.55030e-05 1.58320e-02 1.70250e-04 2.00840e-04 2.77860e-02 -5.69480e-02 -4.79060e-03 9.49580e-03 1.53100e-04 1.15680e-04 1.69060e-02 -2.73310e-02 -1.02750e-04 1.82080e-02 1.52790e-04 1.86610e-04 2.85770e-02 -2.69380e-02 -9.66640e-05 1.83000e-02 1.43580e-04 1.79480e-04 2.78980e-02 -2.65380e-02 -9.08680e-05 1.83600e-02 1.34860e-04 1.72220e-04 2.72300e-02 -1.70370e-02 1.22430e-03 1.97310e-02 1.28760e-04 1.85070e-04 2.90360e-02 1.45260e-03 3.88050e-03 2.25080e-02 1.27640e-04 2.17200e-04 3.33500e-02 -2.99180e-03 3.54280e-03 2.55330e-02 1.23690e-04 2.02190e-04 3.54810e-02 -1.10700e-02 2.09040e-03 2.17690e-02 4.91210e-05 2.80160e-04 2.99660e-02 -2.13610e-02 4.34790e-04 1.91130e-02 5.56530e-05 2.17110e-04 2.53770e-02 -4.60830e-02 -3.30340e-03 1.39030e-02 -2.09300e-04 5.72090e-04 1.64810e-02 -2.84720e-02 -7.16810e-04 1.76980e-02 2.68190e-05 2.07070e-04 2.19800e-02 -5.07440e-03 2.90910e-03 2.39030e-02 9.51050e-05 1.50610e-04 3.08230e-02 -1.66710e-02 9.47210e-04 1.96760e-02 8.11410e-05 1.17740e-04 2.45250e-02 -2.22420e-02 -4.64850e-05 1.74730e-02 7.08480e-05 9.78470e-05 2.11530e-02 -2.17900e-02 -4.32200e-05 1.72600e-02 6.64550e-05 9.06420e-05 2.06000e-02 -2.13360e-02 -4.01370e-05 1.70280e-02 6.23700e-05 8.35370e-05 2.00570e-02 -2.08780e-02 -3.72290e-05 1.67800e-02 5.85820e-05 7.65430e-05 1.95220e-02 -2.04190e-02 -3.44870e-05 1.65140e-02 5.50760e-05 6.96700e-05 1.89950e-02 -1.50470e-02 6.89850e-04 1.71010e-02 5.59770e-05 7.16550e-05 2.00600e-02 -4.85570e-03 2.15920e-03 1.86150e-02 6.35300e-05 8.26990e-05 2.27300e-02 -1.90270e-02 -2.71970e-05 1.56260e-02 4.61310e-05 4.98600e-05 1.74630e-02 -1.85600e-02 -2.50570e-05 1.53010e-02 4.36340e-05 4.35510e-05 1.69670e-02 -1.80910e-02 -2.30500e-05 1.49650e-02 4.13590e-05 3.73990e-05 1.64780e-02 -1.76210e-02 -2.11700e-05 1.46160e-02 3.92950e-05 3.14080e-05 1.59960e-02 -7.70780e-03 1.54070e-03 1.75140e-02 5.25800e-05 4.13770e-05 2.02020e-02 -1.35270e-02 5.09150e-04 1.49610e-02 4.15020e-05 2.53580e-05 1.65860e-02 -1.62030e-02 -1.62390e-05 1.35050e-02 3.42640e-05 1.44500e-05 1.45840e-02 -1.57280e-02 -1.48120e-05 1.31150e-02 3.29400e-05 9.14590e-06 1.41250e-02 -1.52520e-02 -1.34840e-05 1.27170e-02 3.17760e-05 4.01960e-06 1.36700e-02 -1.47760e-02 -1.22510e-05 1.23100e-02 3.07620e-05 -9.27130e-07 1.32200e-02 -1.42990e-02 -1.11060e-05 1.18960e-02 2.98910e-05 -5.69300e-06 1.27750e-02 -1.38210e-02 -1.00460e-05 1.14750e-02 2.91520e-05 -1.02770e-05 1.23340e-02 -1.33430e-02 -9.06490e-06 1.10470e-02 2.85370e-05 -1.46800e-05 1.18960e-02 -1.28640e-02 -8.15870e-06 1.06130e-02 2.80380e-05 -1.89000e-05 1.14620e-02 -1.23850e-02 -7.32240e-06 1.01730e-02 2.76470e-05 -2.29400e-05 1.10320e-02 -1.02860e-02 2.33990e-04 1.00540e-02 3.06620e-05 -2.38990e-05 1.12470e-02 -6.62440e-03 7.29430e-04 1.03000e-02 3.91450e-05 -2.10300e-05 1.21110e-02 -6.82960e-03 6.32120e-04 9.83090e-03 3.81760e-05 -2.65460e-05 1.15880e-02 -9.18300e-03 1.99920e-04 8.71700e-03 3.12120e-05 -3.50320e-05 9.94230e-03 -9.98390e-03 -4.05730e-06 7.90660e-03 2.70390e-05 -4.04570e-05 8.92030e-03 -9.50290e-03 -3.56180e-06 7.44220e-03 2.71360e-05 -4.34340e-05 8.50460e-03 -9.02170e-03 -3.11090e-06 6.97490e-03 2.72890e-05 -4.62370e-05 8.09060e-03 -8.54030e-03 -2.70110e-06 6.50510e-03 2.74890e-05 -4.88650e-05 7.67810e-03 -8.05890e-03 -2.33060e-06 6.03310e-03 2.77280e-05 -5.13130e-05 7.26690e-03 -7.57740e-03 -1.99550e-06 5.55920e-03 2.79940e-05 -5.35740e-05 6.85700e-03 -6.57740e-03 7.57960e-05 5.20170e-03 3.01470e-05 -5.43360e-05 6.74360e-03 -5.09120e-03 2.38910e-04 4.98630e-03 3.62070e-05 -5.27460e-05 6.92960e-03 -6.13350e-03 -1.18120e-06 4.12910e-03 2.87880e-05 -5.90290e-05 5.63350e-03 -5.65310e-03 -9.65960e-07 3.65110e-03 2.89680e-05 -6.02740e-05 5.22780e-03 -5.17370e-03 -7.76210e-07 3.17330e-03 2.90410e-05 -6.11220e-05 4.82350e-03 -4.69610e-03 -6.09930e-07 2.69660e-03 2.89520e-05 -6.14640e-05 4.42100e-03 -4.04990e-03 -4.40830e-07 2.05110e-03 2.86070e-05 -6.09250e-05 3.87700e-03 -3.75090e-03 -3.45510e-07 1.75200e-03 2.80460e-05 -6.01880e-05 3.62500e-03 -3.28660e-03 -2.46420e-07 1.28770e-03 2.71910e-05 -5.85170e-05 3.23430e-03 -2.83060e-03 -1.69280e-07 8.31490e-04 2.62670e-05 -5.66140e-05 2.85040e-03 -2.38350e-03 -1.16960e-07 3.84170e-04 2.60100e-05 -5.60840e-05 2.47400e-03 -1.94150e-03 -8.69040e-08 -5.79840e-05 2.81760e-05 -6.07390e-05 2.10190e-03 -1.48980e-03 -9.92360e-08 -5.09830e-04 3.66460e-05 -7.89840e-05 1.72140e-03 -9.77160e-04 -2.42650e-08 -1.02250e-03 5.68740e-05 -1.22540e-04 1.28910e-03 -6.79240e-04 8.64120e-08 -1.32030e-03 7.88710e-05 -1.69890e-04 1.03770e-03 -6.48350e-02 -3.60700e-02 -4.17340e-02 2.82480e-02 5.22440e-03 -8.34780e-02 -5.10070e-02 -1.07160e-02 -2.80880e-02 1.42450e-02 1.47580e-02 -4.61270e-02 -2.55440e-02 -2.65730e-04 -1.90220e-02 3.41650e-03 1.46710e-02 6.58920e-03 -1.99080e-02 -1.63460e-03 -2.14000e-02 2.59060e-03 1.03980e-02 2.82280e-02 -1.62170e-02 -2.44600e-04 -1.95460e-02 8.62320e-04 7.31350e-03 3.80920e-02 -8.83160e-02 1.88870e-03 -9.98800e-03 -1.18920e-04 4.87780e-03 4.75300e-02 -4.06760e-02 7.07390e-05 -1.60590e-02 3.13720e-04 4.19410e-03 4.71800e-02 -1.87300e-02 -3.66730e-04 -1.72280e-02 5.98810e-04 3.58940e-03 4.88180e-02 -2.06610e-02 -2.70430e-04 -1.51500e-02 5.19680e-04 3.02330e-03 5.07900e-02 -2.28210e-02 -3.00190e-04 -1.29430e-02 5.83230e-04 2.63030e-03 5.22220e-02 -2.47810e-02 -2.62310e-04 -1.05450e-02 5.79270e-04 2.30580e-03 5.30930e-02 -2.65410e-02 -2.60470e-04 -8.19900e-03 6.20390e-04 2.08660e-03 5.34970e-02 -2.79880e-02 -2.42340e-04 -5.92920e-03 6.27410e-04 1.90680e-03 5.35170e-02 -2.91530e-02 -2.33180e-04 -3.79580e-03 6.42730e-04 1.78900e-03 5.32460e-02 -3.00510e-02 -2.22980e-04 -1.81100e-03 6.38090e-04 1.69250e-03 5.27680e-02 -2.85400e-02 -1.29150e-04 -2.80480e-03 6.12550e-04 1.64590e-03 4.63400e-02 -3.12210e-02 -2.06090e-04 1.72800e-03 6.12230e-04 1.57480e-03 5.14190e-02 -3.15710e-02 -1.97150e-04 3.30280e-03 5.89880e-04 1.53630e-03 5.06300e-02 -3.18160e-02 -1.90690e-04 4.75820e-03 5.61940e-04 1.50140e-03 4.98030e-02 -3.41700e-02 -2.52260e-04 8.95510e-03 5.41870e-04 1.46660e-03 5.39330e-02 -3.20730e-02 -1.75930e-04 7.37130e-03 4.99710e-04 1.44510e-03 4.80800e-02 -3.21200e-02 -1.68060e-04 8.54630e-03 4.67060e-04 1.41950e-03 4.72020e-02 -3.21300e-02 -1.61510e-04 9.64050e-03 4.34400e-04 1.39350e-03 4.63200e-02 -3.21070e-02 -1.54040e-04 1.06630e-02 4.02300e-04 1.36790e-03 4.54350e-02 -3.20590e-02 -1.47500e-04 1.16150e-02 3.71150e-04 1.34160e-03 4.45520e-02 -3.19850e-02 -1.40460e-04 1.25030e-02 3.41110e-04 1.31500e-03 4.36710e-02 -3.18900e-02 -1.34080e-04 1.33290e-02 3.12420e-04 1.28780e-03 4.27930e-02 -3.39930e-02 -1.76030e-04 1.67970e-02 2.88580e-04 1.25350e-03 4.56280e-02 -3.16360e-02 -1.21410e-04 1.48040e-02 2.59100e-04 1.23200e-03 4.10520e-02 -3.14790e-02 -1.15290e-04 1.54580e-02 2.34520e-04 1.20340e-03 4.01910e-02 -3.13030e-02 -1.09580e-04 1.60580e-02 2.11310e-04 1.17440e-03 3.93370e-02 -3.11090e-02 -1.03930e-04 1.66070e-02 1.89410e-04 1.14510e-03 3.84910e-02 -3.08970e-02 -9.86210e-05 1.71060e-02 1.68810e-04 1.11560e-03 3.76550e-02 -4.31810e-02 -2.03750e-03 1.43260e-02 1.46080e-04 1.05660e-03 3.19320e-02 -6.79110e-02 -5.96270e-03 8.27230e-03 1.18800e-04 9.70330e-04 2.14960e-02 -3.01590e-02 -8.37710e-05 1.83230e-02 1.14210e-04 1.02600e-03 3.52040e-02 -2.98810e-02 -7.92590e-05 1.86400e-02 9.82770e-05 9.95960e-04 3.44090e-02 -2.95890e-02 -7.49110e-05 1.89160e-02 8.34050e-05 9.65920e-04 3.36250e-02 -2.92830e-02 -7.07770e-05 1.91510e-02 6.95540e-05 9.35950e-04 3.28530e-02 -2.89630e-02 -6.68070e-05 1.93480e-02 5.66870e-05 9.06060e-04 3.20920e-02 -2.68240e-02 -3.66480e-05 1.74320e-02 4.09360e-05 8.83750e-04 2.91750e-02 -5.75780e-02 -4.79120e-03 1.10840e-02 1.60840e-05 7.89180e-04 1.82050e-02 -2.79330e-02 -5.59640e-05 1.97220e-02 2.36060e-05 8.17360e-04 2.98820e-02 -2.75670e-02 -5.26730e-05 1.97780e-02 1.43010e-05 7.88220e-04 2.91700e-02 -2.71920e-02 -4.95410e-05 1.98040e-02 5.79570e-06 7.59370e-04 2.84700e-02 -1.76890e-02 1.28010e-03 2.11390e-02 1.39970e-06 7.50060e-04 3.02640e-02 8.27190e-04 3.96720e-03 2.38780e-02 3.72220e-06 7.59650e-04 3.45860e-02 -3.65360e-03 3.61550e-03 2.68450e-02 3.09390e-06 7.12810e-04 3.66590e-02 -2.28180e-03 3.58300e-03 2.50440e-02 -4.82050e-06 6.91030e-04 3.42930e-02 -1.80350e-02 1.14780e-03 2.18000e-02 -1.88040e-05 6.32020e-04 2.84000e-02 -2.47630e-02 -3.36720e-05 1.93660e-02 -3.02680e-05 5.93570e-04 2.45140e-02 -2.55940e-02 -4.57890e-05 2.06110e-02 -3.04710e-05 5.60570e-04 2.51640e-02 -5.79040e-03 2.96560e-03 2.50620e-02 -1.79450e-05 5.69020e-04 3.18490e-02 -1.74220e-02 9.80500e-04 2.08210e-02 -3.27940e-05 5.25520e-04 2.55050e-02 -2.30110e-02 -2.55380e-05 1.85950e-02 -4.23830e-05 4.91600e-04 2.20970e-02 -2.25610e-02 -2.37690e-05 1.83530e-02 -4.41940e-05 4.67320e-04 2.15180e-02 -2.21050e-02 -2.20970e-05 1.80920e-02 -4.55730e-05 4.43570e-04 2.09480e-02 -2.16460e-02 -2.05190e-05 1.78140e-02 -4.65470e-05 4.20330e-04 2.03880e-02 -2.11820e-02 -1.90310e-05 1.75200e-02 -4.71420e-05 3.97630e-04 1.98360e-02 -1.57930e-02 7.13600e-04 1.80810e-02 -4.30770e-05 3.85020e-04 2.08900e-02 -5.57010e-03 2.20040e-03 1.95710e-02 -3.17890e-05 3.82780e-04 2.35620e-02 -1.97720e-02 -1.50640e-05 1.65480e-02 -4.68950e-05 3.32800e-04 1.82320e-02 -1.92960e-02 -1.38970e-05 1.61970e-02 -4.62140e-05 3.12290e-04 1.77120e-02 -1.88170e-02 -1.28010e-05 1.58340e-02 -4.52700e-05 2.92350e-04 1.72000e-02 -1.83350e-02 -1.17740e-05 1.54590e-02 -4.40860e-05 2.72970e-04 1.66950e-02 -8.37090e-03 1.56800e-03 1.83180e-02 -2.47720e-05 2.64830e-04 2.08930e-02 -1.42040e-02 5.23220e-04 1.57480e-02 -3.43110e-05 2.39740e-04 1.72450e-02 -1.68790e-02 -9.07230e-06 1.42700e-02 -3.92900e-05 2.18250e-04 1.52180e-02 -1.63900e-02 -8.28770e-06 1.38550e-02 -3.73420e-05 2.01150e-04 1.47370e-02 -1.58990e-02 -7.55630e-06 1.34310e-02 -3.52480e-05 1.84620e-04 1.42610e-02 -1.54060e-02 -6.87610e-06 1.29990e-02 -3.30260e-05 1.68660e-04 1.37910e-02 -1.49130e-02 -6.24320e-06 1.25600e-02 -3.06930e-05 1.53270e-04 1.33250e-02 -1.44180e-02 -5.65590e-06 1.21150e-02 -2.82650e-05 1.38450e-04 1.28630e-02 -1.39210e-02 -5.11160e-06 1.16620e-02 -2.57570e-05 1.24200e-04 1.24060e-02 -1.34240e-02 -4.60730e-06 1.12040e-02 -2.31850e-05 1.10510e-04 1.19520e-02 -1.29260e-02 -4.14050e-06 1.07410e-02 -2.05630e-05 9.73850e-05 1.15020e-02 -1.08020e-02 2.40680e-04 1.06030e-02 -1.47970e-05 8.86400e-05 1.17040e-02 -7.10810e-03 7.43310e-04 1.08360e-02 -3.45580e-06 8.50730e-05 1.25640e-02 -7.28570e-03 6.44450e-04 1.03340e-02 -7.78460e-07 6.89110e-05 1.20120e-02 -9.63320e-03 2.05050e-04 9.18940e-03 -5.04640e-06 5.19900e-05 1.03360e-02 -1.04250e-02 -2.30530e-06 8.35680e-03 -7.16840e-06 4.00870e-05 9.29340e-03 -9.92270e-03 -2.02420e-06 7.86930e-03 -4.52110e-06 3.02720e-05 8.85870e-03 -9.42020e-03 -1.76750e-06 7.37890e-03 -1.91220e-06 2.09970e-05 8.42580e-03 -8.91740e-03 -1.53290e-06 6.88620e-03 6.46170e-07 1.22620e-05 7.99440e-03 -8.41420e-03 -1.32050e-06 6.39120e-03 3.14210e-06 4.06490e-06 7.56450e-03 -7.91080e-03 -1.12750e-06 5.89440e-03 5.56180e-06 -3.59040e-06 7.13570e-03 -6.88420e-03 7.85810e-05 5.52050e-03 9.59900e-06 -8.82890e-06 7.00890e-03 -5.36710e-03 2.45580e-04 5.29510e-03 1.76670e-05 -1.07460e-05 7.18660e-03 -6.40030e-03 -6.56230e-07 4.39590e-03 1.22030e-05 -2.32170e-05 5.85590e-03 -5.89740e-03 -5.30670e-07 3.89520e-03 1.41380e-05 -2.85710e-05 5.43140e-03 -5.39570e-03 -4.20250e-07 3.39480e-03 1.58830e-05 -3.32630e-05 5.00840e-03 -4.89590e-03 -3.23440e-07 2.89590e-03 1.73920e-05 -3.72180e-05 4.58750e-03 -4.21900e-03 -2.48550e-07 2.21970e-03 1.91040e-05 -4.11870e-05 4.01800e-03 -3.90820e-03 -1.72640e-07 1.90880e-03 1.94970e-05 -4.25770e-05 3.75630e-03 -3.42510e-03 -1.19180e-07 1.42570e-03 2.00240e-05 -4.38860e-05 3.35000e-03 -2.95310e-03 -8.00220e-08 9.53640e-04 2.03030e-05 -4.45410e-05 2.95300e-03 -2.49450e-03 -5.97020e-08 4.94930e-04 2.07970e-05 -4.55780e-05 2.56720e-03 -2.04580e-03 -4.87840e-08 4.62020e-05 2.28370e-05 -4.98860e-05 2.18960e-03 -1.58830e-03 -6.29740e-08 -4.11360e-04 2.96660e-05 -6.45260e-05 1.80440e-03 -1.05190e-03 1.33380e-08 -9.47710e-04 4.86060e-05 -1.05170e-04 1.35220e-03 -7.34480e-04 1.29380e-07 -1.26510e-03 7.12290e-05 -1.53740e-04 1.08440e-03 -2.96140e-01 -1.41520e-01 -1.61710e-01 -9.89100e-02 -1.83970e-03 -7.98410e-02 -2.72890e-01 -4.66620e-02 -8.31500e-02 -4.16100e-02 -1.21130e-02 -4.49900e-02 -2.19480e-01 -7.67970e-04 -1.68760e-02 2.61280e-03 -1.35660e-02 1.16950e-03 -2.22090e-01 -3.43730e-03 -1.80930e-02 5.56900e-04 -9.64940e-03 1.69720e-02 -1.50760e-01 -7.63330e-03 -2.65830e-02 1.10320e-03 -6.61390e-03 4.10300e-02 -1.92890e-01 -6.88020e-04 -1.78000e-02 5.95070e-04 -5.17690e-03 3.17900e-02 -2.11670e-01 -1.54380e-04 -1.57650e-02 7.47490e-04 -4.17800e-03 2.86210e-02 -2.10470e-01 -3.85380e-04 -1.61410e-02 1.36060e-04 -3.38470e-03 2.98350e-02 -2.09110e-01 -1.90740e-04 -1.47150e-02 1.39760e-04 -2.80510e-03 3.02880e-02 -2.08190e-01 -2.65580e-04 -1.34260e-02 -1.47740e-04 -2.35320e-03 3.00120e-02 -2.06680e-01 -1.61270e-04 -1.15580e-02 -2.31910e-04 -2.04010e-03 2.91790e-02 -2.04910e-01 -2.03050e-04 -9.91400e-03 -3.92600e-04 -1.80180e-03 2.79500e-02 -2.02520e-01 -1.41840e-04 -8.17110e-03 -4.60680e-04 -1.64640e-03 2.64660e-02 -1.99790e-01 -1.70200e-04 -6.66690e-03 -5.36840e-04 -1.53020e-03 2.48530e-02 -1.96630e-01 -1.33450e-04 -5.20930e-03 -5.63740e-04 -1.45700e-03 2.31890e-02 -1.93050e-01 -2.80710e-04 -6.65130e-03 -5.66670e-04 -1.41960e-03 1.64620e-02 -1.89620e-01 -1.28710e-04 -2.75550e-03 -5.77670e-04 -1.36560e-03 1.99310e-02 -1.86110e-01 -5.59000e-05 9.92280e-04 -5.78530e-04 -1.32650e-03 2.32340e-02 -1.82050e-01 -1.23510e-04 -7.24550e-04 -5.40170e-04 -1.31450e-03 1.69410e-02 -1.78180e-01 -1.28310e-04 1.56820e-04 -5.12280e-04 -1.29430e-03 1.55720e-02 -1.74280e-01 -1.16670e-04 9.83970e-04 -4.78530e-04 -1.27640e-03 1.42880e-02 -1.70390e-01 -1.17610e-04 1.73760e-03 -4.44790e-04 -1.25820e-03 1.30890e-02 -1.66510e-01 -1.08410e-04 2.44640e-03 -4.09070e-04 -1.24000e-03 1.19710e-02 -1.62660e-01 -1.06960e-04 3.09950e-03 -3.74680e-04 -1.22100e-03 1.09310e-02 -1.58840e-01 -9.93440e-05 3.71450e-03 -3.40220e-04 -1.20120e-03 9.96640e-03 -1.55050e-01 -9.65520e-05 4.28520e-03 -3.07600e-04 -1.18060e-03 9.07340e-03 -1.98830e-01 -6.81960e-03 -4.50630e-04 -2.81680e-04 -1.05100e-03 -1.62870e-03 -1.63410e-01 -2.34040e-03 3.53940e-03 -2.46940e-04 -1.10140e-03 4.17570e-03 -1.43930e-01 -8.09310e-05 5.79460e-03 -2.17090e-04 -1.11380e-03 6.79340e-03 -1.40310e-01 -7.72130e-05 6.23460e-03 -1.90130e-04 -1.09020e-03 6.15700e-03 -1.36730e-01 -7.22280e-05 6.64800e-03 -1.64420e-04 -1.06590e-03 5.57800e-03 -1.33200e-01 -6.85000e-05 7.03420e-03 -1.40350e-04 -1.04120e-03 5.05370e-03 -1.29720e-01 -6.40630e-05 7.39640e-03 -1.17550e-04 -1.01590e-03 4.58180e-03 -1.25690e-01 -8.53650e-05 5.28980e-03 -9.01420e-05 -9.97070e-04 1.09360e-03 -1.22890e-01 -5.64810e-05 8.05090e-03 -7.61370e-05 -9.64340e-04 3.78460e-03 -1.19550e-01 -5.30700e-05 8.34570e-03 -5.74000e-05 -9.38160e-04 3.45460e-03 -1.16260e-01 -4.94870e-05 8.62050e-03 -3.98340e-05 -9.11720e-04 3.16700e-03 -1.13010e-01 -4.63030e-05 8.87590e-03 -2.35080e-05 -8.85170e-04 2.91960e-03 -1.09820e-01 -4.30650e-05 9.11290e-03 -8.29160e-06 -8.58490e-04 2.71000e-03 -1.06670e-01 -4.01210e-05 9.33200e-03 5.78460e-06 -8.31790e-04 2.53580e-03 -1.03570e-01 -3.71910e-05 9.53410e-03 1.88160e-05 -8.05050e-04 2.39500e-03 -1.00020e-01 -6.21090e-05 7.63880e-03 3.78570e-05 -7.84790e-04 -4.31560e-05 -6.86610e-02 4.35440e-03 1.49010e-02 3.36610e-05 -8.06890e-04 1.09530e-02 -9.45860e-02 -2.93650e-05 1.00430e-02 5.18370e-05 -7.25300e-04 2.15040e-03 -9.16890e-02 -2.69700e-05 1.01820e-02 6.09640e-05 -6.98970e-04 2.12130e-03 -8.88420e-02 -2.47240e-05 1.03060e-02 6.92020e-05 -6.72850e-04 2.11500e-03 -6.29980e-02 3.67420e-03 1.85500e-02 5.35380e-05 -6.79120e-04 1.37880e-02 -6.03440e-02 3.59750e-03 1.67730e-02 6.60200e-05 -6.58230e-04 1.17290e-02 -5.85640e-02 3.46610e-03 1.67030e-02 7.14140e-05 -6.30930e-04 1.15060e-02 -5.68120e-02 3.33680e-03 1.66150e-02 7.61060e-05 -6.04050e-04 1.12980e-02 -7.56510e-02 1.38770e-05 1.23050e-02 9.10630e-05 -5.40710e-04 4.00290e-03 -7.27950e-02 -1.33890e-05 1.07600e-02 1.02130e-04 -5.21870e-04 2.45390e-03 -7.02910e-02 -1.18380e-05 1.07880e-02 1.05190e-04 -4.97910e-04 2.55700e-03 -5.06710e-02 2.79750e-03 1.74290e-02 8.23240e-05 -4.94980e-04 1.19120e-02 -4.84530e-02 2.72530e-03 1.59420e-02 9.02740e-05 -4.76270e-04 1.04280e-02 -4.68610e-02 2.61000e-03 1.57640e-02 9.14690e-05 -4.52170e-04 1.02810e-02 -4.52950e-02 2.49710e-03 1.55720e-02 9.21910e-05 -4.28580e-04 1.01410e-02 -4.33000e-02 2.42650e-03 1.42690e-02 9.85580e-05 -4.10860e-04 8.91740e-03 -5.62550e-02 -4.28250e-06 1.06940e-02 1.11890e-04 -3.63100e-04 3.31670e-03 -5.40770e-02 -3.28360e-06 1.06350e-02 1.11340e-04 -3.42260e-04 3.45430e-03 -5.19440e-02 -2.35050e-06 1.05630e-02 1.10400e-04 -3.21910e-04 3.59160e-03 -4.98560e-02 -1.48050e-06 1.04800e-02 1.09080e-04 -3.02070e-04 3.72770e-03 -4.78120e-02 -6.71270e-07 1.03840e-02 1.07420e-04 -2.82740e-04 3.86140e-03 -4.58130e-02 8.02840e-08 1.02760e-02 1.05430e-04 -2.63930e-04 3.99170e-03 -4.37980e-02 2.67290e-05 1.09760e-02 9.61810e-05 -2.42090e-04 4.94660e-03 -4.19440e-02 1.42100e-06 1.00240e-02 1.00590e-04 -2.27880e-04 4.23810e-03 -4.00750e-02 2.01610e-06 9.88010e-03 9.77830e-05 -2.10660e-04 4.35240e-03 -3.82480e-02 2.56330e-06 9.72470e-03 9.47440e-05 -1.93970e-04 4.45960e-03 -3.64640e-02 3.06660e-06 9.55750e-03 9.14960e-05 -1.77830e-04 4.55880e-03 -3.47210e-02 3.52770e-06 9.37870e-03 8.80610e-05 -1.62220e-04 4.64930e-03 -3.30210e-02 3.94900e-06 9.18840e-03 8.44570e-05 -1.47170e-04 4.73030e-03 -3.13620e-02 4.33350e-06 8.98670e-03 8.07040e-05 -1.32650e-04 4.80120e-03 -2.97450e-02 4.68270e-06 8.77370e-03 7.68210e-05 -1.18690e-04 4.86110e-03 -2.81690e-02 4.99890e-06 8.54950e-03 7.28240e-05 -1.05270e-04 4.90950e-03 -2.66330e-02 5.28470e-06 8.31410e-03 6.87330e-05 -9.24020e-05 4.94590e-03 -2.54050e-02 -1.44950e-05 7.74300e-03 7.08270e-05 -8.19330e-05 4.60210e-03 -2.36850e-02 5.77350e-06 7.81050e-03 6.03290e-05 -6.83020e-05 4.97990e-03 -2.22710e-02 5.98050e-06 7.54260e-03 5.60490e-05 -5.70700e-05 4.97650e-03 -2.08970e-02 6.16530e-06 7.26390e-03 5.17370e-05 -4.63810e-05 4.95890e-03 -1.60540e-02 5.61830e-04 8.38010e-03 2.93000e-05 -3.87800e-05 7.09600e-03 -1.52360e-02 5.24860e-04 7.84610e-03 3.00490e-05 -3.06780e-05 6.72800e-03 -1.42830e-02 4.74230e-04 7.42560e-03 2.62430e-05 -2.11960e-05 6.51770e-03 -1.35560e-02 4.39830e-04 6.96740e-03 2.68120e-05 -1.37250e-05 6.21230e-03 -1.46290e-02 6.82480e-06 5.71590e-03 3.01560e-05 -1.03500e-06 4.64270e-03 -1.34940e-02 6.91920e-06 5.37620e-03 2.59170e-05 6.41470e-06 4.53130e-03 -1.23990e-02 7.00770e-06 5.02690e-03 2.17210e-05 1.33160e-05 4.40310e-03 -1.13430e-02 7.09120e-06 4.66800e-03 1.75780e-05 1.96580e-05 4.25800e-03 -1.03260e-02 7.17320e-06 4.29990e-03 1.34830e-05 2.54200e-05 4.09590e-03 -9.79870e-03 -5.14100e-05 3.82070e-03 1.35550e-05 3.07900e-05 3.64730e-03 -9.75080e-03 -1.74610e-04 3.25130e-03 2.00540e-05 3.70130e-05 2.94840e-03 -7.51130e-03 7.39220e-06 3.14300e-03 1.45680e-06 3.88450e-05 3.50890e-03 -6.65050e-03 7.44030e-06 2.74160e-03 -2.53280e-06 4.18050e-05 3.28160e-03 -5.82790e-03 7.37810e-06 2.33390e-03 -6.50340e-06 4.38630e-05 3.04080e-03 -5.04260e-03 7.22370e-06 1.92170e-03 -1.05480e-05 4.48830e-05 2.78920e-03 -3.98060e-03 1.11240e-05 1.34650e-03 -1.90630e-05 4.32370e-05 2.42970e-03 -3.57870e-03 5.64330e-06 1.09330e-03 -1.81200e-05 4.42730e-05 2.26900e-03 -2.89690e-03 2.89070e-06 6.83180e-04 -2.02630e-05 4.44720e-05 2.00810e-03 -2.24290e-03 7.08060e-08 2.81160e-04 -2.05460e-05 4.85460e-05 1.74370e-03 -1.61620e-03 -8.66520e-06 -1.23660e-04 -1.35840e-05 6.62470e-05 1.45330e-03 -9.59680e-04 1.37680e-05 -5.27420e-04 -2.15470e-05 1.04360e-04 1.05020e-03 -6.09490e-04 4.04880e-05 -7.18750e-04 -4.46260e-05 1.44760e-04 7.70360e-04 -2.49600e-01 -1.48450e-01 -1.61410e-01 -7.19990e-02 -2.90680e-03 -5.50670e-02 -2.63220e-01 -7.47800e-02 -1.01010e-01 -4.45100e-02 -1.21830e-02 -2.00870e-02 -2.50330e-01 -1.10110e-02 -3.06050e-02 -8.96410e-03 -1.64260e-02 2.04290e-02 -2.39260e-01 -2.43850e-03 -1.81410e-02 5.61290e-04 -1.20520e-02 2.88150e-02 -1.63290e-01 -5.11290e-03 -2.66980e-02 1.94890e-03 -8.12700e-03 4.67600e-02 -2.03750e-01 -1.81750e-03 -2.03250e-02 1.25780e-03 -5.85780e-03 3.51510e-02 -2.21400e-01 -1.35080e-04 -1.78430e-02 1.27200e-03 -4.28070e-03 3.03120e-02 -2.18080e-01 9.22180e-05 -1.76380e-02 1.06400e-03 -2.96530e-03 3.00340e-02 -2.15550e-01 -9.74790e-05 -1.69740e-02 7.87190e-04 -2.05110e-03 2.95190e-02 -2.13250e-01 -1.01510e-04 -1.56540e-02 5.37830e-04 -1.31570e-03 2.85940e-02 -2.10830e-01 -1.53330e-04 -1.41190e-02 2.74810e-04 -8.16830e-04 2.73800e-02 -2.08220e-01 -2.10070e-04 -1.25030e-02 5.29130e-05 -4.41160e-04 2.59230e-02 -2.05260e-01 -2.13220e-04 -1.08730e-02 -1.39630e-04 -2.02160e-04 2.43270e-02 -2.02060e-01 -2.62540e-04 -9.36540e-03 -2.85390e-04 -3.58320e-05 2.26630e-02 -1.98560e-01 -2.50120e-04 -7.92100e-03 -3.94790e-04 5.93090e-05 2.09890e-02 -1.94820e-01 -4.08930e-04 -9.33280e-03 -4.31050e-04 1.01940e-04 1.42750e-02 -1.91080e-01 -2.63460e-04 -5.40960e-03 -5.13300e-04 1.42930e-04 1.77690e-02 -1.87320e-01 -1.85690e-04 -1.60780e-03 -5.58410e-04 1.53890e-04 2.11120e-02 -1.83190e-01 -2.60310e-04 -3.29520e-03 -5.42780e-04 1.47510e-04 1.48420e-02 -1.79200e-01 -2.63740e-04 -2.36820e-03 -5.37430e-04 1.37210e-04 1.35080e-02 -1.75180e-01 -2.47700e-04 -1.49650e-03 -5.24010e-04 1.22220e-04 1.22600e-02 -1.71180e-01 -2.45000e-04 -6.97320e-04 -5.05340e-04 1.06060e-04 1.10970e-02 -1.67200e-01 -2.30590e-04 5.60500e-05 -4.83430e-04 8.90820e-05 1.00150e-02 -1.63250e-01 -2.24700e-04 7.53630e-04 -4.59890e-04 7.26570e-05 9.01190e-03 -1.59330e-01 -2.11940e-04 1.41230e-03 -4.35600e-04 5.68940e-05 8.08400e-03 -1.55450e-01 -2.04600e-04 2.02640e-03 -4.11360e-04 4.22200e-05 7.22840e-03 -1.99240e-01 -7.02620e-03 -2.69270e-03 -4.06610e-04 1.86200e-04 -3.40650e-03 -1.63670e-01 -2.47410e-03 1.35700e-03 -3.70160e-04 6.78300e-05 2.41600e-03 -1.44090e-01 -1.75440e-04 3.66340e-03 -3.41870e-04 5.10630e-06 5.06140e-03 -1.40390e-01 -1.67620e-04 4.14530e-03 -3.20340e-04 -4.96720e-06 4.46290e-03 -1.36740e-01 -1.58600e-04 4.60020e-03 -2.99660e-04 -1.39120e-05 3.92160e-03 -1.33140e-01 -1.51050e-04 5.02770e-03 -2.79880e-04 -2.18460e-05 3.43490e-03 -1.29590e-01 -1.42880e-04 5.43080e-03 -2.60930e-04 -2.87560e-05 3.00020e-03 -1.25530e-01 -1.68470e-04 3.34910e-03 -2.38780e-04 -3.18400e-05 -4.66050e-04 -1.22650e-01 -1.28260e-04 6.16630e-03 -2.25510e-04 -3.98500e-05 2.27660e-03 -1.19250e-01 -1.21510e-04 6.50110e-03 -2.08980e-04 -4.41350e-05 1.98270e-03 -1.15910e-01 -1.14690e-04 6.81560e-03 -1.93190e-04 -4.76200e-05 1.73080e-03 -1.12620e-01 -1.08380e-04 7.11020e-03 -1.78140e-04 -5.03950e-05 1.51860e-03 -1.09380e-01 -1.02120e-04 7.38610e-03 -1.63790e-04 -5.24750e-05 1.34360e-03 -1.06190e-01 -9.62600e-05 7.64370e-03 -1.50150e-04 -5.39370e-05 1.20350e-03 -1.03060e-01 -9.05140e-05 7.88400e-03 -1.37170e-04 -5.48020e-05 1.09620e-03 -9.94890e-02 -1.18430e-04 6.01120e-03 -1.20190e-04 -5.33050e-05 -1.32270e-03 -6.86490e-02 4.33080e-03 1.43660e-02 1.88720e-05 -3.47360e-04 1.09260e-02 -6.60650e-02 4.21660e-03 1.25930e-02 2.99640e-04 -7.66540e-04 8.88310e-03 -9.10560e-02 -6.99770e-05 8.68050e-03 -9.17230e-05 -5.33050e-05 9.50720e-04 -8.81860e-02 -6.53830e-05 8.84080e-03 -8.18970e-05 -5.18880e-05 9.75030e-04 -6.22480e-02 3.70050e-03 1.71690e-02 -8.55270e-05 -1.12160e-04 1.26770e-02 -5.95860e-02 3.62010e-03 1.54120e-02 -7.34920e-05 -1.06640e-04 1.06350e-02 -5.77930e-02 3.48860e-03 1.53750e-02 -6.61610e-05 -1.01170e-04 1.04420e-02 -5.60300e-02 3.35910e-03 1.53210e-02 -5.93180e-05 -9.55890e-05 1.02610e-02 -7.49080e-02 -1.26140e-05 1.10270e-02 -4.60900e-05 -4.14630e-05 3.01880e-03 -7.20490e-02 -4.17880e-05 9.50140e-03 -3.46240e-05 -3.72940e-05 1.48530e-03 -6.95360e-02 -3.84810e-05 9.56330e-03 -2.85410e-05 -3.41260e-05 1.61510e-03 -4.98610e-02 2.82070e-03 1.62770e-02 -4.05720e-05 -7.26070e-05 1.09940e-02 -4.76430e-02 2.74590e-03 1.48080e-02 -3.18120e-05 -6.68000e-05 9.52480e-03 -4.60510e-02 2.63020e-03 1.46600e-02 -2.75400e-05 -6.10050e-05 9.40320e-03 -4.44870e-02 2.51680e-03 1.44990e-02 -2.36390e-05 -5.52360e-05 9.28770e-03 -4.24930e-02 2.44400e-03 1.32130e-02 -1.61020e-05 -4.95410e-05 8.07850e-03 -5.54880e-02 -2.19390e-05 9.65910e-03 -1.30920e-06 -1.29230e-05 2.52430e-03 -5.33130e-02 -1.96820e-05 9.63000e-03 1.83810e-06 -9.20450e-06 2.68520e-03 -5.11850e-02 -1.75530e-05 9.58830e-03 4.63060e-06 -5.47780e-06 2.84540e-03 -4.91020e-02 -1.55490e-05 9.53410e-03 7.08370e-06 -1.75750e-06 3.00400e-03 -4.70660e-02 -1.36650e-05 9.46740e-03 9.21260e-06 1.94360e-06 3.15990e-03 -4.50740e-02 -1.18950e-05 9.38830e-03 1.10320e-05 5.61300e-06 3.31200e-03 -4.30730e-02 1.73380e-05 1.01290e-02 7.78280e-06 8.35700e-06 4.29740e-03 -4.12250e-02 -8.68070e-06 9.19320e-03 1.38020e-05 1.28120e-05 3.60100e-03 -3.93670e-02 -7.22610e-06 9.07730e-03 1.47810e-05 1.63220e-05 3.73620e-03 -3.75520e-02 -5.86840e-06 8.94940e-03 1.55070e-05 1.97600e-05 3.86390e-03 -3.57810e-02 -4.60180e-06 8.80960e-03 1.59930e-05 2.31160e-05 3.98340e-03 -3.40520e-02 -3.42270e-06 8.65780e-03 1.62540e-05 2.63850e-05 4.09400e-03 -3.23660e-02 -2.32670e-06 8.49420e-03 1.63010e-05 2.95590e-05 4.19480e-03 -3.07220e-02 -1.30930e-06 8.31900e-03 1.61470e-05 3.26320e-05 4.28520e-03 -2.91210e-02 -3.66650e-07 8.13220e-03 1.58030e-05 3.55980e-05 4.36460e-03 -2.75610e-02 5.05270e-07 7.93390e-03 1.52820e-05 3.84520e-05 4.43230e-03 -2.60420e-02 1.31070e-06 7.72430e-03 1.45950e-05 4.11900e-05 4.48770e-03 -2.48240e-02 -1.86810e-05 7.16800e-03 1.82340e-05 4.48130e-05 4.15490e-03 -2.31290e-02 2.73670e-06 7.27150e-03 1.27680e-05 4.63040e-05 4.55940e-03 -2.17340e-02 3.36460e-06 7.02860e-03 1.16490e-05 4.86730e-05 4.57470e-03 -2.03790e-02 3.94070e-06 6.77490e-03 1.04060e-05 5.09130e-05 4.57560e-03 -1.55700e-02 5.64770e-04 7.92180e-03 -7.60430e-06 4.71040e-05 6.72930e-03 -1.47640e-02 5.27170e-04 7.40160e-03 -5.48140e-06 5.01410e-05 6.37200e-03 -1.38320e-02 4.75890e-04 7.00460e-03 -6.61090e-06 5.26310e-05 6.18020e-03 -1.31170e-02 4.40950e-04 6.56010e-03 -4.73800e-06 5.54340e-05 5.88550e-03 -1.42090e-02 6.16500e-06 5.34880e-03 2.62900e-06 6.00840e-05 4.35120e-03 -1.30950e-02 6.50770e-06 5.03310e-03 8.03780e-07 6.14750e-05 4.25810e-03 -1.20210e-02 6.82690e-06 4.70750e-03 -1.10620e-06 6.26910e-05 4.14820e-03 -1.09860e-02 7.13130e-06 4.37240e-03 -3.10380e-06 6.37060e-05 4.02140e-03 -9.99070e-03 7.42270e-06 4.02790e-03 -5.19770e-06 6.44840e-05 3.87760e-03 -9.47610e-03 -5.00680e-05 3.57230e-03 -3.45690e-06 6.53570e-05 3.44740e-03 -9.43250e-03 -1.71250e-04 3.02640e-03 4.06960e-06 6.72290e-05 2.76730e-03 -7.24120e-03 8.30540e-06 2.94080e-03 -1.22250e-05 6.47350e-05 3.34520e-03 -6.40280e-03 8.59430e-06 2.56210e-03 -1.49050e-05 6.37810e-05 3.13570e-03 -5.60300e-03 8.86440e-06 2.17650e-03 -1.78010e-05 6.20850e-05 2.91190e-03 -4.84110e-03 9.02140e-06 1.78520e-03 -2.09010e-05 5.95420e-05 2.67590e-03 -3.81390e-03 1.40250e-05 1.23710e-03 -2.81090e-05 5.36620e-05 2.33380e-03 -3.42680e-03 8.28390e-06 9.92400e-04 -2.69650e-05 5.27880e-05 2.17740e-03 -2.77070e-03 6.33640e-06 5.95570e-04 -2.87190e-05 5.11160e-05 1.91940e-03 -2.14310e-03 2.98690e-06 2.01920e-04 -2.77690e-05 5.58000e-05 1.65190e-03 -1.53360e-03 -3.75070e-06 -1.89260e-04 -2.50940e-05 7.51930e-05 1.35860e-03 -8.94500e-04 3.49120e-05 -5.54390e-04 -3.92230e-05 1.13730e-04 9.68680e-04 -5.54850e-04 7.25420e-05 -7.20640e-04 -6.35120e-05 1.52570e-04 7.04540e-04 -2.36400e-01 -1.61920e-01 -1.65690e-01 -4.62120e-02 -3.65270e-03 -4.20170e-02 -2.58200e-01 -1.11210e-01 -1.20420e-01 -3.72120e-02 -1.22010e-02 -2.47150e-03 -2.71630e-01 -3.78540e-02 -5.13790e-02 -1.78840e-02 -1.76570e-02 4.37110e-02 -2.62830e-01 -9.47460e-03 -2.25810e-02 -3.99160e-03 -1.54850e-02 4.80480e-02 -1.81800e-01 -9.21890e-03 -3.14050e-02 8.95760e-05 -1.11810e-02 5.73520e-02 -2.20190e-01 -3.54820e-03 -2.29840e-02 1.59950e-03 -8.50730e-03 4.22620e-02 -2.35810e-01 -9.22780e-04 -2.02100e-02 1.87050e-03 -6.29320e-03 3.45360e-02 -2.30330e-01 -5.68200e-04 -2.03490e-02 1.89130e-03 -4.56320e-03 3.19720e-02 -2.25820e-01 -5.65920e-04 -1.98430e-02 1.75270e-03 -3.21750e-03 2.98390e-02 -2.21900e-01 -6.11450e-04 -1.88190e-02 1.50170e-03 -2.19520e-03 2.78150e-02 -2.18050e-01 -5.83140e-04 -1.73900e-02 1.21550e-03 -1.43400e-03 2.58440e-02 -2.14330e-01 -6.88680e-04 -1.59340e-02 9.26610e-04 -8.79390e-04 2.39050e-02 -2.10440e-01 -6.66020e-04 -1.43490e-02 6.67710e-04 -4.92350e-04 2.19980e-02 -2.06520e-01 -7.47740e-04 -1.28960e-02 4.50230e-04 -2.24620e-04 2.01560e-02 -2.02450e-01 -7.25850e-04 -1.14460e-02 2.78030e-04 -5.18560e-05 1.83810e-02 -1.98450e-01 -9.41220e-04 -1.28800e-02 1.96810e-04 2.87550e-05 1.16540e-02 -1.94150e-01 -7.43860e-04 -8.88860e-03 5.68340e-05 1.23500e-04 1.51040e-02 -1.89970e-01 -6.33720e-04 -5.01760e-03 -3.43620e-05 1.68950e-04 1.84530e-02 -1.85710e-01 -7.27370e-04 -6.67950e-03 -4.35490e-05 1.73130e-04 1.22120e-02 -1.81490e-01 -7.21590e-04 -5.69710e-03 -6.45180e-05 1.76090e-04 1.09110e-02 -1.77270e-01 -6.89350e-04 -4.76410e-03 -7.35480e-05 1.69630e-04 9.69930e-03 -1.73090e-01 -6.72610e-04 -3.90360e-03 -7.38120e-05 1.60100e-04 8.57760e-03 -1.68930e-01 -6.40620e-04 -3.08670e-03 -6.88720e-05 1.47130e-04 7.53890e-03 -1.64820e-01 -6.18700e-04 -2.32600e-03 -6.03950e-05 1.34110e-04 6.58150e-03 -1.60740e-01 -5.88280e-04 -1.60360e-03 -5.02650e-05 1.20230e-04 5.69990e-03 -1.56720e-01 -5.64550e-04 -9.26440e-04 -3.92020e-05 1.07290e-04 4.89180e-03 -1.69080e-01 -2.88890e-03 -6.01140e-04 1.23720e-04 -2.11480e-04 3.24640e-03 -1.55670e-01 -1.53780e-03 -5.90240e-04 4.97660e-05 -4.58060e-05 1.98110e-03 -1.44930e-01 -4.86530e-04 8.97530e-04 -6.76250e-06 7.19170e-05 2.87070e-03 -1.41110e-01 -4.63650e-04 1.44050e-03 3.07950e-06 6.20080e-05 2.32150e-03 -1.37340e-01 -4.39790e-04 1.95600e-03 1.22480e-05 5.27870e-05 1.82940e-03 -1.33630e-01 -4.18150e-04 2.44330e-03 2.08010e-05 4.45740e-05 1.39190e-03 -1.29970e-01 -3.96240e-04 2.90560e-03 2.87140e-05 3.70680e-05 1.00610e-03 -1.25850e-01 -4.23970e-04 8.57550e-04 4.14200e-05 3.31630e-05 -2.43060e-03 -1.22830e-01 -3.55810e-04 3.75730e-03 4.28230e-05 2.45230e-05 3.79300e-04 -1.19340e-01 -3.36920e-04 4.14910e-03 4.90780e-05 1.93780e-05 1.33090e-04 -1.15910e-01 -3.18360e-04 4.51990e-03 5.48320e-05 1.48720e-05 -7.17250e-05 -1.12540e-01 -3.00820e-04 4.87000e-03 6.01200e-05 1.10560e-05 -2.37530e-04 -1.09230e-01 -2.83730e-04 5.20070e-03 6.49550e-05 7.82410e-06 -3.66780e-04 -1.05970e-01 -2.67500e-04 5.51230e-03 6.93620e-05 5.19490e-06 -4.61760e-04 -1.02770e-01 -2.51770e-04 5.80570e-03 7.33520e-05 3.08960e-06 -5.24800e-04 -9.91650e-02 -2.80890e-04 3.96300e-03 8.25190e-05 3.22800e-06 -2.91790e-03 -6.85790e-02 4.16550e-03 1.33430e-02 5.64180e-05 -9.24880e-05 1.02620e-02 -6.62820e-02 3.99870e-03 1.26010e-02 1.69390e-04 -2.92470e-04 9.18180e-03 -6.37370e-02 3.79930e-03 1.10450e-02 3.90390e-04 -6.87960e-04 7.36300e-03 -8.76320e-02 -1.82670e-04 7.01660e-03 8.75300e-05 -4.29490e-07 -4.36310e-04 -6.16340e-02 3.59800e-03 1.54200e-02 5.77150e-05 -7.60170e-05 1.12720e-02 -5.89530e-02 3.51660e-03 1.36900e-02 6.35990e-05 -7.15060e-05 9.25310e-03 -5.71260e-02 3.39220e-03 1.37000e-02 6.41720e-05 -6.68070e-05 9.09820e-03 -5.53330e-02 3.26950e-03 1.36910e-02 6.44880e-05 -6.19900e-05 8.95600e-03 -7.41730e-02 -8.78430e-05 9.45640e-03 8.77150e-05 3.82260e-06 1.81180e-03 -7.13020e-02 -1.17850e-04 7.95610e-03 9.33240e-05 6.63930e-06 2.98680e-04 -6.87690e-02 -1.08770e-04 8.06180e-03 9.32570e-05 8.64260e-06 4.63150e-04 -4.90670e-02 2.76070e-03 1.48390e-02 5.87390e-05 -4.16750e-05 9.84810e-03 -4.68420e-02 2.68520e-03 1.33940e-02 6.25830e-05 -3.68020e-05 8.39820e-03 -4.52380e-02 2.57430e-03 1.32870e-02 6.15880e-05 -3.16580e-05 8.31000e-03 -4.36640e-02 2.46540e-03 1.31660e-02 6.04130e-05 -2.65140e-05 8.22740e-03 -4.16670e-02 2.39240e-03 1.19030e-02 6.34800e-05 -2.16820e-05 7.03690e-03 -5.46510e-02 -6.32450e-05 8.40540e-03 8.77220e-05 2.36610e-05 1.56530e-03 -5.24730e-02 -5.70200e-05 8.41530e-03 8.60530e-05 2.64950e-05 1.75590e-03 -5.03430e-02 -5.11460e-05 8.41190e-03 8.42020e-05 2.93810e-05 1.94540e-03 -4.82610e-02 -4.56120e-05 8.39540e-03 8.21800e-05 3.23050e-05 2.13270e-03 -4.62270e-02 -4.04020e-05 8.36580e-03 7.99970e-05 3.52520e-05 2.31660e-03 -4.42400e-02 -3.55050e-05 8.32320e-03 7.76650e-05 3.82120e-05 2.49620e-03 -4.22460e-02 -3.70550e-07 9.11470e-03 7.03640e-05 4.05950e-05 3.51990e-03 -4.04040e-02 -2.65930e-05 8.19940e-03 7.25930e-05 4.41200e-05 2.83880e-03 -3.85540e-02 -2.25530e-05 8.11840e-03 6.98740e-05 4.70470e-05 3.00000e-03 -3.67500e-02 -1.87750e-05 8.02490e-03 6.70450e-05 4.99400e-05 3.15330e-03 -3.49900e-02 -1.52460e-05 7.91890e-03 6.41160e-05 5.27920e-05 3.29810e-03 -3.32740e-02 -1.19550e-05 7.80060e-03 6.10960e-05 5.55930e-05 3.43340e-03 -3.16020e-02 -8.88910e-06 7.67000e-03 5.79940e-05 5.83350e-05 3.55880e-03 -2.99730e-02 -6.03830e-06 7.52730e-03 5.48190e-05 6.10090e-05 3.67330e-03 -2.83880e-02 -3.39080e-06 7.37260e-03 5.15780e-05 6.36090e-05 3.77650e-03 -2.68450e-02 -9.36210e-07 7.20610e-03 4.82790e-05 6.61270e-05 3.86770e-03 -2.53440e-02 1.33630e-06 7.02780e-03 4.49310e-05 6.85580e-05 3.94630e-03 -2.41370e-02 -1.85510e-05 6.48940e-03 4.58310e-05 7.15270e-05 3.62690e-03 -2.24690e-02 5.37510e-06 6.63670e-03 3.81160e-05 7.31320e-05 4.06390e-03 -2.10940e-02 7.16110e-06 6.42420e-03 3.46620e-05 7.52660e-05 4.10180e-03 -1.97600e-02 8.80430e-06 6.20050e-03 3.11860e-05 7.72900e-05 4.12520e-03 -1.50010e-02 5.63100e-04 7.37440e-03 3.26550e-06 7.04840e-05 6.29030e-03 -1.42080e-02 5.25440e-04 6.87090e-03 3.57370e-06 7.32280e-05 5.94620e-03 -1.32990e-02 4.74700e-04 6.50270e-03 8.33190e-07 7.57620e-05 5.77710e-03 -1.25980e-02 4.39770e-04 6.07470e-03 1.01980e-06 7.82930e-05 5.49550e-03 -1.37020e-02 1.52180e-05 4.92060e-03 1.36040e-05 8.55650e-05 4.01100e-03 -1.26120e-02 1.62200e-05 4.63350e-03 1.00540e-05 8.67770e-05 3.93960e-03 -1.15610e-02 1.71580e-05 4.33630e-03 6.48140e-06 8.77940e-05 3.85150e-03 -1.05510e-02 1.80530e-05 4.02930e-03 2.87550e-06 8.85770e-05 3.74640e-03 -9.58060e-03 1.89200e-05 3.71270e-03 -7.82320e-07 8.90670e-05 3.62410e-03 -9.07880e-03 -3.45870e-05 3.28690e-03 8.84280e-07 8.98890e-05 3.21740e-03 -9.03580e-03 -1.48370e-04 2.77260e-03 9.13990e-06 9.16380e-05 2.56210e-03 -6.90730e-03 2.15250e-05 2.70750e-03 -1.23320e-05 8.78730e-05 3.15510e-03 -6.09520e-03 2.23820e-05 2.35490e-03 -1.64830e-05 8.61620e-05 2.96550e-03 -5.32210e-03 2.31370e-05 1.99440e-03 -2.08120e-05 8.35700e-05 2.76040e-03 -4.58780e-03 2.35620e-05 1.62640e-03 -2.52780e-05 8.00830e-05 2.54110e-03 -3.60210e-03 2.80390e-05 1.10770e-03 -3.32310e-05 7.36150e-05 2.21830e-03 -3.23200e-03 2.12550e-05 8.72710e-04 -3.36000e-05 7.23370e-05 2.06730e-03 -2.60720e-03 1.66650e-05 4.91080e-04 -3.63080e-05 7.15830e-05 1.81720e-03 -2.01260e-03 8.02690e-06 1.11130e-04 -3.72120e-05 7.86790e-05 1.55940e-03 -1.43440e-03 5.88920e-06 -2.53050e-04 -4.10530e-05 9.88960e-05 1.28190e-03 -8.33050e-04 7.33130e-05 -5.72410e-04 -5.73380e-05 1.35020e-04 9.14740e-04 -5.12610e-04 1.30610e-04 -7.16860e-04 -7.65970e-05 1.68210e-04 6.65930e-04 -2.40190e-01 -1.75530e-01 -1.75260e-01 -2.67690e-02 -2.15760e-03 -3.79950e-02 -2.58280e-01 -1.25860e-01 -1.25170e-01 -2.29600e-02 -7.41550e-03 5.24770e-03 -2.72890e-01 -5.54680e-02 -5.59300e-02 -1.46880e-02 -1.19180e-02 5.66430e-02 -2.72230e-01 -2.06320e-02 -2.59400e-02 -6.51060e-03 -1.17890e-02 6.20160e-02 -1.90460e-01 -1.46530e-02 -3.45030e-02 -1.38270e-04 -9.40490e-03 6.43340e-02 -2.37940e-01 -4.42540e-03 -2.13620e-02 6.46300e-04 -7.06030e-03 4.85520e-02 -2.45300e-01 -2.34290e-03 -2.03430e-02 1.24440e-03 -5.61660e-03 3.91810e-02 -2.38710e-01 -1.67300e-03 -2.10150e-02 1.55690e-03 -4.10590e-03 3.46890e-02 -2.33010e-01 -1.36020e-03 -2.07150e-02 1.56750e-03 -2.95990e-03 3.11380e-02 -2.28060e-01 -1.31120e-03 -1.99890e-02 1.44900e-03 -2.03740e-03 2.80930e-02 -2.23270e-01 -1.19370e-03 -1.87400e-02 1.23890e-03 -1.36230e-03 2.53890e-02 -2.18760e-01 -1.27730e-03 -1.74650e-02 1.01890e-03 -8.48300e-04 2.29420e-02 -2.14200e-01 -1.23410e-03 -1.59990e-02 8.00160e-04 -4.90920e-04 2.06880e-02 -2.09750e-01 -1.31630e-03 -1.46460e-02 6.14230e-04 -2.33920e-04 1.86190e-02 -2.05240e-01 -1.28980e-03 -1.32560e-02 4.58370e-04 -6.57740e-05 1.67000e-02 -2.01040e-01 -1.53030e-03 -1.47320e-02 3.86700e-04 1.68230e-05 9.92950e-03 -1.96300e-01 -1.30150e-03 -1.07620e-02 2.49400e-04 1.15740e-04 1.32950e-02 -1.70970e-01 2.12110e-03 -3.78610e-03 7.91920e-06 5.64170e-04 2.11040e-02 -1.78520e-01 1.48930e-04 -6.84980e-03 7.51030e-05 3.46720e-04 1.29970e-02 -1.83040e-01 -1.24770e-03 -7.56170e-03 1.16280e-04 1.86270e-04 9.09580e-03 -1.78680e-01 -1.19870e-03 -6.61000e-03 1.00180e-04 1.86000e-04 7.90350e-03 -1.74360e-01 -1.16520e-03 -5.72830e-03 9.22600e-05 1.81530e-04 6.80620e-03 -1.70080e-01 -1.11420e-03 -4.88630e-03 8.94500e-05 1.73700e-04 5.79520e-03 -1.65850e-01 -1.07380e-03 -4.09960e-03 9.01310e-05 1.64770e-04 4.86790e-03 -1.61670e-01 -1.02400e-03 -3.34930e-03 9.26880e-05 1.54930e-04 4.01790e-03 -2.06990e-01 -8.40600e-03 -8.68160e-03 5.26560e-04 -8.17330e-04 -6.81270e-03 -1.63500e-01 -2.41180e-03 -2.11660e-03 1.85010e-04 -5.61550e-05 2.06670e-03 -1.49450e-01 -8.92500e-04 -1.33690e-03 1.04400e-04 1.26340e-04 1.89920e-03 -1.45480e-01 -8.48600e-04 -7.32220e-04 1.08200e-04 1.17570e-04 1.32430e-03 -1.41580e-01 -8.08620e-04 -1.59760e-04 1.11700e-04 1.09400e-04 8.10060e-04 -1.37730e-01 -7.68040e-04 3.85370e-04 1.14790e-04 1.01750e-04 3.53040e-04 -1.33940e-01 -7.30420e-04 9.02250e-04 1.17490e-04 9.46820e-05 -4.93290e-05 -1.30210e-01 -6.92990e-04 1.39420e-03 1.19800e-04 8.81430e-05 -4.00140e-04 -1.26420e-01 -7.27810e-04 8.77190e-04 2.44970e-04 -2.11620e-04 -1.86080e-03 -1.22570e-01 -8.32240e-04 -6.05340e-04 4.92650e-04 -7.94030e-04 -4.33540e-03 -8.35430e-02 4.81260e-03 1.00590e-02 4.47860e-04 -8.90470e-04 1.08530e-02 -8.12360e-02 4.69080e-03 1.03890e-02 4.41690e-04 -8.61480e-04 1.04900e-02 -7.79570e-02 4.59800e-03 8.41500e-03 4.42550e-04 -8.41330e-04 7.50270e-03 -1.09100e-01 -4.99140e-04 3.86450e-03 1.26990e-04 5.95660e-05 -1.56910e-03 -1.05800e-01 -4.71110e-04 4.20480e-03 1.27270e-04 5.63770e-05 -1.63160e-03 -1.02560e-01 -4.44040e-04 4.52680e-03 1.27340e-04 5.35770e-05 -1.66270e-03 -9.89290e-02 -4.70750e-04 2.69970e-03 1.31790e-04 5.26870e-05 -4.03730e-03 -8.69460e-02 1.01430e-03 7.31430e-03 2.23900e-04 -1.98400e-04 1.86160e-03 -7.70520e-02 2.11240e-03 9.00320e-03 1.75040e-04 -1.33140e-04 4.20990e-03 -6.39460e-02 3.75040e-03 1.16380e-02 1.94620e-04 -2.39470e-04 7.98440e-03 -6.13760e-02 3.63730e-03 1.03350e-02 3.76450e-04 -6.24270e-04 6.36590e-03 -6.12060e-02 3.46740e-03 1.43070e-02 9.47660e-05 -3.60400e-05 1.02860e-02 -5.85120e-02 3.38790e-03 1.25920e-02 9.72630e-05 -3.30730e-05 8.28440e-03 -5.66630e-02 3.27200e-03 1.26280e-02 9.54550e-05 -2.99650e-05 8.15760e-03 -6.32960e-02 1.79960e-03 1.05470e-02 1.53350e-04 -9.53420e-05 4.80240e-03 -7.36680e-02 -1.83980e-04 8.46080e-03 1.13260e-04 4.15780e-05 9.72520e-04 -7.07900e-02 -2.12450e-04 6.97460e-03 1.15700e-04 4.27490e-05 -5.26000e-04 -6.82430e-02 -1.96660e-04 7.10570e-03 1.13690e-04 4.30950e-05 -3.36600e-04 -4.85220e-02 2.68120e-03 1.39070e-02 8.09640e-05 -1.32490e-05 9.04960e-03 -4.62920e-02 2.60700e-03 1.24760e-02 8.23180e-05 -1.00000e-05 7.61390e-03 -4.46800e-02 2.50190e-03 1.23930e-02 7.98110e-05 -6.55450e-06 7.54980e-03 -4.31000e-02 2.39850e-03 1.22960e-02 7.72330e-05 -3.10100e-06 7.49060e-03 -4.13480e-02 2.30730e-03 1.17370e-02 1.33790e-04 -1.12150e-04 7.00020e-03 -3.94570e-02 2.22720e-03 1.07730e-02 2.46650e-04 -3.28320e-04 6.13540e-03 -5.19020e-02 -1.06240e-04 7.62900e-03 9.62880e-05 4.89890e-05 1.11560e-03 -4.97720e-02 -9.59110e-05 7.64880e-03 9.34130e-05 5.01800e-05 1.32590e-03 -4.76910e-02 -8.61560e-05 7.65510e-03 9.04600e-05 5.14240e-05 1.53340e-03 -4.56590e-02 -7.69550e-05 7.64810e-03 8.74360e-05 5.27120e-05 1.73720e-03 -4.36750e-02 -6.82850e-05 7.62780e-03 8.43480e-05 5.40350e-05 1.93640e-03 -4.16880e-02 -2.71550e-05 8.45110e-03 7.74720e-05 5.48020e-05 2.98730e-03 -3.98490e-02 -5.24550e-05 7.54800e-03 7.80010e-05 5.67510e-05 2.31680e-03 -3.80060e-02 -4.52510e-05 7.48870e-03 7.47540e-05 5.81280e-05 2.49640e-03 -3.62090e-02 -3.84960e-05 7.41650e-03 7.14670e-05 5.95050e-05 2.66770e-03 -3.44570e-02 -3.21680e-05 7.33170e-03 6.81440e-05 6.08770e-05 2.83020e-03 -3.27500e-02 -2.62470e-05 7.23430e-03 6.47900e-05 6.22360e-05 2.98300e-03 -3.10880e-02 -2.07150e-05 7.12440e-03 6.14110e-05 6.35750e-05 3.12540e-03 -2.94700e-02 -1.55520e-05 7.00230e-03 5.80120e-05 6.48880e-05 3.25680e-03 -2.78950e-02 -1.07400e-05 6.86800e-03 5.45980e-05 6.61700e-05 3.37660e-03 -2.60250e-02 1.53390e-05 7.03570e-03 1.23860e-04 -5.71260e-05 3.85160e-03 -2.47570e-02 -4.90880e-06 6.44270e-03 1.19970e-04 -4.91090e-05 3.48280e-03 -2.35580e-02 -2.36230e-05 5.91860e-03 1.16050e-04 -4.12590e-05 3.17500e-03 -2.20270e-02 5.34150e-06 6.21180e-03 4.08740e-05 7.08700e-05 3.72830e-03 -2.06650e-02 8.65470e-06 6.01880e-03 3.74470e-05 7.19150e-05 3.78190e-03 -1.93460e-02 1.17170e-05 5.81450e-03 3.40270e-05 7.28980e-05 3.82070e-03 -1.46160e-02 5.61270e-04 7.00320e-03 8.72230e-06 6.33540e-05 5.99100e-03 -1.38330e-02 5.23960e-04 6.51060e-03 8.33810e-06 6.52300e-05 5.65590e-03 -1.29400e-02 4.74170e-04 6.16150e-03 5.64120e-06 6.69820e-05 5.50230e-03 -1.22480e-02 4.39600e-04 5.74440e-03 5.20110e-06 6.87060e-05 5.22970e-03 -1.33640e-02 2.38420e-05 4.62960e-03 1.70980e-05 7.66910e-05 3.78220e-03 -1.22900e-02 2.57640e-05 4.36110e-03 1.37340e-05 7.71530e-05 3.72570e-03 -1.12560e-02 2.75700e-05 4.08250e-03 1.03630e-05 7.74680e-05 3.65230e-03 -1.02620e-02 2.92930e-05 3.79400e-03 6.97240e-06 7.76020e-05 3.56180e-03 -9.30860e-03 3.09600e-05 3.49570e-03 3.54600e-06 7.75000e-05 3.45410e-03 -8.81660e-03 -1.90370e-05 3.08910e-03 4.90250e-06 7.80420e-05 3.06370e-03 -8.77630e-03 -1.26570e-04 2.59500e-03 1.17860e-05 7.95230e-05 2.42660e-03 -6.68680e-03 3.58710e-05 2.54350e-03 -7.16840e-06 7.50130e-05 3.02680e-03 -5.89220e-03 3.74300e-05 2.20770e-03 -1.09490e-05 7.31430e-05 2.85000e-03 -5.13690e-03 3.87360e-05 1.86320e-03 -1.48320e-05 7.06430e-05 2.65670e-03 -4.42060e-03 3.94450e-05 1.51030e-03 -1.87530e-05 6.75910e-05 2.44790e-03 -3.46180e-03 4.31080e-05 1.01110e-03 -2.51980e-05 6.27100e-05 2.13840e-03 -3.10220e-03 3.56710e-05 7.83410e-04 -2.60080e-05 6.19700e-05 1.99190e-03 -2.49770e-03 2.86650e-05 4.14100e-04 -2.88170e-05 6.22820e-05 1.75140e-03 -1.92530e-03 1.89240e-05 4.90930e-05 -3.17960e-05 6.79860e-05 1.50630e-03 -1.37390e-03 2.35980e-05 -2.95970e-04 -3.76230e-05 8.12960e-05 1.24390e-03 -8.04600e-04 1.03440e-04 -5.97210e-04 -4.82630e-05 1.04140e-04 8.95050e-04 -5.00870e-04 1.68840e-04 -7.35530e-04 -5.80860e-05 1.24880e-04 6.57320e-04 -2.37490e-01 -1.74440e-01 -1.72030e-01 -1.25580e-02 -9.73050e-04 -3.61280e-02 -2.57450e-01 -1.32440e-01 -1.26430e-01 -1.11570e-02 -3.39970e-03 8.53620e-03 -2.74050e-01 -6.43910e-02 -5.75430e-02 -7.74100e-03 -5.72540e-03 6.29650e-02 -2.74560e-01 -2.74540e-02 -2.57390e-02 -4.10370e-03 -6.02630e-03 6.93010e-02 -1.98630e-01 -1.86620e-02 -3.36060e-02 -1.30720e-03 -4.52200e-03 7.49870e-02 -2.21260e-01 4.50230e-03 -1.03850e-02 4.19020e-04 -3.80950e-03 5.54100e-02 -2.35570e-01 3.52110e-04 -1.67530e-02 5.52920e-04 -3.11200e-03 4.44040e-02 -2.43390e-01 -2.59280e-03 -2.06610e-02 7.95730e-04 -2.35560e-03 3.67800e-02 -2.37270e-01 -2.18300e-03 -2.08120e-02 8.68920e-04 -1.69470e-03 3.23280e-02 -2.31720e-01 -1.89930e-03 -2.01490e-02 8.29950e-04 -1.18100e-03 2.85780e-02 -2.26450e-01 -1.75780e-03 -1.91420e-02 7.36380e-04 -7.84330e-04 2.53740e-02 -2.21460e-01 -1.76790e-03 -1.79540e-02 6.18690e-04 -4.90690e-04 2.25530e-02 -2.16530e-01 -1.72220e-03 -1.66230e-02 5.02390e-04 -2.77230e-04 2.00450e-02 -2.11740e-01 -1.78440e-03 -1.53380e-02 3.96790e-04 -1.27040e-04 1.77980e-02 -2.06960e-01 -1.75820e-03 -1.40200e-02 3.08910e-04 -2.44240e-05 1.57650e-02 -2.02630e-01 -1.99470e-03 -1.55170e-02 2.62600e-04 2.43370e-05 8.94960e-03 -1.97620e-01 -1.75900e-03 -1.16000e-02 1.85980e-04 8.66110e-05 1.22430e-02 -1.30790e-01 8.12680e-03 1.11860e-03 -1.98690e-04 1.35550e-03 2.87600e-02 -1.58240e-01 2.68790e-03 -4.13750e-03 -6.17860e-05 7.69710e-04 1.83800e-02 -1.75610e-01 -5.40040e-04 -7.01790e-03 4.81700e-05 3.22430e-04 1.05850e-02 -1.79530e-01 -1.61580e-03 -7.48420e-03 9.15670e-05 1.33900e-04 6.83010e-03 -1.75130e-01 -1.56870e-03 -6.59940e-03 8.50380e-05 1.32070e-04 5.74480e-03 -1.70770e-01 -1.50330e-03 -5.75200e-03 8.16660e-05 1.28150e-04 4.74850e-03 -1.66480e-01 -1.44810e-03 -4.95810e-03 8.03760e-05 1.23370e-04 3.83790e-03 -1.62230e-01 -1.38330e-03 -4.19930e-03 8.03150e-05 1.17930e-04 3.00600e-03 -2.07110e-01 -8.49370e-03 -8.87110e-03 8.62540e-05 2.29890e-04 -7.36560e-03 -1.70250e-01 -3.67620e-03 -4.62110e-03 8.36720e-05 1.45310e-04 -1.65470e-03 -1.49840e-01 -1.20800e-03 -2.15700e-03 8.29430e-05 1.01500e-04 9.46310e-04 -1.45820e-01 -1.15010e-03 -1.54140e-03 8.39100e-05 9.62940e-05 3.91970e-04 -1.41860e-01 -1.09650e-03 -9.57730e-04 8.47460e-05 9.13890e-05 -1.01440e-04 -1.37970e-01 -1.04280e-03 -4.01150e-04 8.54050e-05 8.67120e-05 -5.37510e-04 -1.34130e-01 -9.92500e-04 1.27390e-04 8.58860e-05 8.23400e-05 -9.18840e-04 -1.30360e-01 -9.42810e-04 6.31140e-04 8.61880e-05 7.82160e-05 -1.24860e-03 -1.26650e-01 -8.95870e-04 1.10990e-03 8.63270e-05 7.43810e-05 -1.52940e-03 -1.30030e-01 -2.01480e-03 -1.47940e-03 1.55820e-04 -9.39390e-05 -6.11430e-03 -1.55440e-01 -6.54400e-03 -8.30310e-03 4.28350e-04 -7.48950e-04 -1.74970e-02 -9.50730e-02 2.40490e-03 6.46130e-03 1.44210e-04 -1.55380e-04 4.58560e-03 -7.85630e-02 4.44970e-03 9.49670e-03 1.71450e-04 -2.69810e-04 8.80590e-03 -7.56780e-02 4.29660e-03 8.17720e-03 3.64790e-04 -7.74000e-04 6.72460e-03 -1.05720e-01 -6.46640e-04 3.52810e-03 8.44450e-05 5.65260e-05 -2.33680e-03 -1.02450e-01 -6.10460e-04 3.86260e-03 8.37760e-05 5.43310e-05 -2.34850e-03 -1.04690e-01 -1.51640e-03 1.46910e-03 1.43790e-04 -7.61580e-05 -5.97450e-03 -1.24140e-01 -5.16350e-03 -4.77860e-03 3.79480e-04 -5.85750e-04 -1.56030e-02 -8.91620e-02 7.45970e-05 5.42020e-03 1.18150e-04 -5.26730e-05 -1.06480e-03 -7.44150e-02 1.96370e-03 8.61530e-03 1.25910e-04 -1.14550e-04 3.55740e-03 -6.17680e-02 3.52790e-03 1.11730e-02 1.45850e-04 -1.98180e-04 7.29160e-03 -5.92960e-02 3.39280e-03 9.98260e-03 3.03710e-04 -5.72760e-04 5.84840e-03 -6.74150e-02 1.85200e-03 9.84960e-03 1.15560e-04 -9.69120e-05 4.31740e-03 -7.11020e-02 8.12230e-04 7.93600e-03 1.48790e-04 -1.53360e-04 1.44790e-03 -9.68290e-02 -3.67730e-03 1.84590e-03 3.10840e-04 -4.28920e-04 -8.56240e-03 -7.74170e-02 -9.74890e-04 6.07510e-03 1.18860e-04 -5.15880e-05 -1.97790e-03 -7.05030e-02 -2.99210e-04 6.44890e-03 7.15010e-05 4.10500e-05 -1.02000e-03 -6.79490e-02 -2.77830e-04 6.59240e-03 7.00080e-05 4.05940e-05 -8.15340e-04 -4.81810e-02 2.63790e-03 1.33970e-02 5.09760e-05 3.94420e-06 8.58920e-03 -4.59490e-02 2.56490e-03 1.19730e-02 5.13470e-05 5.38380e-06 7.16170e-03 -4.43340e-02 2.46330e-03 1.19030e-02 4.96390e-05 6.84330e-06 7.11160e-03 -4.27510e-02 2.36320e-03 1.18180e-02 4.79080e-05 8.31290e-06 7.06620e-03 -4.12020e-02 2.26470e-03 1.17190e-02 4.61580e-05 9.78830e-06 7.02450e-03 -3.92660e-02 2.19540e-03 1.05180e-02 4.62750e-05 1.12310e-05 5.91500e-03 -5.15810e-02 -1.54680e-04 7.20010e-03 5.82590e-05 3.95590e-05 7.34620e-04 -4.94500e-02 -1.40500e-04 7.23160e-03 5.64300e-05 3.96430e-05 9.57620e-04 -4.73700e-02 -1.27080e-04 7.24950e-03 5.45730e-05 3.97690e-05 1.17760e-03 -4.53390e-02 -1.14390e-04 7.25410e-03 5.26890e-05 3.99320e-05 1.39360e-03 -4.33560e-02 -1.02410e-04 7.24530e-03 5.07820e-05 4.01260e-05 1.60470e-03 -4.13730e-02 -5.63850e-05 8.08520e-03 4.68730e-05 3.99100e-05 2.67210e-03 -3.95360e-02 -8.04500e-05 7.18830e-03 4.69080e-05 4.05890e-05 2.00820e-03 -3.76960e-02 -7.04160e-05 7.14020e-03 4.49460e-05 4.08500e-05 2.19890e-03 -3.59030e-02 -6.09770e-05 7.07920e-03 4.29710e-05 4.11250e-05 2.38130e-03 -3.41560e-02 -5.21090e-05 7.00550e-03 4.09850e-05 4.14100e-05 2.55450e-03 -3.24540e-02 -4.37860e-05 6.91920e-03 3.89910e-05 4.17010e-05 2.71790e-03 -3.07970e-02 -3.59830e-05 6.82030e-03 3.69910e-05 4.19940e-05 2.87070e-03 -2.26660e-02 1.04400e-03 9.40670e-03 9.52820e-05 -1.24960e-04 6.81530e-03 -2.15200e-02 9.94440e-04 8.68850e-03 9.15100e-05 -1.16940e-04 6.28210e-03 -2.04360e-02 9.27700e-04 8.41210e-03 8.50160e-05 -1.05650e-04 6.20560e-03 -1.93790e-02 8.63120e-04 8.12730e-03 7.86960e-05 -9.47940e-05 6.12210e-03 -1.84020e-02 8.17550e-04 7.54180e-03 7.51270e-05 -8.75270e-05 5.71110e-03 -2.17770e-02 1.21260e-06 5.97220e-03 2.49690e-05 4.36310e-05 3.53250e-03 -2.04230e-02 6.01310e-06 5.78970e-03 2.29790e-05 4.38570e-05 3.59540e-03 -1.91110e-02 1.04690e-05 5.59600e-03 2.09970e-05 4.40630e-05 3.64350e-03 -1.44380e-02 5.66330e-04 6.84000e-03 -3.48460e-05 1.18920e-04 5.85700e-03 -1.36590e-02 5.28860e-04 6.35200e-03 -3.25720e-05 1.14970e-04 5.52590e-03 -1.27740e-02 4.78830e-04 6.01090e-03 -3.06830e-05 1.08640e-04 5.37940e-03 -1.20870e-02 4.44120e-04 5.59830e-03 -2.86120e-05 1.04980e-04 5.11070e-03 -1.31730e-02 2.83370e-05 4.46310e-03 1.12060e-05 4.46620e-05 3.64990e-03 -1.21080e-02 3.12010e-05 4.20490e-03 9.26170e-06 4.46530e-05 3.60220e-03 -1.10840e-02 3.38980e-05 3.93660e-03 7.31200e-06 4.45720e-05 3.53740e-03 -1.00990e-02 3.64680e-05 3.65820e-03 5.34980e-06 4.43970e-05 3.45550e-03 -9.15500e-03 3.89470e-05 3.36990e-03 3.36520e-06 4.40990e-05 3.35620e-03 -8.66930e-03 -8.85320e-06 2.97400e-03 4.15260e-06 4.42960e-05 2.97530e-03 -8.63180e-03 -1.12720e-04 2.49090e-03 8.05990e-06 4.51020e-05 2.34890e-03 -6.53440e-03 5.02650e-05 2.42700e-03 9.13800e-06 2.09270e-05 2.93640e-03 -6.05110e-03 4.38300e-05 2.19240e-03 7.20820e-06 2.30310e-05 2.80630e-03 -5.03240e-03 5.01490e-05 1.78460e-03 -7.22490e-06 3.92770e-05 2.59650e-03 -4.02080e-03 6.18690e-05 1.30400e-03 -3.03290e-06 2.73890e-05 2.31100e-03 -3.63980e-03 5.48590e-05 1.07450e-03 -4.49770e-06 2.84440e-05 2.16600e-03 -3.01260e-03 5.08360e-05 7.17400e-04 -7.15620e-06 2.97970e-05 1.93960e-03 -2.67680e-03 4.38340e-05 5.10170e-04 -8.55570e-06 3.10150e-05 1.80840e-03 -1.87710e-03 2.94320e-05 1.16410e-05 -1.76950e-05 3.78580e-05 1.47800e-03 -1.34150e-03 3.70450e-05 -3.23990e-04 -2.11230e-05 4.42870e-05 1.22460e-03 -7.88910e-04 1.21270e-04 -6.15760e-04 -2.63490e-05 5.51870e-05 8.86680e-04 -4.93560e-04 1.89860e-04 -7.50240e-04 -3.10060e-05 6.50720e-05 6.55250e-04 -1.76790e-01 -1.34750e-01 -1.34050e-01 2.82220e-03 3.30150e-04 -4.21300e-02 -1.57990e-01 -7.46380e-02 -7.46120e-02 2.29520e-03 1.09040e-03 5.87580e-03 -1.71990e-01 -3.20640e-02 -3.54970e-02 2.59380e-03 1.75520e-03 6.86520e-02 -1.83200e-01 -1.21920e-02 -1.86010e-02 8.62560e-04 1.65950e-03 7.89340e-02 -1.83060e-01 -4.62980e-03 -1.88380e-02 2.54280e-04 4.29740e-04 7.27880e-02 -1.55390e-01 2.53250e-02 8.22340e-03 4.17120e-04 -2.80410e-04 6.31260e-02 -2.17090e-01 5.37660e-03 -1.18700e-02 8.63510e-05 2.16200e-04 4.83310e-02 -2.62420e-01 -7.30800e-03 -2.40040e-02 1.62530e-04 3.18430e-04 3.65420e-02 -2.65220e-01 -6.39300e-03 -2.30340e-02 4.26090e-05 2.72290e-04 2.96510e-02 -2.57850e-01 -5.31660e-03 -2.22990e-02 3.98450e-05 3.50070e-04 2.55100e-02 -2.52530e-01 -5.55460e-03 -2.15490e-02 6.98950e-06 4.08080e-04 2.19780e-02 -2.31870e-01 -2.54190e-03 -1.79240e-02 -4.17860e-06 1.86350e-04 2.16690e-02 -2.17280e-01 -1.89680e-03 -1.67370e-02 -5.78010e-10 1.28970e-09 1.98540e-02 -2.12400e-01 -1.97370e-03 -1.55110e-02 -4.76850e-10 1.24350e-09 1.75450e-02 -2.07630e-01 -1.88280e-03 -1.50060e-02 -7.30970e-05 5.20090e-04 1.36830e-02 -2.03150e-01 -2.19390e-03 -1.57370e-02 -2.34700e-04 1.55670e-03 8.63720e-03 -1.98050e-01 -1.93240e-03 -1.18180e-02 -2.52470e-10 1.06060e-09 1.19000e-02 -1.93420e-01 -1.93190e-03 -1.07270e-02 -2.00250e-10 9.91020e-10 1.03580e-02 -1.30240e-01 5.72840e-03 -2.43380e-04 -3.07420e-04 1.40030e-03 2.69640e-02 -1.64840e-01 7.52470e-04 -5.44650e-03 -3.23800e-04 1.42090e-03 1.35700e-02 -1.79800e-01 -1.77540e-03 -7.72660e-03 -3.35800e-04 1.41150e-03 6.47470e-03 -1.75370e-01 -1.72360e-03 -6.84320e-03 -3.40420e-04 1.37490e-03 5.39280e-03 -1.70990e-01 -1.65250e-03 -5.99540e-03 -3.43220e-04 1.33710e-03 4.40110e-03 -1.66680e-01 -1.59200e-03 -5.20100e-03 -3.44180e-04 1.29980e-03 3.49590e-03 -1.62410e-01 -1.52140e-03 -4.44080e-03 -3.44150e-04 1.26230e-03 2.66990e-03 -2.07200e-01 -8.59300e-03 -9.07710e-03 4.47280e-10 5.14800e-10 -7.67300e-03 -1.70360e-01 -3.79240e-03 -4.84770e-03 2.49620e-10 4.15580e-10 -1.97040e-03 -1.49950e-01 -1.32970e-03 -2.39290e-03 1.68340e-10 3.44510e-10 6.29570e-04 -1.45920e-01 -1.26650e-03 -1.77490e-03 2.05970e-10 3.02080e-10 8.20490e-05 -1.41950e-01 -1.20790e-03 -1.18890e-03 2.40430e-10 2.64250e-10 -4.04460e-04 -1.38040e-01 -1.14920e-03 -6.29670e-04 2.70080e-10 2.30390e-10 -8.33550e-04 -1.34190e-01 -1.09410e-03 -9.84900e-05 2.93310e-10 1.99630e-10 -1.20790e-03 -1.30400e-01 -1.03980e-03 4.08060e-04 3.08740e-10 1.71020e-10 -1.53070e-03 -1.26680e-01 -9.88360e-04 8.89650e-04 3.15230e-10 1.43680e-10 -1.80450e-03 -1.35040e-01 -2.80750e-03 -2.02690e-03 5.57140e-10 2.51950e-10 -7.20410e-03 -1.55400e-01 -6.53950e-03 -8.34630e-03 1.03010e-09 4.93580e-10 -1.75740e-02 -1.10950e-01 -1.06710e-04 2.93280e-03 4.39500e-05 -1.25740e-04 -1.03870e-03 -9.23320e-02 2.27280e-03 6.61140e-03 6.13700e-05 -1.73840e-04 4.13910e-03 -7.63260e-02 4.27360e-03 9.62980e-03 9.30110e-05 -2.54970e-04 8.33710e-03 -7.34790e-02 4.17330e-03 8.44710e-03 2.78180e-04 -7.55470e-04 6.45710e-03 -1.02410e-01 -6.75810e-04 3.66420e-03 6.68040e-11 -8.42280e-11 -2.57610e-03 -1.08560e-01 -2.14640e-03 9.40200e-04 2.21970e-10 5.03010e-12 -6.98690e-03 -1.24100e-01 -5.16090e-03 -4.82570e-03 5.91210e-10 2.23080e-10 -1.56660e-02 -9.29520e-02 -5.66250e-04 4.57240e-03 -1.35430e-10 -2.29120e-10 -2.42750e-03 -8.13040e-02 7.90230e-04 6.38080e-03 -2.80600e-10 -3.16950e-10 3.39800e-04 -6.20070e-02 3.47180e-03 1.16360e-02 -6.78760e-10 -5.78250e-10 7.77370e-03 -5.92650e-02 3.39480e-03 9.95000e-03 -5.52120e-10 -4.90630e-10 5.77100e-03 -7.34910e-02 8.37030e-04 8.26890e-03 -5.00040e-10 -5.40070e-10 1.89670e-03 -7.84180e-02 -4.11630e-04 5.75940e-03 -3.24460e-10 -4.52090e-10 -1.75720e-03 -9.67830e-02 -3.67610e-03 1.79920e-03 -5.48430e-11 -3.60990e-10 -8.61230e-03 -8.00250e-02 -1.46640e-03 4.71570e-03 -2.20170e-10 -4.59400e-10 -3.73700e-03 -7.04050e-02 -3.34070e-04 6.28830e-03 -2.90230e-10 -5.14350e-10 -1.18350e-03 -6.78490e-02 -3.10540e-04 6.43520e-03 -2.57280e-10 -5.21760e-10 -9.73660e-04 -4.80980e-02 2.59590e-03 1.32270e-02 -6.50390e-10 -8.20010e-10 8.42690e-03 -4.58650e-02 2.52400e-03 1.18040e-02 -5.14730e-10 -7.24950e-10 7.00240e-03 -4.42470e-02 2.42470e-03 1.17380e-02 -4.55710e-10 -7.11920e-10 6.95740e-03 -4.26630e-02 2.32700e-03 1.16580e-02 -3.98240e-10 -6.96260e-10 6.91700e-03 -4.11120e-02 2.23070e-03 1.15630e-02 -3.46110e-10 -6.79330e-10 6.88010e-03 -3.94540e-02 2.14480e-03 1.10900e-02 4.97910e-05 -1.12270e-04 6.48850e-03 -3.77210e-02 2.06870e-03 1.02950e-02 1.46880e-04 -3.31480e-04 5.79670e-03 -4.93420e-02 -1.58960e-04 7.10200e-03 1.33170e-11 -4.72240e-10 8.36260e-04 -4.72620e-02 -1.44100e-04 7.12340e-03 2.79690e-12 -4.72190e-10 1.06040e-03 -4.52320e-02 -1.30040e-04 7.13140e-03 -2.24580e-11 -4.77350e-10 1.28050e-03 -4.47530e-02 -3.70980e-04 6.49620e-03 -1.69010e-05 3.71730e-05 6.37660e-04 -4.45680e-02 -6.18050e-04 6.86150e-03 -3.74690e-05 8.20680e-05 9.51830e-04 -4.08310e-02 -3.25840e-04 6.71450e-03 -1.57170e-05 3.45450e-05 1.33560e-03 -3.75930e-02 -8.11950e-05 7.03090e-03 -2.38280e-10 -5.44520e-10 2.10120e-03 -2.74520e-02 1.33770e-03 1.05300e-02 9.54400e-05 -2.06750e-04 7.16490e-03 -2.60910e-02 1.28220e-03 9.67280e-03 9.16020e-05 -1.98620e-04 6.49140e-03 -2.49010e-02 1.20720e-03 9.43390e-03 8.62990e-05 -1.86580e-04 6.43990e-03 -2.37370e-02 1.13410e-03 9.18540e-03 8.11390e-05 -1.74960e-04 6.38330e-03 -2.26130e-02 1.05670e-03 9.07790e-03 2.58430e-05 -5.58400e-05 6.47550e-03 -2.14920e-02 9.94250e-04 8.66070e-03 -7.29540e-10 -7.64850e-10 6.25230e-03 -2.04090e-02 9.27490e-04 8.38500e-03 -7.55690e-10 -7.68020e-10 6.17720e-03 -1.93520e-02 8.62880e-04 8.10100e-03 -7.69330e-10 -7.65050e-10 6.09500e-03 -1.83390e-02 8.06070e-04 7.71120e-03 1.87950e-05 -3.98800e-05 5.89850e-03 -1.73900e-02 7.56460e-04 7.25220e-03 5.45070e-05 -1.16780e-04 5.62010e-03 -2.03430e-02 4.33330e-06 5.71660e-03 -6.71180e-10 -6.43080e-10 3.53440e-03 -1.90340e-02 9.36360e-06 5.52610e-03 -6.42010e-10 -6.17170e-10 3.58560e-03 -1.43240e-02 5.58930e-04 6.72100e-03 4.06360e-05 -8.56110e-05 5.76120e-03 -1.35470e-02 5.22170e-04 6.23640e-03 3.80580e-05 -8.06670e-05 5.43300e-03 -1.26670e-02 4.73460e-04 5.90150e-03 3.46560e-05 -7.33820e-05 5.29150e-03 -1.18110e-02 4.27150e-04 5.56040e-03 3.14280e-05 -6.64790e-05 5.14040e-03 -1.09790e-02 3.83230e-04 5.21340e-03 2.83750e-05 -5.99520e-05 4.97940e-03 -1.01710e-02 3.41760e-04 4.86060e-03 2.54990e-05 -5.37990e-05 4.80830e-03 -9.38740e-03 3.02760e-04 4.50240e-03 2.28020e-05 -4.80110e-05 4.62680e-03 -8.84010e-03 2.75790e-04 4.16850e-03 2.08890e-05 -4.44290e-05 4.41310e-03 -9.30990e-03 1.57230e-05 3.27320e-03 -2.48870e-06 5.10810e-06 3.19440e-03 -8.87290e-03 -3.97320e-05 2.86860e-03 -7.59210e-06 1.61200e-05 2.79480e-03 -8.58430e-03 -1.07180e-04 2.45720e-03 -1.26910e-05 2.89100e-05 2.32400e-03 -6.52220e-03 4.97770e-05 2.41520e-03 -1.82130e-10 -2.12290e-10 2.92860e-03 -5.84030e-03 4.92810e-05 2.12140e-03 3.31890e-06 -5.99860e-06 2.77380e-03 -4.70700e-03 6.19400e-05 1.65230e-03 8.82150e-06 -1.43180e-05 2.52190e-03 -4.20120e-03 5.74310e-05 1.37620e-03 2.64740e-06 -4.47090e-06 2.35260e-03 -3.63150e-03 5.45660e-05 1.06650e-03 -1.41970e-10 -1.41020e-10 2.16110e-03 -3.00530e-03 5.06000e-05 7.10390e-04 -1.25380e-10 -1.29670e-10 1.93540e-03 -2.50090e-03 4.29160e-05 4.02500e-04 2.13790e-06 -1.56960e-06 1.73730e-03 -2.10630e-03 3.37230e-05 1.51740e-04 6.24060e-06 -4.72770e-06 1.57570e-03 -1.33120e-03 4.19300e-05 -3.33530e-04 -5.95930e-11 -1.23230e-10 1.21870e-03 -7.84180e-04 1.27030e-04 -6.22610e-04 -2.07310e-11 -1.27320e-10 8.84210e-04 -4.91880e-04 1.95900e-04 -7.56340e-04 1.38340e-11 -1.31180e-10 6.54970e-04 -2.15320e-01 -1.58510e-01 -1.57020e-01 1.36670e-02 1.09510e-03 -3.85060e-02 -2.24200e-01 -1.12070e-01 -1.09020e-01 1.23130e-02 3.81070e-03 7.02390e-03 -2.40190e-01 -5.19670e-02 -5.01090e-02 8.00810e-03 6.35970e-03 6.38470e-02 -2.43420e-01 -2.07660e-02 -2.30520e-02 4.48030e-03 6.57240e-03 7.11930e-02 -2.36990e-01 -6.52990e-03 -1.61900e-02 1.41520e-03 5.53810e-03 6.26410e-02 -2.54630e-01 -5.77210e-03 -1.93900e-02 -4.90920e-04 3.70940e-03 5.18360e-02 -2.49710e-01 -3.88640e-03 -2.00700e-02 -6.43680e-04 2.99440e-03 4.40210e-02 -3.31520e-01 -2.42890e-02 -3.78560e-02 -1.03310e-03 2.80240e-03 3.22230e-02 -3.18180e-01 -1.44400e-02 -2.81300e-02 -7.37840e-04 2.58040e-03 2.32660e-02 -3.07450e-01 -1.15910e-02 -2.66520e-02 -8.46200e-04 2.27160e-03 1.88330e-02 -3.02440e-01 -1.28440e-02 -2.65150e-02 -7.89750e-04 2.01670e-03 1.51090e-02 -2.44380e-01 -3.32390e-03 -1.78420e-02 -7.09220e-04 1.87990e-03 2.06390e-02 -2.17140e-01 -1.93210e-03 -1.68410e-02 -6.22410e-04 1.78210e-03 1.99160e-02 -2.12300e-01 -1.99780e-03 -1.55890e-02 -5.85290e-04 1.65710e-03 1.76270e-02 -2.07730e-01 -1.81380e-03 -1.66900e-02 -5.69600e-04 1.58690e-03 1.02130e-02 -1.38800e-01 5.19130e-03 -1.01030e-02 -2.21810e-04 1.62330e-04 2.11180e-02 -1.97620e-01 -1.75900e-03 -1.16000e-02 -1.85980e-04 -8.66090e-05 1.22430e-02 -1.93040e-01 -1.75870e-03 -1.04950e-02 -1.47470e-04 -1.12600e-04 1.07110e-02 -1.88480e-01 -1.70700e-03 -9.42420e-03 -1.20650e-04 -1.26460e-04 9.30330e-03 -1.25780e-01 7.24130e-03 2.65070e-03 -8.22510e-05 1.71230e-05 2.59660e-02 -1.60180e-01 1.34400e-03 -3.80540e-03 -8.55000e-05 -8.43940e-05 1.27900e-02 -1.75130e-01 -1.56870e-03 -6.59940e-03 -8.50380e-05 -1.32060e-04 5.74480e-03 -1.70770e-01 -1.50330e-03 -5.75200e-03 -8.16650e-05 -1.28150e-04 4.74850e-03 -1.66480e-01 -1.44810e-03 -4.95810e-03 -8.03750e-05 -1.23370e-04 3.83790e-03 -1.62230e-01 -1.38330e-03 -4.19930e-03 -8.03150e-05 -1.17930e-04 3.00600e-03 -2.07220e-01 -8.60100e-03 -9.04680e-03 -4.54100e-04 9.92840e-04 -7.57510e-03 -1.63880e-01 -2.70730e-03 -2.85010e-03 -1.56030e-04 1.12480e-04 1.14270e-03 -1.49840e-01 -1.20800e-03 -2.15700e-03 -8.29420e-05 -1.01500e-04 9.46310e-04 -1.45820e-01 -1.15010e-03 -1.54140e-03 -8.39100e-05 -9.62930e-05 3.91970e-04 -1.41860e-01 -1.09650e-03 -9.57730e-04 -8.47450e-05 -9.13890e-05 -1.01440e-04 -1.37970e-01 -1.04280e-03 -4.01150e-04 -8.54050e-05 -8.67120e-05 -5.37500e-04 -1.34130e-01 -9.92500e-04 1.27390e-04 -8.58860e-05 -8.23400e-05 -9.18830e-04 -1.30360e-01 -9.42810e-04 6.31140e-04 -8.61880e-05 -7.82150e-05 -1.24860e-03 -1.26650e-01 -8.95870e-04 1.10990e-03 -8.63260e-05 -7.43810e-05 -1.52940e-03 -1.35040e-01 -2.72770e-03 -1.82050e-03 -9.06790e-05 -9.89210e-05 -6.94080e-03 -1.55440e-01 -6.48060e-03 -8.16440e-03 -9.95650e-05 -1.50470e-04 -1.73280e-02 -1.15900e-01 -7.63850e-04 2.41150e-03 -8.58930e-05 -6.43850e-05 -2.10590e-03 -1.07660e-01 4.72460e-06 3.55460e-03 -3.98270e-05 -1.68290e-04 -8.88810e-04 -8.96240e-02 2.31820e-03 7.18560e-03 -1.64840e-05 -1.78400e-04 4.23680e-03 -7.41130e-02 4.27700e-03 1.01950e-02 1.96780e-05 -2.27920e-04 8.40570e-03 -7.12980e-02 4.25020e-03 9.16730e-03 2.03330e-04 -6.98990e-04 6.70650e-03 -1.08620e-01 -2.09040e-03 1.12680e-03 -8.81290e-05 -7.32850e-05 -6.76970e-03 -1.24190e-01 -5.12030e-03 -4.65950e-03 -9.79370e-05 -1.12370e-04 -1.54640e-02 -9.30150e-02 -5.10540e-04 4.76070e-03 -8.12750e-05 -4.88910e-05 -2.21870e-03 -8.13620e-02 8.49600e-04 6.57470e-03 -7.65580e-05 -2.96490e-05 5.48000e-04 -6.17680e-02 3.52790e-03 1.11730e-02 -1.45850e-04 1.98170e-04 7.29160e-03 -5.92960e-02 3.39280e-03 9.98260e-03 -3.03710e-04 5.72760e-04 5.84840e-03 -6.74150e-02 1.85200e-03 9.84960e-03 -1.15560e-04 9.69110e-05 4.31740e-03 -7.53170e-02 1.55900e-04 7.05310e-03 -1.06980e-04 4.24150e-05 -4.24530e-06 -9.69010e-02 -3.65270e-03 1.94370e-03 -8.66930e-05 -8.47020e-05 -8.45280e-03 -8.01280e-02 -1.43470e-03 4.87210e-03 -7.72370e-05 -5.55520e-05 -3.57310e-03 -7.05030e-02 -2.99210e-04 6.44890e-03 -7.15020e-05 -4.10510e-05 -1.02000e-03 -6.79490e-02 -2.77830e-04 6.59240e-03 -7.00080e-05 -4.05950e-05 -8.15340e-04 -4.81810e-02 2.63790e-03 1.33970e-02 -5.09770e-05 -3.94580e-06 8.58920e-03 -4.59490e-02 2.56490e-03 1.19730e-02 -5.13480e-05 -5.38520e-06 7.16170e-03 -4.43340e-02 2.46330e-03 1.19030e-02 -4.96400e-05 -6.84470e-06 7.11160e-03 -4.27510e-02 2.36320e-03 1.18180e-02 -4.79090e-05 -8.31420e-06 7.06620e-03 -4.12020e-02 2.26470e-03 1.17190e-02 -4.61590e-05 -9.78960e-06 7.02450e-03 -3.96840e-02 2.16780e-03 1.16060e-02 -4.43920e-05 -1.12670e-05 6.98570e-03 -3.80890e-02 2.09130e-03 1.11720e-02 5.01830e-06 -1.16340e-04 6.63840e-03 -3.64490e-02 2.03490e-03 1.04710e-02 9.95760e-05 -3.19960e-04 6.03540e-03 -4.90370e-02 -4.14780e-04 6.54000e-03 -7.59120e-05 -3.13570e-06 2.22160e-04 -4.76410e-02 -5.27580e-04 6.23460e-03 -1.33520e-04 1.18680e-04 4.52310e-05 -4.67940e-02 -7.09900e-04 5.69330e-03 -1.81790e-04 2.16710e-04 -4.70440e-04 -5.12080e-02 -1.71620e-03 4.68030e-03 -1.80010e-04 1.86030e-04 -2.25150e-03 -4.42710e-02 -8.78910e-04 5.92300e-03 -1.09310e-04 6.66250e-05 2.12580e-05 -2.88790e-02 1.45040e-03 1.10020e-02 7.38720e-05 -2.34940e-04 7.42080e-03 -3.16300e-02 6.78130e-04 8.94160e-03 1.53530e-05 -1.35790e-04 4.90180e-03 -3.15230e-02 3.98330e-04 7.95160e-03 -4.19770e-06 -1.01780e-04 3.91840e-03 -2.99900e-02 3.78200e-04 7.81250e-03 -4.15780e-06 -9.83030e-05 4.00820e-03 -2.84970e-02 3.58430e-04 7.66190e-03 -4.06430e-06 -9.49590e-05 4.08920e-03 -2.53810e-02 6.18240e-04 7.99030e-03 -1.09390e-05 -6.76450e-05 4.93250e-03 -2.15760e-02 1.00470e-03 8.75830e-03 -1.93150e-05 -3.03100e-05 6.33520e-03 -2.26610e-02 5.69700e-04 7.78050e-03 -8.93800e-06 -6.31110e-05 5.17730e-03 -2.29070e-02 2.83510e-04 6.94770e-03 -3.17360e-06 -8.28460e-05 4.31450e-03 -2.04080e-02 4.69730e-04 7.11720e-03 -7.56130e-06 -6.23310e-05 4.94290e-03 -1.74680e-02 7.63440e-04 7.33670e-03 -1.38290e-05 -3.46170e-05 5.69080e-03 -2.04230e-02 6.01300e-06 5.78970e-03 -2.29800e-05 -4.38580e-05 3.59540e-03 -1.91110e-02 1.04690e-05 5.59600e-03 -2.09980e-05 -4.40640e-05 3.64350e-03 -1.43920e-02 5.62790e-04 6.79140e-03 -6.36150e-06 -3.73040e-05 5.81930e-03 -1.47360e-02 3.32370e-04 5.90840e-03 -2.40560e-06 -5.54170e-05 4.83610e-03 -1.45440e-02 1.71960e-04 5.29910e-03 2.41790e-07 -6.59470e-05 4.25550e-03 -1.34930e-02 1.58420e-04 5.02540e-03 9.19640e-07 -6.39190e-05 4.19370e-03 -1.24770e-02 1.45540e-04 4.74260e-03 1.64960e-06 -6.19690e-05 4.11770e-03 -1.14960e-02 1.33360e-04 4.45110e-03 2.43580e-06 -6.00840e-05 4.02720e-03 -1.05500e-02 1.21910e-04 4.15100e-03 3.28430e-06 -5.82470e-05 3.92190e-03 -9.92050e-03 1.05520e-04 3.84470e-03 2.94820e-06 -5.74720e-05 3.75080e-03 -9.90370e-03 -6.22590e-05 3.14020e-03 -1.71130e-05 -2.83670e-05 2.86840e-03 -9.64280e-03 -1.43000e-04 2.67920e-03 -2.66210e-05 -1.55430e-05 2.34790e-03 -7.38680e-03 4.37660e-05 2.76420e-03 7.16010e-07 -4.29690e-05 3.10490e-03 -6.56240e-03 4.61160e-05 2.44700e-03 2.83380e-06 -4.20400e-05 2.95270e-03 -5.77770e-03 4.83160e-05 2.12040e-03 5.00790e-06 -4.08110e-05 2.78310e-03 -4.73920e-03 5.78130e-05 1.67730e-03 8.80010e-06 -3.83310e-05 2.54060e-03 -4.32620e-03 5.11060e-05 1.44000e-03 9.44170e-06 -3.75220e-05 2.39380e-03 -3.65860e-03 5.03380e-05 1.08750e-03 1.15970e-05 -3.57930e-05 2.17690e-03 -3.02880e-03 4.65650e-05 7.28770e-04 1.35820e-05 -3.46420e-05 1.94920e-03 -2.43600e-03 3.86500e-05 3.67560e-04 1.54530e-05 -3.49760e-05 1.71530e-03 -1.96210e-03 2.81490e-05 6.54730e-05 1.93310e-05 -3.84890e-05 1.51590e-03 -1.34820e-03 3.21560e-05 -3.18050e-04 2.76300e-05 -4.91040e-05 1.22910e-03 -7.91160e-04 1.15480e-04 -6.11370e-04 3.46380e-05 -6.40650e-05 8.88970e-04 -4.93160e-04 1.83700e-04 -7.46090e-04 4.14900e-05 -7.78730e-05 6.56310e-04 -2.40190e-01 -1.75530e-01 -1.75260e-01 2.67690e-02 2.15760e-03 -3.79950e-02 -2.58280e-01 -1.25860e-01 -1.25170e-01 2.29600e-02 7.41550e-03 5.24770e-03 -2.72890e-01 -5.54680e-02 -5.59300e-02 1.46880e-02 1.19180e-02 5.66430e-02 -2.72230e-01 -2.06320e-02 -2.59400e-02 6.51060e-03 1.17890e-02 6.20160e-02 -2.63390e-01 -8.03690e-03 -1.82240e-02 1.51860e-03 9.69740e-03 5.34670e-02 -2.49670e-01 -2.17000e-03 -1.79190e-02 -8.61570e-04 6.72650e-03 4.87680e-02 -2.45300e-01 -2.34290e-03 -2.03430e-02 -1.24440e-03 5.61660e-03 3.91810e-02 -2.38710e-01 -1.67300e-03 -2.10150e-02 -1.55700e-03 4.10590e-03 3.46890e-02 -2.33010e-01 -1.36020e-03 -2.07150e-02 -1.56750e-03 2.96000e-03 3.11380e-02 -2.28060e-01 -1.31120e-03 -1.99890e-02 -1.44900e-03 2.03740e-03 2.80930e-02 -2.23270e-01 -1.19370e-03 -1.87400e-02 -1.23890e-03 1.36230e-03 2.53890e-02 -2.18760e-01 -1.27730e-03 -1.74650e-02 -1.01890e-03 8.48310e-04 2.29420e-02 -2.14200e-01 -1.23410e-03 -1.59990e-02 -8.00160e-04 4.90920e-04 2.06880e-02 -2.09750e-01 -1.31630e-03 -1.46460e-02 -6.14230e-04 2.33930e-04 1.86190e-02 -1.83920e-01 1.13120e-03 -1.23560e-02 -4.51280e-04 1.87220e-04 1.89680e-02 -1.37300e-01 5.63690e-03 -9.24030e-03 -3.20200e-04 2.95320e-04 2.20930e-02 -1.96300e-01 -1.30150e-03 -1.07620e-02 -2.49400e-04 -1.15740e-04 1.32950e-02 -1.91870e-01 -1.30900e-03 -9.63890e-03 -1.86510e-04 -1.57270e-04 1.17850e-02 -1.87430e-01 -1.26630e-03 -8.55530e-03 -1.43330e-04 -1.77460e-04 1.03860e-02 -1.24980e-01 7.58460e-03 3.55280e-03 -8.40330e-05 6.22690e-05 2.70570e-02 -1.59380e-01 1.73230e-03 -2.92170e-03 -9.10080e-05 -1.04170e-04 1.38650e-02 -1.74360e-01 -1.16520e-03 -5.72830e-03 -9.22590e-05 -1.81530e-04 6.80620e-03 -1.70080e-01 -1.11420e-03 -4.88630e-03 -8.94500e-05 -1.73700e-04 5.79520e-03 -1.65850e-01 -1.07380e-03 -4.09960e-03 -9.01300e-05 -1.64770e-04 4.86790e-03 -1.61670e-01 -1.02400e-03 -3.34930e-03 -9.26870e-05 -1.54930e-04 4.01790e-03 -1.57540e-01 -9.81510e-04 -2.64400e-03 -9.63400e-05 -1.45190e-04 3.24270e-03 -1.69620e-01 -3.17780e-03 -2.07200e-03 -2.27830e-04 1.71930e-04 1.74400e-03 -1.56240e-01 -1.87440e-03 -2.16020e-03 -1.60680e-04 3.28890e-06 4.44060e-04 -1.45480e-01 -8.48600e-04 -7.32210e-04 -1.08200e-04 -1.17570e-04 1.32430e-03 -1.41580e-01 -8.08620e-04 -1.59760e-04 -1.11700e-04 -1.09400e-04 8.10070e-04 -1.37730e-01 -7.68040e-04 3.85380e-04 -1.14790e-04 -1.01740e-04 3.53050e-04 -1.33940e-01 -7.30420e-04 9.02250e-04 -1.17490e-04 -9.46820e-05 -4.93210e-05 -1.30210e-01 -6.92990e-04 1.39420e-03 -1.19800e-04 -8.81430e-05 -4.00130e-04 -1.26540e-01 -6.57860e-04 1.86090e-03 -1.21750e-04 -8.21590e-05 -7.01930e-04 -1.34940e-01 -2.47990e-03 -1.08760e-03 -1.30700e-04 -1.22160e-04 -6.13210e-03 -1.55320e-01 -6.20200e-03 -7.45550e-03 -1.47410e-04 -2.05810e-04 -1.65350e-02 -1.15900e-01 -5.58810e-04 3.12580e-03 -1.25710e-04 -6.72090e-05 -1.34050e-03 -1.12470e-01 -5.28520e-04 3.50500e-03 -1.26470e-04 -6.31710e-05 -1.47280e-03 -1.04480e-01 2.17940e-04 4.65550e-03 -7.57920e-05 -1.49710e-04 -2.35960e-04 -8.70640e-02 2.43740e-03 8.23990e-03 -4.75240e-05 -1.37780e-04 4.81160e-03 -7.14780e-02 4.28190e-03 9.65650e-03 -1.10410e-04 5.12050e-05 7.24780e-03 -1.08740e-01 -1.91550e-03 1.77360e-03 -1.36010e-04 -8.46440e-05 -6.10100e-03 -1.24280e-01 -4.92000e-03 -4.03420e-03 -1.54210e-04 -1.47890e-04 -1.48100e-02 -9.31910e-02 -3.69450e-04 5.38690e-03 -1.26300e-04 -4.73160e-05 -1.58940e-03 -8.15720e-02 9.70540e-04 7.19630e-03 -1.19260e-04 -1.75390e-05 1.16220e-03 -6.14760e-02 3.66120e-03 1.06310e-02 -1.04720e-04 3.90030e-05 6.63870e-03 -6.10900e-02 3.45040e-03 1.40260e-02 -3.53210e-04 5.84270e-04 1.00280e-02 -5.87330e-02 3.36970e-03 1.30700e-02 -1.81250e-04 2.13320e-04 8.79360e-03 -6.54740e-02 1.86050e-03 1.04760e-02 -1.56810e-04 1.01390e-04 4.82060e-03 -9.70830e-02 -3.63080e-03 2.15320e-03 -3.92640e-04 3.69610e-04 -8.15940e-03 -7.76940e-02 -8.94380e-04 6.56240e-03 -1.70110e-04 3.90860e-05 -1.49530e-03 -7.07900e-02 -2.12450e-04 6.97460e-03 -1.15700e-04 -4.27500e-05 -5.26000e-04 -6.82430e-02 -1.96660e-04 7.10570e-03 -1.13690e-04 -4.30960e-05 -3.36590e-04 -4.85220e-02 2.68120e-03 1.39070e-02 -8.09650e-05 1.32470e-05 9.04960e-03 -4.62920e-02 2.60700e-03 1.24760e-02 -8.23180e-05 9.99890e-06 7.61390e-03 -4.46800e-02 2.50190e-03 1.23930e-02 -7.98120e-05 6.55320e-06 7.54980e-03 -4.31000e-02 2.39850e-03 1.22960e-02 -7.72330e-05 3.09970e-06 7.49060e-03 -4.15510e-02 2.29690e-03 1.21850e-02 -7.45890e-05 -3.52850e-07 7.43550e-03 -4.00340e-02 2.19710e-03 1.20600e-02 -7.18850e-05 -3.79630e-06 7.38350e-03 -3.85480e-02 2.09910e-03 1.19210e-02 -6.91290e-05 -7.22280e-06 7.33400e-03 -3.67400e-02 2.03110e-03 1.07940e-02 -6.96970e-05 -1.03980e-05 6.32980e-03 -5.14670e-02 -7.75460e-04 5.82590e-03 -2.56290e-04 2.12710e-04 -8.26760e-04 -5.72390e-02 -2.11680e-03 2.60590e-03 -2.72130e-04 1.73200e-04 -4.92950e-03 -4.36750e-02 -6.82850e-05 7.62780e-03 -8.43480e-05 -5.40360e-05 1.93640e-03 -4.17390e-02 -6.01250e-05 7.59440e-03 -8.12010e-05 -5.53850e-05 2.12980e-03 -4.89830e-02 -1.60350e-03 4.98520e-03 -2.28350e-04 1.26660e-04 -1.63110e-03 -2.91440e-02 1.44380e-03 1.12690e-02 -4.58300e-05 -3.03760e-05 7.65350e-03 -3.32590e-02 4.64260e-04 8.66420e-03 -6.15310e-05 -5.03140e-05 4.35970e-03 -3.44570e-02 -3.21680e-05 7.33170e-03 -6.81440e-05 -6.08780e-05 2.83020e-03 -3.27500e-02 -2.62470e-05 7.23430e-03 -6.47910e-05 -6.22370e-05 2.98300e-03 -3.10880e-02 -2.07150e-05 7.12440e-03 -6.14120e-05 -6.35760e-05 3.12540e-03 -2.86180e-02 1.32940e-04 7.26930e-03 -4.22000e-05 -8.23640e-05 3.66730e-03 -2.59230e-02 3.34720e-04 7.64130e-03 -1.78990e-05 -1.04760e-04 4.47670e-03 -2.55210e-02 1.41010e-04 7.10520e-03 -3.55340e-05 -8.30340e-05 4.00560e-03 -2.48760e-02 -2.10080e-06 6.56340e-03 -4.77410e-05 -6.86160e-05 3.57900e-03 -2.19860e-02 2.49600e-04 6.83790e-03 -3.83030e-05 -6.51840e-05 4.38100e-03 -1.77270e-02 7.64390e-04 7.59000e-03 -2.19600e-05 -5.70580e-05 5.89780e-03 -2.06650e-02 8.65460e-06 6.01880e-03 -3.74480e-05 -7.19160e-05 3.78190e-03 -1.93460e-02 1.17170e-05 5.81450e-03 -3.40280e-05 -7.28990e-05 3.82070e-03 -1.46160e-02 5.61270e-04 7.00320e-03 -8.72330e-06 -6.33550e-05 5.99100e-03 -1.56830e-02 2.03160e-04 5.83110e-03 -1.96580e-05 -7.11260e-05 4.55030e-03 -1.56340e-02 1.95580e-05 5.13560e-03 -2.38380e-05 -7.54310e-05 3.84560e-03 -1.44790e-02 2.17820e-05 4.88780e-03 -2.04640e-05 -7.61120e-05 3.82210e-03 -1.33640e-02 2.38420e-05 4.62960e-03 -1.70980e-05 -7.66920e-05 3.78220e-03 -1.22900e-02 2.57630e-05 4.36110e-03 -1.37340e-05 -7.71530e-05 3.72570e-03 -1.12560e-02 2.75700e-05 4.08250e-03 -1.03630e-05 -7.74690e-05 3.65230e-03 -1.05820e-02 1.62100e-05 3.78590e-03 -9.90210e-06 -7.84270e-05 3.49890e-03 -1.08670e-02 -1.91830e-04 2.96540e-03 -4.33010e-05 -5.57360e-05 2.41020e-03 -8.39490e-03 3.26040e-05 3.18770e-03 -6.23540e-08 -7.70950e-05 3.32900e-03 -7.52100e-03 3.42430e-05 2.87020e-03 3.50120e-06 -7.62980e-05 3.18650e-03 -6.68680e-03 3.58710e-05 2.54350e-03 7.16820e-06 -7.50140e-05 3.02680e-03 -5.89220e-03 3.74300e-05 2.20770e-03 1.09480e-05 -7.31430e-05 2.85000e-03 -4.83930e-03 4.61780e-05 1.75200e-03 1.78310e-05 -6.89160e-05 2.59810e-03 -4.42060e-03 3.94450e-05 1.51030e-03 1.87530e-05 -6.75910e-05 2.44790e-03 -3.74270e-03 3.87720e-05 1.14980e-03 2.25540e-05 -6.43850e-05 2.22540e-03 -3.10220e-03 3.56710e-05 7.83410e-04 2.60080e-05 -6.19700e-05 1.99190e-03 -2.49770e-03 2.86650e-05 4.14100e-04 2.88170e-05 -6.22830e-05 1.75140e-03 -1.92530e-03 1.89240e-05 4.90930e-05 3.17950e-05 -6.79860e-05 1.50630e-03 -1.37390e-03 2.35980e-05 -2.95970e-04 3.76230e-05 -8.12970e-05 1.24390e-03 -8.04600e-04 1.03440e-04 -5.97210e-04 4.82630e-05 -1.04140e-04 8.95050e-04 -5.00870e-04 1.68840e-04 -7.35530e-04 5.80860e-05 -1.24890e-04 6.57320e-04 -2.36400e-01 -1.61920e-01 -1.65690e-01 4.62120e-02 3.65270e-03 -4.20170e-02 -2.58200e-01 -1.11210e-01 -1.20420e-01 3.72120e-02 1.22010e-02 -2.47150e-03 -2.71630e-01 -3.78540e-02 -5.13790e-02 1.78840e-02 1.76570e-02 4.37110e-02 -2.62830e-01 -9.47460e-03 -2.25810e-02 3.99160e-03 1.54850e-02 4.80480e-02 -2.52530e-01 -3.74150e-03 -1.87870e-02 -2.60850e-04 1.15700e-02 4.27010e-02 -2.39480e-01 -9.03570e-04 -1.84840e-02 -2.50360e-03 7.67060e-03 4.28960e-02 -2.35810e-01 -9.22780e-04 -2.02100e-02 -1.87050e-03 6.29320e-03 3.45360e-02 -2.30330e-01 -5.68200e-04 -2.03490e-02 -1.89130e-03 4.56320e-03 3.19720e-02 -2.25820e-01 -5.65920e-04 -1.98430e-02 -1.75270e-03 3.21750e-03 2.98390e-02 -2.21900e-01 -6.11450e-04 -1.88190e-02 -1.50170e-03 2.19520e-03 2.78150e-02 -2.18050e-01 -5.83140e-04 -1.73900e-02 -1.21550e-03 1.43400e-03 2.58440e-02 -2.14330e-01 -6.88680e-04 -1.59340e-02 -9.26610e-04 8.79390e-04 2.39050e-02 -2.10440e-01 -6.66020e-04 -1.43490e-02 -6.67710e-04 4.92350e-04 2.19980e-02 -2.06520e-01 -7.47740e-04 -1.28960e-02 -4.50230e-04 2.24620e-04 2.01560e-02 -1.81020e-01 1.77790e-03 -1.04880e-02 -2.80300e-04 1.80140e-04 2.06490e-02 -1.34510e-01 6.47710e-03 -7.20640e-03 -1.39340e-04 3.03590e-04 2.38570e-02 -1.94150e-01 -7.43860e-04 -8.88860e-03 -5.68330e-05 -1.23500e-04 1.51040e-02 -1.89950e-01 -7.57720e-04 -7.75760e-03 4.75100e-06 -1.59520e-04 1.36120e-02 -1.85710e-01 -7.27370e-04 -6.67950e-03 4.35500e-05 -1.73130e-04 1.22120e-02 -1.23490e-01 8.07600e-03 5.36190e-03 8.97390e-05 8.59450e-05 2.89370e-02 -1.57990e-01 2.23280e-03 -1.09060e-03 8.08640e-05 -8.35380e-05 1.56780e-02 -1.73090e-01 -6.72610e-04 -3.90360e-03 7.38130e-05 -1.60090e-04 8.57760e-03 -1.68930e-01 -6.40620e-04 -3.08670e-03 6.88730e-05 -1.47130e-04 7.53890e-03 -1.64820e-01 -6.18700e-04 -2.32600e-03 6.03960e-05 -1.34110e-04 6.58150e-03 -1.60740e-01 -5.88280e-04 -1.60360e-03 5.02660e-05 -1.20230e-04 5.69990e-03 -1.56720e-01 -5.64550e-04 -9.26430e-04 3.92030e-05 -1.07290e-04 4.89180e-03 -2.00250e-01 -7.32060e-03 -5.54250e-03 2.55460e-05 -2.81930e-04 -5.60350e-03 -1.64610e-01 -2.78450e-03 -1.45740e-03 1.59980e-05 -1.44310e-04 2.06490e-04 -1.44930e-01 -4.86530e-04 8.97540e-04 6.76430e-06 -7.19160e-05 2.87070e-03 -1.41110e-01 -4.63650e-04 1.44050e-03 -3.07770e-06 -6.20080e-05 2.32150e-03 -1.37340e-01 -4.39790e-04 1.95600e-03 -1.22460e-05 -5.27870e-05 1.82940e-03 -1.33630e-01 -4.18150e-04 2.44330e-03 -2.07990e-05 -4.45730e-05 1.39190e-03 -1.29970e-01 -3.96240e-04 2.90560e-03 -2.87120e-05 -3.70680e-05 1.00610e-03 -1.26370e-01 -3.75960e-04 3.34290e-03 -3.60500e-05 -3.04530e-05 6.69510e-04 -1.34830e-01 -2.21330e-03 3.64030e-04 -5.00010e-05 -6.99920e-05 -4.80750e-03 -1.55260e-01 -5.95130e-03 -6.03490e-03 -7.18930e-05 -1.53160e-04 -1.52700e-02 -1.15910e-01 -3.18360e-04 4.51990e-03 -5.48300e-05 -1.48720e-05 -7.17120e-05 -1.12540e-01 -3.00820e-04 4.87000e-03 -6.01180e-05 -1.10560e-05 -2.37520e-04 -1.09230e-01 -2.83730e-04 5.20070e-03 -6.49530e-05 -7.82410e-06 -3.66760e-04 -9.55750e-02 1.30040e-03 7.20200e-03 -6.42580e-05 2.94200e-05 2.51760e-03 -7.16700e-02 4.49010e-03 1.09610e-02 -5.65990e-05 9.89810e-05 8.44430e-03 -1.08980e-01 -1.73330e-03 3.02450e-03 -8.63270e-05 -3.40830e-05 -5.00480e-03 -1.24550e-01 -4.74700e-03 -2.81140e-03 -1.09790e-04 -9.63610e-05 -1.37650e-02 -8.96610e-02 3.76640e-04 7.18940e-03 -1.32880e-04 9.69340e-05 5.80190e-04 -7.49850e-02 2.23280e-03 1.03360e-02 -1.44440e-04 1.67110e-04 5.15980e-03 -6.18520e-02 3.81520e-03 1.17950e-02 -6.67080e-05 8.04780e-05 7.67800e-03 -8.47730e-02 -1.70550e-04 7.21060e-03 -8.92890e-05 -3.31610e-08 -3.52160e-04 -5.96620e-02 3.35720e-03 1.48380e-02 -3.48660e-04 5.92460e-04 1.06370e-02 -5.73520e-02 3.33830e-03 1.40630e-02 -1.58250e-04 2.38030e-04 9.53540e-03 -6.37510e-02 1.93150e-03 1.15620e-02 -1.35890e-04 1.28310e-04 5.67590e-03 -7.41730e-02 -8.78430e-05 9.45640e-03 -8.77140e-05 -3.82360e-06 1.81180e-03 -7.13020e-02 -1.17850e-04 7.95610e-03 -9.33230e-05 -6.64000e-06 2.98690e-04 -6.87690e-02 -1.08770e-04 8.06180e-03 -9.32560e-05 -8.64340e-06 4.63160e-04 -4.90670e-02 2.76070e-03 1.48390e-02 -5.87390e-05 4.16740e-05 9.84810e-03 -4.68420e-02 2.68520e-03 1.33940e-02 -6.25830e-05 3.68010e-05 8.39820e-03 -4.52380e-02 2.57430e-03 1.32870e-02 -6.15870e-05 3.16570e-05 8.31000e-03 -4.36640e-02 2.46540e-03 1.31660e-02 -6.04130e-05 2.65120e-05 8.22740e-03 -4.21200e-02 2.35850e-03 1.30310e-02 -5.90710e-05 2.13800e-05 8.14930e-03 -4.06050e-02 2.25380e-03 1.28810e-02 -5.75720e-05 1.62710e-05 8.07490e-03 -3.89290e-02 2.14390e-03 1.22560e-02 -1.18040e-04 1.10350e-04 7.58030e-03 -3.71230e-02 2.02680e-03 1.12110e-02 -2.37300e-04 2.98500e-04 6.71950e-03 -4.82610e-02 -4.56120e-05 8.39540e-03 -8.21790e-05 -3.23050e-05 2.13270e-03 -4.62270e-02 -4.04020e-05 8.36580e-03 -7.99970e-05 -3.52530e-05 2.31660e-03 -4.42400e-02 -3.55050e-05 8.32320e-03 -7.76640e-05 -3.82130e-05 2.49620e-03 -4.22990e-02 -3.09060e-05 8.26770e-03 -7.51930e-05 -4.11730e-05 2.67060e-03 -4.04040e-02 -2.65930e-05 8.19940e-03 -7.25930e-05 -4.41210e-05 2.83880e-03 -2.96890e-02 1.46850e-03 1.19020e-02 -3.73380e-05 -2.27700e-05 8.17350e-03 -3.37980e-02 4.84670e-04 9.27370e-03 -5.57370e-05 -4.18230e-05 4.85070e-03 -3.49900e-02 -1.52460e-05 7.91890e-03 -6.41160e-05 -5.27930e-05 3.29810e-03 -3.32740e-02 -1.19540e-05 7.80060e-03 -6.10960e-05 -5.55940e-05 3.43350e-03 -3.16020e-02 -8.88910e-06 7.67000e-03 -5.79940e-05 -5.83360e-05 3.55880e-03 -2.99730e-02 -6.03820e-06 7.52730e-03 -5.48190e-05 -6.10100e-05 3.67330e-03 -2.83880e-02 -3.39080e-06 7.37260e-03 -5.15780e-05 -6.36100e-05 3.77650e-03 -2.68450e-02 -9.36230e-07 7.20610e-03 -4.82790e-05 -6.61280e-05 3.86770e-03 -2.53440e-02 1.33630e-06 7.02780e-03 -4.49310e-05 -6.85590e-05 3.94630e-03 -2.24410e-02 2.53630e-04 7.28970e-03 -3.52580e-05 -6.71220e-05 4.74090e-03 -1.81680e-02 7.71390e-04 8.03630e-03 -1.78580e-05 -6.14900e-05 6.25880e-03 -2.10940e-02 7.16100e-06 6.42420e-03 -3.46630e-05 -7.52670e-05 4.10180e-03 -1.97600e-02 8.80420e-06 6.20050e-03 -3.11860e-05 -7.72910e-05 4.12520e-03 -1.50010e-02 5.63100e-04 7.37440e-03 -3.26610e-06 -7.04850e-05 6.29030e-03 -1.60620e-02 1.99750e-04 6.18020e-03 -1.56120e-05 -7.79390e-05 4.82760e-03 -1.60040e-02 1.29710e-05 5.46420e-03 -2.06680e-05 -8.26570e-05 4.10430e-03 -1.48330e-02 1.41400e-05 5.19760e-03 -1.71410e-05 -8.41850e-05 4.06580e-03 -1.37020e-02 1.52180e-05 4.92060e-03 -1.36050e-05 -8.55650e-05 4.01100e-03 -1.26120e-02 1.62190e-05 4.63350e-03 -1.00540e-05 -8.67770e-05 3.93960e-03 -1.15610e-02 1.71580e-05 4.33630e-03 -6.48150e-06 -8.77950e-05 3.85150e-03 -1.08780e-02 5.40380e-06 4.02910e-03 -6.77040e-06 -8.96090e-05 3.68970e-03 -9.58060e-03 1.89190e-05 3.71280e-03 7.82230e-07 -8.90680e-05 3.62410e-03 -8.64990e-03 1.97810e-05 3.38670e-03 4.51490e-06 -8.91880e-05 3.48480e-03 -7.75880e-03 2.06470e-05 3.05160e-03 8.35440e-06 -8.88330e-05 3.32830e-03 -6.90730e-03 2.15250e-05 2.70750e-03 1.23320e-05 -8.78730e-05 3.15510e-03 -6.09520e-03 2.23820e-05 2.35490e-03 1.64830e-05 -8.61620e-05 2.96550e-03 -5.01660e-03 3.04060e-05 1.87650e-03 2.48140e-05 -8.13700e-05 2.69700e-03 -4.58780e-03 2.35610e-05 1.62640e-03 2.52780e-05 -8.00830e-05 2.54110e-03 -3.89140e-03 2.32480e-05 1.25210e-03 2.96840e-05 -7.59880e-05 2.30930e-03 -3.23200e-03 2.12550e-05 8.72720e-04 3.36000e-05 -7.23370e-05 2.06730e-03 -2.60720e-03 1.66650e-05 4.91080e-04 3.63080e-05 -7.15830e-05 1.81720e-03 -2.01260e-03 8.02670e-06 1.11130e-04 3.72120e-05 -7.86790e-05 1.55940e-03 -1.43440e-03 5.88930e-06 -2.53050e-04 4.10530e-05 -9.88960e-05 1.28190e-03 -8.33050e-04 7.33130e-05 -5.72410e-04 5.73380e-05 -1.35020e-04 9.14740e-04 -5.12610e-04 1.30610e-04 -7.16860e-04 7.65970e-05 -1.68210e-04 6.65930e-04 -2.49600e-01 -1.48450e-01 -1.61410e-01 7.19990e-02 2.90680e-03 -5.50670e-02 -2.63220e-01 -7.47800e-02 -1.01010e-01 4.45100e-02 1.21830e-02 -2.00870e-02 -2.50330e-01 -1.10110e-02 -3.06050e-02 8.96410e-03 1.64260e-02 2.04290e-02 -2.39260e-01 -2.43850e-03 -1.81410e-02 -5.61280e-04 1.20520e-02 2.88150e-02 -2.32060e-01 -6.25500e-04 -1.59760e-02 -1.65150e-03 8.47880e-03 3.02950e-02 -2.24110e-01 -3.79070e-04 -1.68020e-02 -1.45010e-03 5.22030e-03 3.72350e-02 -2.21400e-01 -1.35080e-04 -1.78430e-02 -1.27200e-03 4.28070e-03 3.03120e-02 -2.18080e-01 9.22180e-05 -1.76380e-02 -1.06400e-03 2.96530e-03 3.00340e-02 -2.15550e-01 -9.74790e-05 -1.69740e-02 -7.87190e-04 2.05110e-03 2.95190e-02 -2.13250e-01 -1.01510e-04 -1.56540e-02 -5.37830e-04 1.31570e-03 2.85940e-02 -2.10830e-01 -1.53330e-04 -1.41190e-02 -2.74810e-04 8.16830e-04 2.73800e-02 -2.08220e-01 -2.10070e-04 -1.25030e-02 -5.29120e-05 4.41160e-04 2.59230e-02 -2.05260e-01 -2.13220e-04 -1.08730e-02 1.39630e-04 2.02160e-04 2.43270e-02 -2.02060e-01 -2.62540e-04 -9.36540e-03 2.85390e-04 3.58330e-05 2.26630e-02 -1.76990e-01 2.33310e-03 -6.89910e-03 3.84050e-04 4.46650e-05 2.32700e-02 -1.30640e-01 7.26380e-03 -3.46730e-03 4.41430e-04 1.81710e-04 2.65370e-02 -1.91080e-01 -2.63460e-04 -5.40960e-03 5.13300e-04 -1.42930e-04 1.77690e-02 -1.87180e-01 -2.77490e-04 -4.31900e-03 5.36140e-04 -1.52130e-04 1.62650e-02 -1.83190e-01 -2.60310e-04 -3.29520e-03 5.42790e-04 -1.47510e-04 1.48420e-02 -1.21270e-01 8.49700e-03 8.62480e-03 5.29090e-04 9.05100e-05 3.16090e-02 -1.55920e-01 2.66530e-03 2.15950e-03 5.20740e-04 -4.79890e-05 1.82600e-02 -1.71180e-01 -2.45000e-04 -6.97310e-04 5.05340e-04 -1.06060e-04 1.10970e-02 -1.67200e-01 -2.30590e-04 5.60540e-05 4.83440e-04 -8.90810e-05 1.00150e-02 -1.63250e-01 -2.24700e-04 7.53630e-04 4.59900e-04 -7.26560e-05 9.01200e-03 -1.59330e-01 -2.11940e-04 1.41230e-03 4.35610e-04 -5.68940e-05 8.08400e-03 -1.55450e-01 -2.04600e-04 2.02650e-03 4.11370e-04 -4.22200e-05 7.22840e-03 -1.99240e-01 -7.02620e-03 -2.69270e-03 4.06610e-04 -1.86200e-04 -3.40650e-03 -1.63670e-01 -2.47410e-03 1.35700e-03 3.70160e-04 -6.78300e-05 2.41610e-03 -1.44090e-01 -1.75440e-04 3.66340e-03 3.41870e-04 -5.10610e-06 5.06140e-03 -1.40390e-01 -1.67620e-04 4.14530e-03 3.20340e-04 4.96740e-06 4.46290e-03 -1.36740e-01 -1.58600e-04 4.60020e-03 2.99660e-04 1.39120e-05 3.92160e-03 -1.33140e-01 -1.51050e-04 5.02770e-03 2.79880e-04 2.18460e-05 3.43490e-03 -1.29590e-01 -1.42880e-04 5.43080e-03 2.60930e-04 2.87560e-05 3.00020e-03 -1.26100e-01 -1.35700e-04 5.80960e-03 2.42830e-04 3.47580e-05 2.61500e-03 -1.34640e-01 -1.98410e-03 2.78240e-03 2.25780e-04 1.61360e-06 -2.92500e-03 -1.55140e-01 -5.73180e-03 -3.65510e-03 2.07880e-04 -6.81980e-05 -1.34640e-02 -1.15910e-01 -1.14690e-04 6.81560e-03 1.93190e-04 4.76200e-05 1.73090e-03 -1.12620e-01 -1.08380e-04 7.11020e-03 1.78140e-04 5.03950e-05 1.51860e-03 -1.09380e-01 -1.02120e-04 7.38610e-03 1.63800e-04 5.24750e-05 1.34360e-03 -9.57880e-02 1.47690e-03 9.33870e-03 1.48990e-04 8.24300e-05 4.20820e-03 -7.19280e-02 4.66660e-03 1.30550e-02 1.35650e-04 1.38790e-04 1.01410e-02 -1.09330e-01 -1.57900e-03 5.06020e-03 1.22210e-04 2.81800e-05 -3.43990e-03 -1.24940e-01 -4.59720e-03 -8.08090e-04 1.03130e-04 -2.44200e-05 -1.22680e-02 -8.50090e-02 1.29860e-03 1.01030e-02 1.02340e-04 7.75380e-05 3.72980e-03 -6.51380e-02 4.02810e-03 1.54110e-02 9.85680e-05 1.22090e-04 1.13110e-02 -6.23870e-02 3.94340e-03 1.36340e-02 8.54740e-05 1.16880e-04 9.15770e-03 -8.53680e-02 -6.09670e-05 8.98640e-03 7.26560e-05 5.01230e-05 1.01970e-03 -8.26020e-02 -5.67660e-05 9.11740e-03 6.39800e-05 4.80530e-05 1.08290e-03 -5.83730e-02 3.44770e-03 1.62850e-02 -2.64690e-04 6.10250e-04 1.16040e-02 -5.62110e-02 3.34450e-03 1.56060e-02 -4.97770e-05 2.62830e-04 1.06260e-02 -7.47250e-02 -4.92630e-05 1.03190e-02 -2.89770e-04 4.88740e-04 2.53930e-03 -7.20780e-02 -4.46550e-05 9.78120e-03 -7.43730e-05 1.84550e-04 1.85480e-03 -6.95360e-02 -3.84810e-05 9.56330e-03 2.85430e-05 3.41260e-05 1.61510e-03 -4.98610e-02 2.82070e-03 1.62770e-02 4.05730e-05 7.26060e-05 1.09940e-02 -4.76430e-02 2.74590e-03 1.48080e-02 3.18140e-05 6.67990e-05 9.52480e-03 -4.60510e-02 2.63020e-03 1.46600e-02 2.75410e-05 6.10040e-05 9.40320e-03 -4.44870e-02 2.51680e-03 1.44990e-02 2.36400e-05 5.52350e-05 9.28770e-03 -4.29500e-02 2.40570e-03 1.43240e-02 2.00950e-05 4.95080e-05 9.17750e-03 -4.14410e-02 2.29700e-03 1.41360e-02 1.68910e-05 4.38370e-05 9.07170e-03 -3.95720e-02 2.22670e-03 1.29340e-02 1.00820e-05 3.82640e-05 7.98150e-03 -6.38820e-02 -2.26340e-03 3.78640e-03 -2.76200e-04 2.41040e-04 -4.68170e-03 -4.91020e-02 -1.55500e-05 9.53410e-03 -7.08220e-06 1.75700e-06 3.00410e-03 -4.70660e-02 -1.36650e-05 9.46740e-03 -9.21120e-06 -1.94420e-06 3.15990e-03 -4.50740e-02 -1.18950e-05 9.38830e-03 -1.10310e-05 -5.61350e-06 3.31200e-03 -4.31270e-02 -1.02350e-05 9.29690e-03 -1.25560e-05 -9.24000e-06 3.45940e-03 -4.12250e-02 -8.68070e-06 9.19320e-03 -1.38010e-05 -1.28130e-05 3.60110e-03 -3.04900e-02 1.48550e-03 1.28530e-02 5.44920e-06 1.84060e-06 8.92890e-03 -3.45960e-02 4.98160e-04 1.01960e-02 -8.08450e-06 -1.35740e-05 5.56770e-03 -3.57810e-02 -4.60170e-06 8.80960e-03 -1.59920e-05 -2.31170e-05 3.98340e-03 -3.40520e-02 -3.42260e-06 8.65780e-03 -1.62530e-05 -2.63860e-05 4.09400e-03 -3.23660e-02 -2.32670e-06 8.49420e-03 -1.63000e-05 -2.95600e-05 4.19480e-03 -3.07220e-02 -1.30920e-06 8.31900e-03 -1.61460e-05 -3.26330e-05 4.28530e-03 -2.91210e-02 -3.66650e-07 8.13220e-03 -1.58030e-05 -3.55990e-05 4.36460e-03 -2.75610e-02 5.05250e-07 7.93390e-03 -1.52820e-05 -3.84530e-05 4.43230e-03 -2.60420e-02 1.31060e-06 7.72430e-03 -1.45950e-05 -4.11910e-05 4.48770e-03 -2.31180e-02 2.55060e-04 7.96390e-03 -1.06620e-05 -4.15240e-05 5.27010e-03 -1.88210e-02 7.76990e-04 8.69730e-03 -1.46850e-06 -3.88130e-05 6.78670e-03 -2.64780e-02 -7.44930e-04 5.41690e-03 5.97000e-05 -1.14260e-04 2.06030e-03 -2.03790e-02 3.94060e-06 6.77490e-03 -1.04060e-05 -5.09140e-05 4.57560e-03 -1.55700e-02 5.64770e-04 7.92180e-03 7.60440e-06 -4.71050e-05 6.72930e-03 -1.66280e-02 1.95500e-04 6.69630e-03 -1.38420e-06 -5.27730e-05 5.23710e-03 -1.65570e-02 5.39060e-06 5.95020e-03 -6.02360e-06 -5.68380e-05 4.48830e-03 -1.53630e-02 5.79440e-06 5.65450e-03 -4.36990e-06 -5.85350e-05 4.42790e-03 -1.42090e-02 6.16490e-06 5.34880e-03 -2.62890e-06 -6.00850e-05 4.35120e-03 -1.30950e-02 6.50760e-06 5.03310e-03 -8.03590e-07 -6.14750e-05 4.25810e-03 -1.20210e-02 6.82680e-06 4.70750e-03 1.10640e-06 -6.26910e-05 4.14820e-03 -1.13230e-02 -5.06940e-06 4.38410e-03 -1.14410e-06 -6.50640e-05 3.97390e-03 -9.99070e-03 7.42260e-06 4.02790e-03 5.19790e-06 -6.44850e-05 3.87760e-03 -9.03490e-03 7.71500e-06 3.67420e-03 7.40080e-06 -6.49710e-05 3.71680e-03 -8.11850e-03 8.00490e-06 3.31170e-03 9.73460e-06 -6.50890e-05 3.53920e-03 -7.24120e-03 8.30530e-06 2.94080e-03 1.22250e-05 -6.47350e-05 3.34520e-03 -6.40280e-03 8.59420e-06 2.56210e-03 1.49050e-05 -6.37810e-05 3.13570e-03 -5.28590e-03 1.59350e-05 2.04840e-03 2.22150e-05 -5.97870e-05 2.84090e-03 -4.84110e-03 9.02130e-06 1.78520e-03 2.09010e-05 -5.95430e-05 2.67590e-03 -4.11620e-03 8.93130e-06 1.38970e-03 2.40950e-05 -5.62390e-05 2.43010e-03 -3.42680e-03 8.28390e-06 9.92400e-04 2.69650e-05 -5.27880e-05 2.17740e-03 -2.77070e-03 6.33640e-06 5.95570e-04 2.87190e-05 -5.11170e-05 1.91940e-03 -2.14310e-03 2.98680e-06 2.01920e-04 2.77690e-05 -5.58000e-05 1.65190e-03 -1.53360e-03 -3.75050e-06 -1.89260e-04 2.50940e-05 -7.51930e-05 1.35860e-03 -8.94500e-04 3.49120e-05 -5.54380e-04 3.92230e-05 -1.13730e-04 9.68680e-04 -5.54850e-04 7.25410e-05 -7.20650e-04 6.35120e-05 -1.52570e-04 7.04540e-04 -2.96140e-01 -1.41520e-01 -1.61710e-01 9.89100e-02 1.83970e-03 -7.98410e-02 -2.72890e-01 -4.66620e-02 -8.31500e-02 4.16100e-02 1.21130e-02 -4.49900e-02 -2.19480e-01 -7.67970e-04 -1.68760e-02 -2.61280e-03 1.35660e-02 1.16950e-03 -2.22090e-01 -3.43730e-03 -1.80930e-02 -5.56900e-04 9.64940e-03 1.69720e-02 -2.16790e-01 2.89650e-04 -1.26190e-02 -2.43260e-03 6.85300e-03 2.34150e-02 -2.13760e-01 2.14440e-03 -1.29650e-02 -1.13540e-03 4.77750e-03 3.47810e-02 -2.11670e-01 -1.54380e-04 -1.57650e-02 -7.47490e-04 4.17800e-03 2.86210e-02 -2.10470e-01 -3.85380e-04 -1.61410e-02 -1.36060e-04 3.38470e-03 2.98350e-02 -2.09110e-01 -1.90740e-04 -1.47150e-02 -1.39760e-04 2.80510e-03 3.02880e-02 -2.08190e-01 -2.65580e-04 -1.34260e-02 1.47740e-04 2.35320e-03 3.00120e-02 -2.06680e-01 -1.61270e-04 -1.15580e-02 2.31910e-04 2.04010e-03 2.91790e-02 -2.04910e-01 -2.03060e-04 -9.91400e-03 3.92610e-04 1.80180e-03 2.79500e-02 -2.02520e-01 -1.41840e-04 -8.17110e-03 4.60680e-04 1.64640e-03 2.64660e-02 -1.99790e-01 -1.70200e-04 -6.66690e-03 5.36840e-04 1.53020e-03 2.48530e-02 -1.75060e-01 2.41810e-03 -4.18350e-03 5.54340e-04 1.52300e-03 2.54760e-02 -1.29030e-01 7.27280e-03 -8.02670e-04 5.75930e-04 1.60210e-03 2.87380e-02 -1.89620e-01 -1.28710e-04 -2.75550e-03 5.77670e-04 1.36560e-03 1.99320e-02 -1.85890e-01 -1.39270e-04 -1.70710e-03 5.65520e-04 1.33620e-03 1.83970e-02 -1.82050e-01 -1.23510e-04 -7.24550e-04 5.40170e-04 1.31450e-03 1.69410e-02 -1.20430e-01 8.52540e-03 1.11380e-02 5.12220e-04 1.43120e-03 3.36800e-02 -1.55080e-01 2.75960e-03 4.63460e-03 4.80190e-04 1.32020e-03 2.02910e-02 -1.70390e-01 -1.17610e-04 1.73760e-03 4.44790e-04 1.25820e-03 1.30890e-02 -1.66510e-01 -1.08410e-04 2.44650e-03 4.09070e-04 1.24000e-03 1.19710e-02 -1.62660e-01 -1.06970e-04 3.09950e-03 3.74680e-04 1.22100e-03 1.09310e-02 -1.58840e-01 -9.93440e-05 3.71450e-03 3.40220e-04 1.20120e-03 9.96640e-03 -1.55050e-01 -9.65520e-05 4.28520e-03 3.07600e-04 1.18060e-03 9.07340e-03 -1.98830e-01 -6.81960e-03 -4.50630e-04 2.81690e-04 1.05100e-03 -1.62860e-03 -1.63410e-01 -2.34040e-03 3.53940e-03 2.46950e-04 1.10140e-03 4.17570e-03 -1.43930e-01 -8.09310e-05 5.79460e-03 2.17100e-04 1.11380e-03 6.79340e-03 -1.40310e-01 -7.72140e-05 6.23460e-03 1.90130e-04 1.09020e-03 6.15700e-03 -1.36730e-01 -7.22290e-05 6.64800e-03 1.64420e-04 1.06590e-03 5.57800e-03 -1.33200e-01 -6.85000e-05 7.03420e-03 1.40350e-04 1.04120e-03 5.05380e-03 -1.29720e-01 -6.40630e-05 7.39640e-03 1.17550e-04 1.01590e-03 4.58180e-03 -1.26280e-01 -6.04580e-05 7.73450e-03 9.62320e-05 9.90310e-04 4.15960e-03 -1.34840e-01 -1.87990e-03 4.68630e-03 7.14940e-05 9.43110e-04 -1.41670e-03 -1.55320e-01 -5.56700e-03 -1.75240e-03 4.13100e-05 8.76040e-04 -1.19910e-02 -1.16260e-01 -4.94880e-05 8.62060e-03 3.98380e-05 9.11720e-04 3.16710e-03 -1.13010e-01 -4.63040e-05 8.87590e-03 2.35110e-05 8.85170e-04 2.91960e-03 -1.09820e-01 -4.30660e-05 9.11290e-03 8.29500e-06 8.58490e-04 2.71000e-03 -9.62850e-02 1.51010e-03 1.10190e-02 -4.23060e-06 8.52310e-04 5.54970e-03 -7.25060e-02 4.65130e-03 1.46810e-02 -1.19790e-05 8.65450e-04 1.14670e-02 -1.09840e-01 -1.50290e-03 6.69010e-03 -3.74610e-05 7.63960e-04 -2.17390e-03 -1.25430e-01 -4.47330e-03 8.20030e-04 -6.42330e-05 7.09310e-04 -1.10340e-02 -8.56360e-02 1.32370e-03 1.16340e-02 -4.95010e-05 7.42300e-04 4.94040e-03 -6.58420e-02 4.00580e-03 1.68760e-02 -4.53070e-05 7.42230e-04 1.24950e-02 -6.31020e-02 3.92430e-03 1.50780e-02 -5.93360e-05 7.20780e-04 1.03240e-02 -8.60450e-02 -2.25650e-05 1.04160e-02 -7.65980e-05 6.46950e-04 2.12970e-03 -8.32970e-02 -2.05340e-05 1.05120e-02 -8.31820e-05 6.21320e-04 2.16340e-03 -8.05980e-02 -1.85920e-05 1.05940e-02 -8.89960e-05 5.95960e-04 2.21450e-03 -5.75550e-02 3.28560e-03 1.81680e-02 -6.97680e-05 5.97630e-04 1.28960e-02 -5.50870e-02 3.20990e-03 1.65110e-02 -8.01360e-05 5.77580e-04 1.11020e-02 -7.30720e-02 1.55420e-05 1.22900e-02 -9.47580e-05 5.16490e-04 4.02770e-03 -7.02910e-02 -1.18380e-05 1.07880e-02 -1.05190e-04 4.97910e-04 2.55700e-03 -5.06710e-02 2.79750e-03 1.74290e-02 -8.23220e-05 4.94980e-04 1.19120e-02 -4.84530e-02 2.72530e-03 1.59420e-02 -9.02730e-05 4.76270e-04 1.04280e-02 -4.68610e-02 2.61000e-03 1.57640e-02 -9.14680e-05 4.52170e-04 1.02810e-02 -4.52950e-02 2.49710e-03 1.55720e-02 -9.21890e-05 4.28580e-04 1.01410e-02 -4.37550e-02 2.38660e-03 1.53670e-02 -9.24630e-05 4.05510e-04 1.00060e-02 -4.22420e-02 2.27850e-03 1.51500e-02 -9.23200e-05 3.82980e-04 9.87660e-03 -4.03690e-02 2.21010e-03 1.39310e-02 -9.77780e-05 3.66040e-04 8.77280e-03 -5.19440e-02 -2.35070e-06 1.05630e-02 -1.10400e-04 3.21910e-04 3.59160e-03 -4.98560e-02 -1.48080e-06 1.04800e-02 -1.09080e-04 3.02070e-04 3.72770e-03 -4.78120e-02 -6.71490e-07 1.03840e-02 -1.07420e-04 2.82740e-04 3.86140e-03 -4.58130e-02 8.00850e-08 1.02760e-02 -1.05430e-04 2.63930e-04 3.99170e-03 -4.38570e-02 7.76940e-07 1.01560e-02 -1.03150e-04 2.45640e-04 4.11760e-03 -4.19440e-02 1.42090e-06 1.00240e-02 -1.00590e-04 2.27880e-04 4.23810e-03 -3.12080e-02 1.47200e-03 1.36350e-02 -7.36470e-05 2.18810e-04 9.54780e-03 -3.52960e-02 4.99060e-04 1.09640e-02 -8.59350e-05 1.96970e-04 6.16430e-03 -3.64640e-02 3.06650e-06 9.55750e-03 -9.14950e-05 1.77830e-04 4.55880e-03 -3.47210e-02 3.52750e-06 9.37870e-03 -8.80590e-05 1.62220e-04 4.64930e-03 -3.30210e-02 3.94880e-06 9.18840e-03 -8.44560e-05 1.47160e-04 4.73030e-03 -3.13620e-02 4.33340e-06 8.98670e-03 -8.07030e-05 1.32650e-04 4.80120e-03 -2.97450e-02 4.68260e-06 8.77370e-03 -7.68200e-05 1.18690e-04 4.86110e-03 -2.81690e-02 4.99880e-06 8.54950e-03 -7.28240e-05 1.05270e-04 4.90950e-03 -2.66330e-02 5.28460e-06 8.31410e-03 -6.87320e-05 9.24020e-05 4.94590e-03 -2.36940e-02 2.55870e-04 8.53200e-03 -6.19670e-05 8.25850e-05 5.71540e-03 -1.93830e-02 7.71910e-04 9.24740e-03 -5.01660e-05 7.65810e-05 7.22530e-03 -2.67690e-02 -7.35570e-04 5.69870e-03 -7.80640e-05 5.25160e-05 2.27660e-03 -2.08970e-02 6.16520e-06 7.26390e-03 -5.17370e-05 4.63800e-05 4.95890e-03 -1.60540e-02 5.61830e-04 8.38010e-03 -2.93000e-05 3.87790e-05 7.09600e-03 -1.71030e-02 1.95430e-04 7.13410e-03 -3.62940e-05 2.78520e-05 5.58420e-03 -1.70170e-02 6.60470e-06 6.36560e-03 -3.87430e-05 1.75560e-05 4.81640e-03 -1.58030e-02 6.72030e-06 6.04570e-03 -3.44350e-05 9.02610e-06 4.73770e-03 -1.46290e-02 6.82470e-06 5.71590e-03 -3.01560e-05 1.03460e-06 4.64270e-03 -1.34940e-02 6.91910e-06 5.37620e-03 -2.59160e-05 -6.41510e-06 4.53130e-03 -1.23990e-02 7.00770e-06 5.02690e-03 -2.17210e-05 -1.33160e-05 4.40310e-03 -1.16890e-02 -4.86150e-06 4.68960e-03 -2.30930e-05 -1.95670e-05 4.21820e-03 -1.03260e-02 7.17320e-06 4.29990e-03 -1.34820e-05 -2.54200e-05 4.09590e-03 -9.34890e-03 7.25180e-06 3.92270e-03 -9.44010e-06 -3.05730e-05 3.91680e-03 -8.41060e-03 7.33280e-06 3.53690e-03 -5.42980e-06 -3.50680e-05 3.72090e-03 -7.51130e-03 7.39220e-06 3.14300e-03 -1.45660e-06 -3.88460e-05 3.50890e-03 -6.65050e-03 7.44030e-06 2.74160e-03 2.53300e-06 -4.18060e-05 3.28160e-03 -5.50110e-03 1.41500e-05 2.19670e-03 1.17770e-05 -4.25410e-05 2.96290e-03 -5.04260e-03 7.22370e-06 1.92170e-03 1.05490e-05 -4.48830e-05 2.78920e-03 -4.29350e-03 6.59770e-06 1.50690e-03 1.44180e-05 -4.49440e-05 2.53050e-03 -3.57870e-03 5.64320e-06 1.09330e-03 1.81200e-05 -4.42730e-05 2.26900e-03 -2.89690e-03 2.89070e-06 6.83180e-04 2.02630e-05 -4.44720e-05 2.00810e-03 -2.24290e-03 7.05680e-08 2.81160e-04 2.05460e-05 -4.85460e-05 1.74370e-03 -1.61620e-03 -8.66530e-06 -1.23660e-04 1.35840e-05 -6.62470e-05 1.45330e-03 -9.59680e-04 1.37670e-05 -5.27420e-04 2.15470e-05 -1.04360e-04 1.05020e-03 -6.09490e-04 4.04860e-05 -7.18760e-04 4.46260e-05 -1.44760e-04 7.70360e-04 -5.27510e-01 -2.42680e-01 -2.81720e-01 -1.61040e-01 3.36480e-04 -6.14520e-02 -4.93980e-01 -7.83060e-02 -1.32510e-01 -6.30630e-02 -8.68060e-03 -3.42420e-02 -4.11690e-01 1.57230e-04 -8.28190e-03 9.11320e-03 -1.00990e-02 -3.37710e-03 -4.18790e-01 -5.84380e-03 -1.28120e-02 3.00410e-03 -7.00940e-03 5.92930e-04 -4.06890e-01 1.10550e-03 -5.88950e-03 5.07580e-03 -5.64510e-03 2.99870e-03 -4.01540e-01 3.23040e-03 -8.84980e-03 2.91900e-03 -4.31100e-03 1.46530e-02 -3.97610e-01 3.41740e-06 -1.30440e-02 2.14530e-03 -3.76280e-03 7.16230e-03 -3.94880e-01 -6.00860e-04 -1.47900e-02 8.71110e-04 -3.07300e-03 7.35130e-03 -3.90950e-01 -1.87660e-04 -1.37660e-02 8.62960e-04 -2.43030e-03 6.27570e-03 -3.87230e-01 -2.68240e-04 -1.32720e-02 2.27630e-04 -2.02990e-03 4.29170e-03 -3.82430e-01 -1.83670e-04 -1.20930e-02 7.96510e-05 -1.69620e-03 1.73940e-03 -3.77010e-01 -1.55830e-04 -1.11570e-02 -2.47590e-04 -1.50460e-03 -1.10110e-03 -3.70850e-01 -1.64600e-04 -1.01890e-02 -3.60790e-04 -1.35350e-03 -4.03080e-03 -3.64120e-01 -1.26090e-04 -9.36240e-03 -5.07000e-04 -1.27240e-03 -6.91600e-03 -3.56990e-01 -1.53150e-04 -8.65200e-03 -5.55850e-04 -1.20940e-03 -9.67690e-03 -3.51070e-01 -5.82200e-05 -1.02800e-02 -5.56780e-04 -1.18870e-03 -1.70430e-02 -3.41920e-01 -1.45560e-04 -7.51610e-03 -6.01330e-04 -1.15030e-03 -1.46650e-02 -2.74490e-01 7.93200e-03 2.16270e-03 -6.21150e-04 -1.28590e-03 2.52240e-03 -3.06570e-01 2.62470e-03 -3.49110e-03 -5.72430e-04 -1.17240e-03 -1.24760e-02 -3.18600e-01 -1.21430e-04 -6.33450e-03 -5.37420e-04 -1.11040e-03 -2.06800e-02 -3.10860e-01 -1.29740e-04 -6.04700e-03 -5.01170e-04 -1.09870e-03 -2.23100e-02 -3.03160e-01 -1.17070e-04 -5.77510e-03 -4.62010e-04 -1.08710e-03 -2.37680e-02 -2.95540e-01 -1.20440e-04 -5.54100e-03 -4.22740e-04 -1.07430e-03 -2.50620e-02 -2.87990e-01 -1.10520e-04 -5.31550e-03 -3.82720e-04 -1.06050e-03 -2.62010e-02 -2.80540e-01 -1.10750e-04 -5.11300e-03 -3.44470e-04 -1.04560e-03 -2.71930e-02 -2.73170e-01 -1.02740e-04 -4.91460e-03 -3.06630e-04 -1.02950e-03 -2.80470e-02 -2.64810e-01 -1.32740e-06 -2.19260e-03 -2.76060e-04 -1.00570e-03 -2.49670e-02 -2.58740e-01 -9.44490e-05 -4.54410e-03 -2.36470e-04 -9.94450e-04 -2.93660e-02 -2.51680e-01 -9.18000e-05 -4.36510e-03 -2.04110e-04 -9.75690e-04 -2.98440e-02 -2.44720e-01 -8.61060e-05 -4.18420e-03 -1.72960e-04 -9.55990e-04 -3.02100e-02 -2.37860e-01 -8.29470e-05 -4.00440e-03 -1.43850e-04 -9.35730e-04 -3.04710e-02 -2.31110e-01 -7.79710e-05 -3.82080e-03 -1.16040e-04 -9.14730e-04 -3.06300e-02 -2.24470e-01 -7.46060e-05 -3.63510e-03 -9.00540e-05 -8.93300e-04 -3.06960e-02 -2.18770e-01 -1.52950e-04 -5.85920e-03 -5.74340e-05 -8.77660e-04 -3.38990e-02 -2.11520e-01 -6.67790e-05 -3.24930e-03 -4.23500e-05 -8.48940e-04 -3.05640e-02 -2.05200e-01 -6.27750e-05 -3.04840e-03 -2.06070e-05 -8.26170e-04 -3.03780e-02 -1.99000e-01 -5.94500e-05 -2.84250e-03 -3.58180e-07 -8.03170e-04 -3.01190e-02 -1.92900e-01 -5.57960e-05 -2.63030e-03 1.86440e-05 -7.79880e-04 -2.97920e-02 -1.86910e-01 -5.25980e-05 -2.41270e-03 3.62790e-05 -7.56460e-04 -2.94010e-02 -1.81040e-01 -4.92410e-05 -2.18920e-03 5.27180e-05 -7.32860e-04 -2.89520e-02 -1.66110e-01 1.48020e-03 -7.47490e-05 6.64100e-05 -7.37050e-04 -2.52320e-02 -1.42190e-01 4.57460e-03 4.00740e-03 7.57150e-05 -7.67680e-04 -1.82340e-02 -1.64060e-01 -4.02420e-05 -1.48790e-03 9.48170e-05 -6.61850e-04 -2.72970e-02 -1.58620e-01 -3.73800e-05 -1.24500e-03 1.06620e-04 -6.38210e-04 -2.66570e-02 -1.53290e-01 -3.47000e-05 -9.98460e-04 1.17360e-04 -6.14680e-04 -2.59800e-02 -1.48060e-01 -3.20560e-05 -7.48870e-04 1.27090e-04 -5.91260e-04 -2.52700e-02 -1.42940e-01 -2.95590e-05 -4.96960e-04 1.35820e-04 -5.68020e-04 -2.45300e-02 -1.37920e-01 -2.71200e-05 -2.43360e-04 1.43630e-04 -5.44960e-04 -2.37640e-02 -1.33010e-01 -2.48050e-05 1.11270e-05 1.50520e-04 -5.22140e-04 -2.29740e-02 -1.28200e-01 -2.25600e-05 2.65770e-04 1.56550e-04 -4.99560e-04 -2.21660e-02 -1.22820e-01 5.36650e-05 2.22740e-03 1.51290e-04 -4.73150e-04 -1.93870e-02 -1.18890e-01 -1.83600e-05 7.72260e-04 1.66160e-04 -4.55270e-04 -2.05030e-02 -1.14380e-01 -1.63950e-05 1.02250e-03 1.69800e-04 -4.33610e-04 -1.96540e-02 -1.09970e-01 -1.45060e-05 1.26960e-03 1.72730e-04 -4.12290e-04 -1.87980e-02 -1.05660e-01 -1.27050e-05 1.51280e-03 1.74960e-04 -3.91350e-04 -1.79360e-02 -1.01450e-01 -1.09790e-05 1.75130e-03 1.76540e-04 -3.70780e-04 -1.70730e-02 -9.73380e-02 -9.33620e-06 1.98420e-03 1.77490e-04 -3.50620e-04 -1.62090e-02 -9.40130e-02 -7.44940e-05 8.73930e-04 1.88610e-04 -3.33770e-04 -1.68560e-02 -8.93920e-02 -6.27230e-06 2.43030e-03 1.77660e-04 -3.11560e-04 -1.44900e-02 -8.55590e-02 -4.84830e-06 2.64190e-03 1.76940e-04 -2.92690e-04 -1.36390e-02 -8.18190e-02 -3.49590e-06 2.84490e-03 1.75720e-04 -2.74270e-04 -1.27970e-02 -7.81690e-02 -2.20880e-06 3.03870e-03 1.74030e-04 -2.56310e-04 -1.19660e-02 -7.46110e-02 -9.88530e-07 3.22240e-03 1.71910e-04 -2.38830e-04 -1.11470e-02 -8.01350e-02 -1.70900e-03 2.54340e-04 1.79340e-04 -1.92310e-04 -1.49140e-02 -7.07480e-02 -5.76130e-04 2.49020e-03 1.70530e-04 -1.95440e-04 -1.10790e-02 -6.44700e-02 2.30340e-06 3.70720e-03 1.63160e-04 -1.89290e-04 -8.77980e-03 -6.12640e-02 3.28460e-06 3.84470e-03 1.59540e-04 -1.73770e-04 -8.02640e-03 -5.81460e-02 4.21060e-06 3.96930e-03 1.55620e-04 -1.58760e-04 -7.29300e-03 -5.51130e-02 5.08420e-06 4.08040e-03 1.51410e-04 -1.44250e-04 -6.58110e-03 -5.21650e-02 5.90690e-06 4.17750e-03 1.46940e-04 -1.30260e-04 -5.89190e-03 -4.93020e-02 6.68100e-06 4.26040e-03 1.42230e-04 -1.16790e-04 -5.22670e-03 -4.65220e-02 7.40940e-06 4.32840e-03 1.37310e-04 -1.03830e-04 -4.58640e-03 -4.38260e-02 8.09230e-06 4.38130e-03 1.32180e-04 -9.13940e-05 -3.97220e-03 -4.12130e-02 8.73290e-06 4.41880e-03 1.26890e-04 -7.94800e-05 -3.38510e-03 -3.86810e-02 9.33280e-06 4.44040e-03 1.21430e-04 -6.80880e-05 -2.82600e-03 -3.69410e-02 -3.23290e-05 3.99430e-03 1.26230e-04 -5.70010e-05 -2.87870e-03 -3.38640e-02 1.04180e-05 4.43540e-03 1.10140e-04 -4.68740e-05 -1.79520e-03 -3.15770e-02 1.09080e-05 4.40830e-03 1.04330e-04 -3.70510e-05 -1.32500e-03 -2.93710e-02 1.13640e-05 4.36440e-03 9.84470e-05 -2.77500e-05 -8.86060e-04 -2.72450e-02 1.17900e-05 4.30380e-03 9.24930e-05 -1.89700e-05 -4.78880e-04 -2.45310e-02 4.64790e-05 4.48260e-03 7.63550e-05 -1.17470e-05 2.76610e-04 -2.32340e-02 1.25570e-05 4.13130e-03 8.04460e-05 -2.97250e-06 2.37660e-04 -2.13480e-02 1.29020e-05 4.01940e-03 7.43790e-05 4.24570e-06 5.45930e-04 -1.95410e-02 1.32280e-05 3.89020e-03 6.82960e-05 1.09410e-05 8.20240e-04 -1.78140e-02 1.35350e-05 3.74380e-03 6.22050e-05 1.71080e-05 1.06020e-03 -1.61650e-02 1.38310e-05 3.58000e-03 5.61040e-05 2.27390e-05 1.26540e-03 -1.45960e-02 1.41130e-05 3.39900e-03 4.99930e-05 2.78210e-05 1.43560e-03 -1.31050e-02 1.43930e-05 3.20070e-03 4.38530e-05 3.23260e-05 1.57060e-03 -1.16920e-02 1.46620e-05 2.98530e-03 3.76680e-05 3.62270e-05 1.67040e-03 -1.08820e-02 -4.34750e-06 2.76890e-03 4.13680e-05 4.21730e-05 1.65400e-03 -9.09910e-03 1.51730e-05 2.50340e-03 2.49620e-05 4.19880e-05 1.76540e-03 -7.91670e-03 1.53950e-05 2.23740e-03 1.82830e-05 4.36850e-05 1.76200e-03 -6.80810e-03 1.54390e-05 1.95490e-03 1.13400e-05 4.45030e-05 1.72660e-03 -5.77010e-03 1.53370e-05 1.65690e-03 3.92280e-06 4.42780e-05 1.66170e-03 -4.38270e-03 2.38340e-05 1.22630e-03 -1.29990e-05 3.94190e-05 1.53660e-03 -3.88680e-03 1.30030e-05 1.01750e-03 -1.12450e-05 4.11500e-05 1.45870e-03 -3.03040e-03 8.39490e-06 6.80050e-04 -1.62530e-05 3.98590e-05 1.32960e-03 -2.22240e-03 3.57300e-06 3.42590e-04 -1.69340e-05 4.12250e-05 1.18120e-03 -1.47990e-03 -1.25980e-05 5.63380e-06 -9.81570e-08 5.51650e-05 9.95930e-04 -7.76790e-04 2.31800e-05 -2.49980e-04 5.41010e-06 7.94800e-05 6.90110e-04 -4.39220e-04 6.76550e-05 -3.10590e-04 -1.08220e-05 1.01510e-04 4.45590e-04 -4.55210e-01 -2.61560e-01 -2.83790e-01 -1.16650e-01 -1.18880e-03 -3.69740e-02 -4.81240e-01 -1.27970e-01 -1.62830e-01 -6.79800e-02 -8.30790e-03 -1.02290e-02 -4.61360e-01 -1.57960e-02 -3.03590e-02 -8.96830e-03 -1.16620e-02 1.50700e-02 -4.43270e-01 -3.69770e-03 -1.12480e-02 3.77090e-03 -8.33370e-03 1.23500e-02 -4.28030e-01 1.66640e-04 -1.02650e-02 3.95200e-03 -6.43320e-03 9.76920e-03 -4.15410e-01 -1.29690e-03 -1.45950e-02 3.24480e-03 -4.34910e-03 1.71740e-02 -4.10170e-01 2.19900e-04 -1.55600e-02 2.91520e-03 -3.47350e-03 8.42730e-03 -4.03940e-01 3.32300e-04 -1.62200e-02 2.34200e-03 -2.32400e-03 7.13910e-03 -3.98430e-01 1.13170e-04 -1.62710e-02 1.82780e-03 -1.40110e-03 5.18420e-03 -3.92660e-01 2.43920e-04 -1.54760e-02 1.27940e-03 -7.31420e-04 2.67400e-03 -3.86760e-01 2.27140e-05 -1.47340e-02 8.20220e-04 -2.49160e-04 -1.44180e-04 -3.80230e-01 1.04780e-04 -1.36820e-02 4.10640e-04 6.65660e-05 -3.12310e-03 -3.73420e-01 -5.42630e-05 -1.28620e-02 9.91430e-05 2.72380e-04 -6.09600e-03 -3.66120e-01 -5.99680e-06 -1.19640e-02 -1.44720e-04 3.90190e-04 -8.98870e-03 -3.58640e-01 -1.05440e-04 -1.12820e-02 -3.13460e-04 4.54540e-04 -1.17270e-02 -3.52530e-01 3.71110e-05 -1.28150e-02 -3.69990e-04 4.71980e-04 -1.90820e-02 -3.43080e-01 -1.31270e-04 -1.00720e-02 -5.00390e-04 4.80320e-04 -1.66520e-02 -2.75740e-01 7.62400e-03 -4.31580e-04 -5.91550e-04 3.37100e-04 4.59540e-04 -3.07520e-01 2.52590e-03 -5.98610e-03 -5.65880e-04 4.01280e-04 -1.44300e-02 -3.19350e-01 -1.22030e-04 -8.76670e-03 -5.50350e-04 4.17570e-04 -2.25640e-02 -3.11510e-01 -1.36580e-04 -8.44310e-03 -5.36360e-04 3.89450e-04 -2.41600e-02 -3.03710e-01 -1.23160e-04 -8.13180e-03 -5.15290e-04 3.60890e-04 -2.55830e-02 -2.96000e-01 -1.28960e-04 -7.86090e-03 -4.89880e-04 3.33160e-04 -2.68430e-02 -2.88360e-01 -1.18300e-04 -7.59770e-03 -4.62120e-04 3.06580e-04 -2.79480e-02 -2.80830e-01 -1.19380e-04 -7.35830e-03 -4.33440e-04 2.81460e-04 -2.89050e-02 -2.73380e-01 -1.10800e-04 -7.12290e-03 -4.04580e-04 2.57920e-04 -2.97230e-02 -2.64910e-01 -2.81240e-06 -4.35110e-03 -3.79640e-04 2.30220e-04 -2.65930e-02 -2.58800e-01 -1.02350e-04 -6.67840e-03 -3.48540e-04 2.15480e-04 -3.09700e-02 -2.51670e-01 -9.97050e-05 -6.46230e-03 -3.21850e-04 1.96500e-04 -3.14130e-02 -2.44640e-01 -9.37340e-05 -6.24430e-03 -2.96100e-04 1.79000e-04 -3.17430e-02 -2.37720e-01 -9.04840e-05 -6.02720e-03 -2.71430e-04 1.62810e-04 -3.19670e-02 -2.30910e-01 -8.52870e-05 -5.80630e-03 -2.47740e-04 1.47960e-04 -3.20920e-02 -2.24210e-01 -8.17720e-05 -5.58320e-03 -2.25100e-04 1.34310e-04 -3.21210e-02 -2.18480e-01 -1.66320e-04 -7.78460e-03 -1.98310e-04 1.26140e-04 -3.53040e-02 -2.11150e-01 -7.35410e-05 -5.12280e-03 -1.82710e-04 1.10490e-04 -3.19210e-02 -2.04790e-01 -6.93110e-05 -4.88470e-03 -1.62910e-04 1.00210e-04 -3.17010e-02 -1.98540e-01 -6.57510e-05 -4.64150e-03 -1.44040e-04 9.08880e-05 -3.14080e-02 -1.92400e-01 -6.18450e-05 -4.39240e-03 -1.26040e-04 8.25260e-05 -3.10480e-02 -1.86380e-01 -5.83790e-05 -4.13780e-03 -1.08920e-04 7.50280e-05 -3.06250e-02 -1.80470e-01 -5.47430e-05 -3.87750e-03 -9.26430e-05 6.83700e-05 -3.01440e-02 -1.65560e-01 1.42250e-03 -1.74130e-03 -8.60510e-05 4.54860e-05 -2.64310e-02 -1.41710e-01 4.41260e-03 2.34640e-03 -9.06780e-05 7.12090e-06 -1.94800e-02 -1.63410e-01 -4.48390e-05 -3.06690e-03 -4.87720e-05 5.28180e-05 -2.83970e-02 -1.57940e-01 -4.16660e-05 -2.78800e-03 -3.57400e-05 4.89570e-05 -2.77280e-02 -1.52580e-01 -3.86640e-05 -2.50580e-03 -2.34820e-05 4.56720e-05 -2.70230e-02 -1.47340e-01 -3.57040e-05 -2.22080e-03 -1.19770e-05 4.29310e-05 -2.62840e-02 -1.42200e-01 -3.28860e-05 -1.93370e-03 -1.21060e-06 4.06830e-05 -2.55170e-02 -1.37160e-01 -3.01330e-05 -1.64520e-03 8.83750e-06 3.88960e-05 -2.47240e-02 -1.32240e-01 -2.75040e-05 -1.35610e-03 1.81820e-05 3.75260e-05 -2.39080e-02 -1.27420e-01 -2.49520e-05 -1.06710e-03 2.68450e-05 3.65430e-05 -2.30740e-02 -1.22020e-01 5.45000e-05 9.42250e-04 2.73760e-05 3.31010e-05 -2.02600e-02 -1.18090e-01 -2.01590e-05 -4.92960e-04 4.21920e-05 3.55910e-05 -2.13610e-02 -1.13570e-01 -1.79090e-05 -2.09370e-04 4.89160e-05 3.55600e-05 -2.04890e-02 -1.09160e-01 -1.57450e-05 7.07920e-05 5.50340e-05 3.57880e-05 -1.96090e-02 -1.04850e-01 -1.36800e-05 3.46700e-04 6.05640e-05 3.62450e-05 -1.87250e-02 -1.00640e-01 -1.17020e-05 6.17550e-04 6.55250e-05 3.69070e-05 -1.78380e-02 -9.65240e-02 -9.81590e-06 8.82530e-04 6.99380e-05 3.77480e-05 -1.69530e-02 -9.32010e-02 -7.67700e-05 -2.09030e-04 8.17090e-05 4.14170e-05 -1.75880e-02 -8.85830e-02 -6.30230e-06 1.39170e-03 7.71970e-05 3.98760e-05 -1.51910e-02 -8.47550e-02 -4.67170e-06 1.63440e-03 8.00820e-05 4.11210e-05 -1.43200e-02 -8.10200e-02 -3.12440e-06 1.86820e-03 8.24960e-05 4.24600e-05 -1.34570e-02 -7.73770e-02 -1.65520e-06 2.09230e-03 8.44580e-05 4.38740e-05 -1.26060e-02 -7.38270e-02 -2.64780e-07 2.30610e-03 8.59870e-05 4.53470e-05 -1.17670e-02 -7.93160e-02 -1.65470e-03 -6.06380e-04 1.11810e-04 6.25150e-05 -1.54510e-02 -6.99680e-02 -5.57440e-04 1.64190e-03 9.66560e-05 5.37320e-05 -1.16400e-02 -6.37140e-02 3.46620e-06 2.87940e-03 8.81590e-05 4.99610e-05 -9.34340e-03 -6.05200e-02 4.57030e-06 3.04580e-03 8.81370e-05 5.15170e-05 -8.57150e-03 -5.74140e-02 5.60800e-06 3.19890e-03 8.77710e-05 5.30610e-05 -7.82000e-03 -5.43940e-02 6.58260e-06 3.33830e-03 8.70780e-05 5.45800e-05 -7.09020e-03 -5.14600e-02 7.49590e-06 3.46350e-03 8.60750e-05 5.60640e-05 -6.38330e-03 -4.86110e-02 8.35020e-06 3.57400e-03 8.47780e-05 5.75040e-05 -5.70060e-03 -4.58470e-02 9.14910e-06 3.66950e-03 8.32020e-05 5.88900e-05 -5.04300e-03 -4.31670e-02 9.89370e-06 3.74960e-03 8.13630e-05 6.02120e-05 -4.41160e-03 -4.05690e-02 1.05880e-05 3.81400e-03 7.92770e-05 6.14650e-05 -3.80740e-03 -3.80550e-02 1.12330e-05 3.86230e-03 7.69570e-05 6.26400e-05 -3.23140e-03 -3.63250e-02 -3.09730e-05 3.43160e-03 8.25930e-05 6.66030e-05 -3.27450e-03 -3.32730e-02 1.23870e-05 3.90990e-03 7.16770e-05 6.47330e-05 -2.16690e-03 -3.10040e-02 1.29010e-05 3.90860e-03 6.87440e-05 6.56400e-05 -1.68010e-03 -2.88160e-02 1.33750e-05 3.89050e-03 6.56330e-05 6.64470e-05 -1.22450e-03 -2.67100e-02 1.38140e-05 3.85530e-03 6.23550e-05 6.71500e-05 -8.00690e-04 -2.40220e-02 4.88840e-05 4.06990e-03 5.07740e-05 6.47420e-05 -2.14720e-05 -2.27370e-02 1.45940e-05 3.73320e-03 5.53410e-05 6.82200e-05 -5.09700e-05 -2.08700e-02 1.49430e-05 3.64610e-03 5.16190e-05 6.85750e-05 2.73920e-04 -1.90840e-02 1.52720e-05 3.54160e-03 4.77570e-05 6.87960e-05 5.64870e-04 -1.73760e-02 1.55840e-05 3.41960e-03 4.37530e-05 6.88700e-05 8.21500e-04 -1.57480e-02 1.58910e-05 3.28010e-03 3.95970e-05 6.87740e-05 1.04350e-03 -1.42000e-02 1.62010e-05 3.12310e-03 3.52670e-05 6.84780e-05 1.23050e-03 -1.27290e-02 1.65230e-05 2.94870e-03 3.07330e-05 6.79340e-05 1.38240e-03 -1.13380e-02 1.68750e-05 2.75700e-03 2.59420e-05 6.70810e-05 1.49920e-03 -1.05400e-02 -2.17560e-06 2.55420e-03 2.93690e-05 6.94840e-05 1.49260e-03 -8.78780e-03 1.77020e-05 2.32170e-03 1.52920e-05 6.40790e-05 1.62800e-03 -7.62800e-03 1.81710e-05 2.07830e-03 9.23120e-06 6.16940e-05 1.64100e-03 -6.54310e-03 1.86590e-05 1.81810e-03 2.52480e-06 5.85480e-05 1.62120e-03 -5.53090e-03 1.90020e-05 1.54120e-03 -4.85900e-06 5.45580e-05 1.57030e-03 -4.18550e-03 2.93030e-05 1.13940e-03 -2.14300e-05 4.53470e-05 1.46010e-03 -3.71020e-03 1.79820e-05 9.40130e-04 -2.03880e-05 4.48660e-05 1.38540e-03 -2.89260e-03 1.46530e-05 6.19610e-04 -2.57660e-05 4.12910e-05 1.25660e-03 -2.13010e-03 8.64730e-06 2.94670e-04 -2.44630e-05 4.28910e-05 1.10210e-03 -1.41970e-03 -4.96680e-06 -2.12150e-05 -1.33500e-05 5.59600e-05 9.11300e-04 -7.32060e-04 5.68670e-05 -2.31580e-04 -1.71660e-05 7.84330e-05 6.11810e-04 -3.97640e-04 1.18900e-04 -2.67400e-04 -3.60900e-05 9.96580e-05 3.79640e-04 -4.38690e-01 -2.92710e-01 -2.96450e-01 -7.39210e-02 -2.25180e-03 -1.99960e-02 -4.76490e-01 -1.93050e-01 -1.97100e-01 -5.70710e-02 -8.28060e-03 9.15520e-03 -4.96130e-01 -5.90370e-02 -6.36680e-02 -2.41520e-02 -1.24380e-02 3.67290e-02 -4.78670e-01 -1.33960e-02 -1.64900e-02 -3.10470e-03 -1.09920e-02 2.86670e-02 -4.56540e-01 -3.62320e-03 -1.37020e-02 2.05760e-03 -8.51100e-03 1.97760e-02 -4.35800e-01 -2.29070e-03 -1.68060e-02 4.84340e-03 -5.95370e-03 2.20490e-02 -4.28810e-01 -6.24060e-04 -1.83930e-02 3.73050e-03 -4.79500e-03 1.16410e-02 -4.19090e-01 -2.78970e-04 -1.93530e-02 3.53130e-03 -3.31310e-03 8.34410e-03 -4.10670e-01 -1.79700e-04 -1.94230e-02 3.16680e-03 -2.04790e-03 4.98330e-03 -4.02510e-01 -6.27810e-06 -1.88200e-02 2.62320e-03 -1.12160e-03 1.55890e-03 -3.94680e-01 -1.60780e-04 -1.81130e-02 2.09360e-03 -4.18130e-04 -1.85150e-03 -3.86650e-01 -9.80630e-05 -1.71450e-02 1.57750e-03 5.41860e-05 -5.18600e-03 -3.78690e-01 -2.77050e-04 -1.63340e-02 1.15130e-03 3.82480e-04 -8.36760e-03 -3.70520e-01 -2.59080e-04 -1.54490e-02 7.96380e-04 5.80960e-04 -1.13700e-02 -3.62390e-01 -3.90830e-04 -1.47470e-02 5.31200e-04 7.04540e-04 -1.41580e-02 -3.55970e-01 -2.68590e-04 -1.62590e-02 4.00690e-04 7.45780e-04 -2.15290e-02 -3.45950e-01 -4.58220e-04 -1.34700e-02 1.94460e-04 7.90100e-04 -1.90870e-02 -2.78350e-01 7.10880e-03 -3.91800e-03 1.70020e-05 4.78410e-04 -2.07960e-03 -3.09860e-01 2.12840e-03 -9.32470e-03 1.98590e-05 6.70020e-04 -1.68580e-02 -3.21450e-01 -4.61260e-04 -1.20140e-02 1.06130e-05 7.47140e-04 -2.49140e-02 -3.13420e-01 -4.74270e-04 -1.16350e-02 -3.57250e-06 7.18280e-04 -2.64720e-02 -3.05450e-01 -4.52450e-04 -1.12670e-02 -6.89140e-06 6.85720e-04 -2.78580e-02 -2.97580e-01 -4.51260e-04 -1.09390e-02 -1.66850e-06 6.53740e-04 -2.90770e-02 -2.89800e-01 -4.29650e-04 -1.06170e-02 7.64040e-06 6.21210e-04 -3.01400e-02 -2.82120e-01 -4.21170e-04 -1.03200e-02 2.00840e-05 5.90320e-04 -3.10550e-02 -2.74540e-01 -4.00890e-04 -1.00270e-02 3.34250e-05 5.60050e-04 -3.18300e-02 -2.65880e-01 -2.65110e-04 -7.17280e-03 4.27130e-05 5.23890e-04 -2.86400e-02 -2.59700e-01 -3.70410e-04 -9.46690e-03 6.10900e-05 5.04140e-04 -3.29890e-02 -2.52450e-01 -3.57200e-04 -9.19350e-03 7.44470e-05 4.78390e-04 -3.33860e-02 -2.45300e-01 -3.40200e-04 -8.91820e-03 8.70460e-05 4.53760e-04 -3.36710e-02 -2.38280e-01 -3.26670e-04 -8.64440e-03 9.90530e-05 4.30660e-04 -3.38510e-02 -2.31360e-01 -3.11060e-04 -8.36700e-03 1.10270e-04 4.08690e-04 -3.39300e-02 -2.24560e-01 -2.97710e-04 -8.08780e-03 1.20840e-04 3.88090e-04 -3.39150e-02 -2.18780e-01 -3.85230e-04 -1.02570e-02 1.36580e-04 3.74730e-04 -3.70700e-02 -2.11320e-01 -2.70320e-04 -7.51650e-03 1.39920e-04 3.50310e-04 -3.36250e-02 -2.04870e-01 -2.56850e-04 -7.22360e-03 1.48500e-04 3.33080e-04 -3.33610e-02 -1.98540e-01 -2.44420e-04 -6.92620e-03 1.56500e-04 3.16960e-04 -3.30260e-02 -1.92330e-01 -2.31810e-04 -6.62320e-03 1.63910e-04 3.01810e-04 -3.26230e-02 -1.86240e-01 -2.19950e-04 -6.31550e-03 1.70770e-04 2.87650e-04 -3.21580e-02 -1.80260e-01 -2.08110e-04 -6.00260e-03 1.77070e-04 2.74390e-04 -3.16360e-02 -1.70520e-01 3.93820e-04 -4.99100e-03 2.41430e-04 1.62070e-04 -2.97720e-02 -1.60120e-01 1.14100e-03 -5.16730e-03 3.27780e-04 2.35000e-05 -2.91760e-02 -1.63020e-01 -1.75080e-04 -5.03750e-03 1.92810e-04 2.39720e-04 -2.97700e-02 -1.57510e-01 -1.64650e-04 -4.70840e-03 1.97020e-04 2.29710e-04 -2.90620e-02 -1.52100e-01 -1.54630e-04 -4.37650e-03 2.00740e-04 2.20410e-04 -2.83190e-02 -1.46810e-01 -1.44860e-04 -4.04240e-03 2.03960e-04 2.11760e-04 -2.75440e-02 -1.41630e-01 -1.35470e-04 -3.70700e-03 2.06710e-04 2.03750e-04 -2.67410e-02 -1.36570e-01 -1.26350e-04 -3.37080e-03 2.08980e-04 1.96320e-04 -2.59120e-02 -1.31610e-01 -1.17570e-04 -3.03460e-03 2.10790e-04 1.89450e-04 -2.50630e-02 -1.26760e-01 -1.09080e-04 -2.69920e-03 2.12150e-04 1.83090e-04 -2.41950e-02 -1.21320e-01 -1.72920e-05 -6.24570e-04 2.05720e-04 1.73470e-04 -2.13340e-02 -1.17380e-01 -9.30350e-05 -2.03420e-03 2.13560e-04 1.71820e-04 -2.24170e-02 -1.12840e-01 -8.54660e-05 -1.70610e-03 2.13640e-04 1.66830e-04 -2.15130e-02 -1.08410e-01 -7.81800e-05 -1.38210e-03 2.13320e-04 1.62240e-04 -2.06020e-02 -1.04080e-01 -7.11880e-05 -1.06310e-03 2.12600e-04 1.58020e-04 -1.96880e-02 -9.98580e-02 -6.44720e-05 -7.49670e-04 2.11520e-04 1.54130e-04 -1.87720e-02 -9.57320e-02 -5.80380e-05 -4.42780e-04 2.10060e-04 1.50570e-04 -1.78570e-02 -9.24030e-02 -1.25350e-04 -1.51070e-03 2.15800e-04 1.50550e-04 -1.84770e-02 -8.77740e-02 -4.59690e-05 1.48390e-04 2.06120e-04 1.44280e-04 -1.60400e-02 -8.39400e-02 -4.03240e-05 4.31150e-04 2.03660e-04 1.41520e-04 -1.51420e-02 -8.02020e-02 -3.49330e-05 7.04390e-04 2.00900e-04 1.38980e-04 -1.42530e-02 -7.65580e-02 -2.97860e-05 9.67420e-04 1.97830e-04 1.36650e-04 -1.33760e-02 -7.30080e-02 -2.48790e-05 1.21960e-03 1.94490e-04 1.34500e-04 -1.25120e-02 -7.86610e-02 -1.59690e-03 -1.30620e-03 2.11190e-05 3.58190e-04 -1.59150e-02 -6.77120e-02 -3.10610e-04 1.52200e-03 1.51140e-04 1.73880e-04 -1.12300e-02 -6.29050e-02 -1.15240e-05 1.90450e-03 1.82900e-04 1.28980e-04 -1.00150e-02 -5.97180e-02 -7.50630e-06 2.10700e-03 1.78560e-04 1.27390e-04 -9.21960e-03 -5.66200e-02 -3.69450e-06 2.29580e-03 1.74000e-04 1.25910e-04 -8.44490e-03 -5.36090e-02 -8.15740e-08 2.47030e-03 1.69240e-04 1.24510e-04 -7.69230e-03 -5.06850e-02 3.33890e-06 2.63010e-03 1.64290e-04 1.23180e-04 -6.96300e-03 -4.78470e-02 6.57340e-06 2.77480e-03 1.59160e-04 1.21920e-04 -6.25810e-03 -4.50950e-02 9.62910e-06 2.90400e-03 1.53860e-04 1.20700e-04 -5.57870e-03 -4.24280e-02 1.25120e-05 3.01740e-03 1.48400e-04 1.19510e-04 -4.92580e-03 -3.98450e-02 1.52300e-05 3.11460e-03 1.42790e-04 1.18350e-04 -4.30030e-03 -3.73450e-02 1.77880e-05 3.19530e-03 1.37050e-04 1.17210e-04 -3.70320e-03 -3.56250e-02 -2.42400e-05 2.78290e-03 1.38650e-04 1.18860e-04 -3.73440e-03 -3.25960e-02 2.24520e-05 3.30650e-03 1.25200e-04 1.14920e-04 -2.59720e-03 -3.03440e-02 2.45710e-05 3.33650e-03 1.19110e-04 1.13760e-04 -2.08980e-03 -2.81750e-02 2.65560e-05 3.34920e-03 1.12930e-04 1.12580e-04 -1.61380e-03 -2.60870e-02 2.84160e-05 3.34450e-03 1.06650e-04 1.11370e-04 -1.16970e-03 -2.34260e-02 6.59570e-05 3.60210e-03 9.29130e-05 1.07320e-04 -3.61610e-04 -2.21530e-02 3.17890e-05 3.28240e-03 9.38490e-05 1.08830e-04 -3.79700e-04 -2.03070e-02 3.33230e-05 3.22480e-03 8.73220e-05 1.07460e-04 -3.47500e-05 -1.85410e-02 3.47760e-05 3.14950e-03 8.07030e-05 1.06020e-04 2.76230e-04 -1.68550e-02 3.61600e-05 3.05630e-03 7.39790e-05 1.04460e-04 5.52850e-04 -1.52480e-02 3.75040e-05 2.94550e-03 6.71250e-05 1.02760e-04 7.94770e-04 -1.37210e-02 3.88270e-05 2.81680e-03 6.01030e-05 1.00870e-04 1.00170e-03 -1.22740e-02 4.01680e-05 2.67040e-03 5.28590e-05 9.87080e-05 1.17350e-03 -1.09050e-02 4.15540e-05 2.50620e-03 4.53170e-05 9.61890e-05 1.30990e-03 -1.01200e-02 2.28910e-05 2.31900e-03 4.52160e-05 9.66690e-05 1.31450e-03 -8.40310e-03 4.45770e-05 2.12460e-03 2.89420e-05 8.95730e-05 1.47690e-03 -7.26910e-03 4.61900e-05 1.90710e-03 1.98790e-05 8.51890e-05 1.50800e-03 -6.21180e-03 4.77180e-05 1.67170e-03 1.01210e-05 7.99260e-05 1.50470e-03 -5.22980e-03 4.87680e-05 1.41820e-03 -2.83360e-07 7.38010e-05 1.46810e-03 -3.93470e-03 5.85660e-05 1.04590e-03 -1.87580e-05 6.29000e-05 1.37320e-03 -3.48200e-03 4.55520e-05 8.56530e-04 -2.08090e-05 6.09200e-05 1.30190e-03 -2.70790e-03 3.77230e-05 5.50980e-04 -2.77990e-05 5.72680e-05 1.17700e-03 -1.99140e-03 2.17500e-05 2.36020e-04 -2.87110e-05 6.02030e-05 1.02770e-03 -1.31820e-03 1.30400e-05 -5.60440e-05 -2.77860e-05 7.23690e-05 8.46130e-04 -6.68900e-04 1.18640e-04 -2.22680e-04 -3.74430e-05 9.40380e-05 5.59580e-04 -3.53470e-04 2.10760e-04 -2.39510e-04 -5.23760e-05 1.14460e-04 3.40290e-04 -4.46310e-01 -3.18530e-01 -3.14350e-01 -4.24650e-02 -1.47400e-03 -1.17510e-02 -4.77480e-01 -2.19780e-01 -2.06070e-01 -3.51760e-02 -5.18100e-03 1.92020e-02 -4.98870e-01 -8.83970e-02 -7.13500e-02 -2.07760e-02 -8.51790e-03 4.88800e-02 -4.93970e-01 -3.07210e-02 -2.16450e-02 -7.90930e-03 -8.39140e-03 3.99820e-02 -4.72480e-01 -9.73580e-03 -1.24570e-02 -9.21160e-04 -6.98840e-03 2.78480e-02 -4.49730e-01 -4.20800e-03 -1.58520e-02 2.05260e-03 -4.97050e-03 2.65520e-02 -4.41500e-01 -2.67640e-03 -1.83830e-02 2.55090e-03 -4.06980e-03 1.50720e-02 -4.29940e-01 -1.76250e-03 -1.99930e-02 2.84360e-03 -2.80560e-03 1.02360e-02 -4.19690e-01 -1.11660e-03 -2.01960e-02 2.73330e-03 -1.77130e-03 5.71700e-03 -4.10010e-01 -7.38420e-04 -1.98830e-02 2.42980e-03 -9.49530e-04 1.45480e-03 -4.00850e-01 -7.48200e-04 -1.93220e-02 2.03230e-03 -3.37380e-04 -2.54890e-03 -3.91750e-01 -6.40930e-04 -1.85150e-02 1.63580e-03 1.01720e-04 -6.28310e-03 -3.82910e-01 -8.06530e-04 -1.78070e-02 1.27330e-03 4.03740e-04 -9.72850e-03 -3.74070e-01 -7.96300e-04 -1.70050e-02 9.69980e-04 6.00080e-04 -1.28950e-02 -3.65400e-01 -9.44760e-04 -1.63570e-02 7.28030e-04 7.22030e-04 -1.57820e-02 -3.58730e-01 -8.25570e-04 -1.78820e-02 6.15700e-04 7.71280e-04 -2.31980e-02 -3.48220e-01 -1.03670e-03 -1.51320e-02 4.09390e-04 8.20750e-04 -2.07890e-02 -2.79440e-01 6.98480e-03 -5.16190e-03 -2.12970e-04 1.96770e-03 -3.37470e-03 -3.01480e-01 3.31250e-03 -8.93790e-03 -1.72950e-05 1.40400e-03 -1.51590e-02 -3.14610e-01 2.58700e-04 -1.21320e-02 1.31180e-04 9.71730e-04 -2.38190e-02 -3.14910e-01 -1.04110e-03 -1.32760e-02 1.86760e-04 7.76850e-04 -2.81390e-02 -3.06810e-01 -1.00580e-03 -1.28900e-02 1.74030e-04 7.49940e-04 -2.95010e-02 -2.98820e-01 -9.91030e-04 -1.25430e-02 1.69200e-04 7.22060e-04 -3.06950e-02 -2.90920e-01 -9.52900e-04 -1.22000e-02 1.69010e-04 6.93650e-04 -3.17320e-02 -2.83140e-01 -9.28320e-04 -1.18810e-02 1.71930e-04 6.65770e-04 -3.26180e-02 -2.74490e-01 -1.04180e-03 -9.44460e-03 6.26350e-04 -5.42490e-04 -2.98140e-02 -2.67580e-01 -9.02150e-04 -1.05460e-02 3.32220e-04 2.23020e-04 -3.28250e-02 -2.60440e-01 -8.25850e-04 -1.09570e-02 1.86940e-04 5.86620e-04 -3.44610e-02 -2.53100e-01 -7.96010e-04 -1.06590e-02 1.92270e-04 5.62240e-04 -3.48270e-02 -2.45880e-01 -7.62290e-04 -1.03600e-02 1.97260e-04 5.38820e-04 -3.50810e-02 -2.38770e-01 -7.32720e-04 -1.00610e-02 2.01930e-04 5.16440e-04 -3.52280e-02 -2.31780e-01 -7.01200e-04 -9.75900e-03 2.06160e-04 4.95020e-04 -3.52750e-02 -2.24910e-01 -6.72540e-04 -9.45510e-03 2.10020e-04 4.74590e-04 -3.52270e-02 -2.18510e-01 -7.43460e-04 -1.00900e-02 3.49800e-04 1.58120e-04 -3.62920e-02 -2.12540e-01 -9.21760e-04 -1.16400e-02 6.24480e-04 -4.43470e-04 -3.83880e-02 -2.05030e-01 -5.87790e-04 -8.51580e-03 2.19290e-04 4.18730e-04 -3.45780e-02 -1.98640e-01 -5.61550e-04 -8.19330e-03 2.21710e-04 4.01850e-04 -3.42110e-02 -1.92380e-01 -5.35420e-04 -7.86530e-03 2.23800e-04 3.85770e-04 -3.37770e-02 -1.86230e-01 -5.10460e-04 -7.53250e-03 2.25590e-04 3.70480e-04 -3.32810e-02 -1.80200e-01 -4.85830e-04 -7.19460e-03 2.27080e-04 3.55940e-04 -3.27280e-02 -1.74300e-01 -4.62160e-04 -6.85220e-03 2.28280e-04 3.42130e-04 -3.21230e-02 -1.69270e-01 -5.42540e-04 -8.69110e-03 2.34510e-04 3.33830e-04 -3.41070e-02 -1.36240e-01 3.77280e-03 1.00010e-03 5.11610e-04 -4.48230e-04 -1.93850e-02 -1.31960e-01 3.64410e-03 -7.77780e-04 5.11240e-04 -4.35880e-04 -2.12990e-02 -1.51850e-01 -3.73550e-04 -5.44490e-03 2.30270e-04 2.93470e-04 -2.92660e-02 -1.46530e-01 -3.52980e-04 -5.08650e-03 2.30080e-04 2.82810e-04 -2.84640e-02 -1.41330e-01 -3.33110e-04 -4.72680e-03 2.29630e-04 2.72690e-04 -2.76330e-02 -1.36230e-01 -3.13810e-04 -4.36650e-03 2.28900e-04 2.63100e-04 -2.67780e-02 -1.31250e-01 -2.95170e-04 -4.00640e-03 2.27920e-04 2.53990e-04 -2.59020e-02 -1.05930e-01 3.01700e-03 4.34800e-03 4.38810e-04 -3.26500e-04 -1.36210e-02 -1.20910e-01 -1.69870e-04 -1.53830e-03 2.19610e-04 2.33330e-04 -2.21120e-02 -1.16960e-01 -2.42810e-04 -2.93550e-03 2.23440e-04 2.29390e-04 -2.31820e-02 -1.12410e-01 -2.26540e-04 -2.58430e-03 2.21450e-04 2.22020e-04 -2.22540e-02 -1.07960e-01 -2.10830e-04 -2.23730e-03 2.19240e-04 2.15020e-04 -2.13200e-02 -1.03620e-01 -1.95690e-04 -1.89550e-03 2.16790e-04 2.08380e-04 -2.03830e-02 -9.93850e-02 -1.81100e-04 -1.55960e-03 2.14120e-04 2.02070e-04 -1.94440e-02 -9.52490e-02 -1.67060e-04 -1.23040e-03 2.11230e-04 1.96080e-04 -1.85080e-02 -9.19160e-02 -2.31610e-04 -2.28640e-03 2.13780e-04 1.93660e-04 -1.91150e-02 -8.72770e-02 -1.40540e-04 -5.95240e-04 2.04850e-04 1.84970e-04 -1.66480e-02 -8.34390e-02 -1.28050e-04 -2.90810e-04 2.01360e-04 1.79810e-04 -1.57300e-02 -7.96970e-02 -1.16050e-04 3.90080e-06 1.97690e-04 1.74900e-04 -1.48210e-02 -7.60510e-02 -1.04540e-04 2.88190e-04 1.93830e-04 1.70220e-04 -1.39240e-02 -7.24990e-02 -9.35070e-05 5.61380e-04 1.89810e-04 1.65760e-04 -1.30400e-02 -6.90410e-02 -8.29330e-05 8.22840e-04 1.85630e-04 1.61500e-04 -1.21720e-02 -6.49610e-02 -6.83900e-06 2.07830e-03 1.75650e-04 1.54530e-04 -1.01820e-02 -6.24000e-02 -6.31240e-05 1.30820e-03 1.76800e-04 1.53520e-04 -1.04880e-02 -5.92160e-02 -5.38670e-05 1.53100e-03 1.72170e-04 1.49770e-04 -9.67490e-03 -5.61210e-02 -4.50260e-05 1.73980e-03 1.67410e-04 1.46180e-04 -8.88290e-03 -5.31150e-02 -3.65890e-05 1.93410e-03 1.62520e-04 1.42720e-04 -8.11320e-03 -5.01970e-02 -2.85460e-05 2.11360e-03 1.57510e-04 1.39380e-04 -7.36710e-03 -4.73660e-02 -2.08850e-05 2.27780e-03 1.52400e-04 1.36160e-04 -6.64570e-03 -4.46210e-02 -1.35950e-05 2.42630e-03 1.47170e-04 1.33050e-04 -5.95000e-03 -4.19620e-02 -6.66430e-06 2.55880e-03 1.41850e-04 1.30030e-04 -5.28110e-03 -3.85610e-02 4.27640e-05 3.14390e-03 2.15250e-04 6.59410e-06 -4.03070e-03 -3.67740e-02 1.47490e-07 2.67450e-03 2.10980e-04 1.23890e-05 -4.10970e-03 -3.50600e-02 -3.91680e-05 2.27480e-03 2.06670e-04 1.80690e-05 -4.13000e-03 -3.21670e-02 1.76760e-05 2.92290e-03 1.19700e-04 1.18700e-04 -2.89080e-03 -2.99270e-02 2.29700e-05 2.97120e-03 1.13980e-04 1.16030e-04 -2.36850e-03 -2.77680e-02 2.79680e-05 3.00220e-03 1.08190e-04 1.13390e-04 -1.87770e-03 -2.56920e-02 3.26840e-05 3.01560e-03 1.02350e-04 1.10800e-04 -1.41890e-03 -2.30490e-02 7.43010e-05 3.29920e-03 9.09680e-05 1.05800e-04 -5.90090e-04 -2.17820e-02 4.13260e-05 2.98920e-03 9.04750e-05 1.05680e-04 -6.00040e-04 -1.99490e-02 4.52880e-05 2.94930e-03 8.44430e-05 1.03140e-04 -2.40840e-04 -1.81960e-02 4.90430e-05 2.89160e-03 7.83370e-05 1.00580e-04 8.42840e-05 -1.65230e-02 5.26180e-05 2.81600e-03 7.21390e-05 9.79880e-05 3.74930e-04 -1.49310e-02 5.60560e-05 2.72240e-03 6.58250e-05 9.53190e-05 6.30750e-04 -1.34180e-02 5.93960e-05 2.61090e-03 5.93580e-05 9.25260e-05 8.51440e-04 -1.19850e-02 6.26980e-05 2.48150e-03 5.26870e-05 8.95470e-05 1.03670e-03 -1.06310e-02 6.60050e-05 2.33410e-03 4.57480e-05 8.62960e-05 1.18640e-03 -9.85480e-03 4.83730e-05 2.15620e-03 4.43630e-05 8.55420e-05 1.19830e-03 -8.16070e-03 7.27750e-05 1.98510e-03 3.07610e-05 7.85710e-05 1.37840e-03 -7.04360e-03 7.61500e-05 1.78320e-03 2.25720e-05 7.38920e-05 1.42070e-03 -6.00440e-03 7.91630e-05 1.56280e-03 1.38970e-05 6.86060e-05 1.42760e-03 -5.04190e-03 8.12130e-05 1.32340e-03 4.86610e-06 6.28310e-05 1.39980e-03 -3.77810e-03 9.01820e-05 9.69420e-04 -9.88540e-06 5.37980e-05 1.31530e-03 -3.33800e-03 7.61630e-05 7.86770e-04 -1.23100e-05 5.20300e-05 1.24690e-03 -2.58800e-03 6.40250e-05 4.91240e-04 -1.84330e-05 4.96640e-05 1.12870e-03 -1.89600e-03 4.49190e-05 1.87270e-04 -2.24690e-05 5.18720e-05 9.88300e-04 -1.25140e-03 4.50480e-05 -9.05650e-05 -2.73750e-05 5.98160e-05 8.16410e-04 -6.38670e-04 1.67430e-04 -2.46810e-04 -3.52780e-05 7.52110e-05 5.43800e-04 -3.43200e-04 2.70470e-04 -2.63110e-04 -4.24020e-05 9.01340e-05 3.35310e-04 -4.42420e-01 -3.18090e-01 -3.10090e-01 -1.99260e-02 -7.61880e-04 -7.43560e-03 -4.76330e-01 -2.31510e-01 -2.08960e-01 -1.70870e-02 -2.55050e-03 2.41170e-02 -5.00970e-01 -1.03320e-01 -7.44550e-02 -1.10110e-02 -4.24260e-03 5.51930e-02 -4.97780e-01 -4.15600e-02 -2.12690e-02 -5.26720e-03 -4.35930e-03 4.60320e-02 -4.79700e-01 -1.63580e-02 -1.22980e-02 -1.59460e-03 -3.75580e-03 3.27710e-02 -4.56690e-01 -1.00930e-02 -1.84640e-02 1.30600e-03 -2.18410e-03 2.89160e-02 -4.46420e-01 -4.20700e-03 -1.78080e-02 1.37420e-03 -1.95750e-03 1.84530e-02 -4.35780e-01 -2.92620e-03 -1.93560e-02 1.46290e-03 -1.60880e-03 1.17210e-02 -4.24890e-01 -2.10150e-03 -2.01660e-02 1.50760e-03 -1.01810e-03 6.50260e-03 -4.14300e-01 -1.31470e-03 -1.98160e-02 1.38190e-03 -5.62730e-04 1.67260e-03 -4.04490e-01 -1.29780e-03 -1.95540e-02 1.19760e-03 -2.04360e-04 -2.73020e-03 -3.94720e-01 -1.06270e-03 -1.87840e-02 9.84580e-04 4.91180e-05 -6.76240e-03 -3.85400e-01 -1.24860e-03 -1.82330e-02 7.90590e-04 2.30710e-04 -1.04040e-02 -3.76110e-01 -1.20840e-03 -1.74730e-02 6.18470e-04 3.48580e-04 -1.37060e-02 -3.67130e-01 -1.38090e-03 -1.69060e-02 4.81420e-04 4.24890e-04 -1.66760e-02 -3.60280e-01 -1.23070e-03 -1.84190e-02 4.08070e-04 4.55100e-04 -2.41330e-02 -3.49480e-01 -1.48240e-03 -1.57490e-02 2.93860e-04 4.89960e-04 -2.17610e-02 -3.40830e-01 -1.46720e-03 -1.52120e-02 2.36080e-04 4.96450e-04 -2.39240e-02 -2.73060e-01 7.54600e-03 -4.16640e-03 -2.17710e-04 1.89530e-03 -6.62030e-03 -2.95010e-01 2.65690e-03 -9.35190e-03 -4.30350e-05 1.20610e-03 -1.79500e-02 -3.07610e-01 -3.55600e-04 -1.25450e-02 9.11290e-05 6.84190e-04 -2.63800e-02 -3.07490e-01 -1.42850e-03 -1.35470e-02 1.43950e-04 4.58150e-04 -3.04640e-02 -2.99430e-01 -1.40350e-03 -1.32000e-02 1.38890e-04 4.42790e-04 -3.16440e-02 -2.91470e-01 -1.35290e-03 -1.28530e-02 1.36670e-04 4.26860e-04 -3.26650e-02 -2.83630e-01 -1.31590e-03 -1.25310e-02 1.36420e-04 4.11130e-04 -3.35350e-02 -2.74600e-01 -1.15000e-03 -9.64320e-03 1.34530e-04 3.91310e-04 -3.03120e-02 -2.68280e-01 -1.22330e-03 -1.19000e-02 1.38480e-04 3.80480e-04 -3.48580e-02 -2.60770e-01 -1.17420e-03 -1.15900e-02 1.39980e-04 3.65810e-04 -3.53260e-02 -2.53380e-01 -1.13160e-03 -1.12860e-02 1.41530e-04 3.51720e-04 -3.56740e-02 -2.46110e-01 -1.08520e-03 -1.09800e-02 1.42960e-04 3.38100e-04 -3.59080e-02 -2.38960e-01 -1.04330e-03 -1.06750e-02 1.44250e-04 3.25050e-04 -3.60370e-02 -2.31930e-01 -9.99780e-04 -1.03650e-02 1.45350e-04 3.12480e-04 -3.60650e-02 -2.25030e-01 -9.59420e-04 -1.00540e-02 1.46280e-04 3.00450e-04 -3.59980e-02 -2.18240e-01 -9.18490e-04 -9.73700e-03 1.47030e-04 2.88900e-04 -3.58440e-02 -2.11890e-01 -9.49860e-04 -1.02790e-02 2.63480e-04 -4.49230e-05 -3.67230e-02 -2.05940e-01 -1.04670e-03 -1.16470e-02 4.94900e-04 -6.89060e-04 -3.85630e-02 -1.65910e-01 4.31310e-03 -3.27010e-03 4.56000e-04 -7.12810e-04 -2.48970e-02 -1.92330e-01 -7.68270e-04 -8.42330e-03 1.48480e-04 2.47410e-04 -3.44530e-02 -1.86160e-01 -7.33360e-04 -8.08200e-03 1.48490e-04 2.38140e-04 -3.39390e-02 -1.80100e-01 -6.99060e-04 -7.73530e-03 1.48380e-04 2.29270e-04 -3.33680e-02 -1.74180e-01 -6.65970e-04 -7.38420e-03 1.48150e-04 2.20800e-04 -3.27450e-02 -1.68610e-01 -6.90870e-04 -7.79920e-03 2.46830e-04 -3.70430e-05 -3.29980e-02 -1.63400e-01 -7.73260e-04 -8.93800e-03 4.42120e-04 -5.34490e-04 -3.40550e-02 -1.31590e-01 3.59750e-03 3.16890e-04 2.12270e-04 -8.87700e-05 -2.01090e-02 -1.27270e-01 3.44340e-03 -8.18650e-04 3.94750e-04 -5.31110e-04 -2.11990e-02 -1.46320e-01 -5.13520e-04 -5.57320e-03 1.45160e-04 1.83830e-04 -2.90000e-02 -1.41090e-01 -4.85720e-04 -5.20430e-03 1.44200e-04 1.77410e-04 -2.81530e-02 -1.13800e-01 3.16450e-03 3.70010e-03 3.57750e-04 -4.56960e-04 -1.51050e-02 -1.09980e-01 3.04380e-03 2.09980e-03 3.54030e-04 -4.43370e-04 -1.65890e-02 -1.25340e-01 -3.52740e-04 -2.38770e-03 3.67630e-04 -3.86630e-04 -2.35180e-02 -1.21080e-01 -3.65240e-04 -3.17800e-03 2.13810e-04 -2.50840e-05 -2.39280e-02 -1.16670e-01 -3.59160e-04 -3.36640e-03 1.37690e-04 1.49400e-04 -2.36260e-02 -1.12120e-01 -3.36300e-04 -3.00590e-03 1.36050e-04 1.44530e-04 -2.26840e-02 -1.07670e-01 -3.14200e-04 -2.64960e-03 1.34310e-04 1.39880e-04 -2.17360e-02 -1.03320e-01 -2.92880e-04 -2.29850e-03 1.32460e-04 1.35440e-04 -2.07850e-02 -9.90790e-02 -2.72310e-04 -1.95330e-03 1.30510e-04 1.31190e-04 -1.98330e-02 -9.49400e-02 -2.52480e-04 -1.61480e-03 1.28460e-04 1.27130e-04 -1.88840e-02 -9.11120e-02 -2.68320e-04 -1.77100e-03 1.83040e-04 -1.54400e-06 -1.84790e-02 -8.75960e-02 -3.17930e-04 -2.36880e-03 2.90820e-04 -2.49010e-04 -1.85590e-02 -8.31240e-02 -1.97270e-04 -6.47420e-04 1.21740e-04 1.15960e-04 -1.60680e-02 -7.93820e-02 -1.80240e-04 -3.43510e-04 1.19330e-04 1.12540e-04 -1.51480e-02 -7.57360e-02 -1.63880e-04 -5.00510e-05 1.16830e-04 1.09270e-04 -1.42390e-02 -7.21850e-02 -1.48170e-04 2.32290e-04 1.14250e-04 1.06130e-04 -1.33440e-02 -6.87290e-02 -1.33090e-04 5.02880e-04 1.11600e-04 1.03110e-04 -1.24650e-02 -6.46520e-02 -5.05770e-05 1.77180e-03 1.05870e-04 9.84900e-05 -1.04600e-02 -6.20930e-02 -1.04760e-04 1.00640e-03 1.06070e-04 9.74200e-05 -1.07590e-02 -5.89120e-02 -9.14930e-05 1.23820e-03 1.03210e-04 9.47320e-05 -9.93580e-03 -5.58210e-02 -7.87940e-05 1.45600e-03 1.00290e-04 9.21410e-05 -9.13350e-03 -5.28190e-02 -6.66550e-05 1.65930e-03 9.72990e-05 8.96400e-05 -8.35380e-03 -4.99060e-02 -5.50590e-05 1.84780e-03 9.42560e-05 8.72230e-05 -7.59780e-03 -4.70800e-02 -4.39920e-05 2.02090e-03 9.11600e-05 8.48840e-05 -6.86680e-03 -4.35690e-02 1.72120e-05 2.79460e-03 1.61130e-04 -8.37620e-05 -5.41580e-03 -4.16230e-02 -2.71420e-05 2.27070e-03 1.56810e-04 -7.69660e-05 -5.52650e-03 -3.88640e-02 2.18990e-06 2.62060e-03 1.03250e-04 2.77540e-05 -4.61440e-03 -3.66340e-02 -4.73430e-06 2.55320e-03 7.83020e-05 7.62010e-05 -4.21140e-03 -3.49230e-02 -4.35630e-05 2.15580e-03 7.79230e-05 7.56380e-05 -4.22880e-03 -3.19180e-02 1.20830e-05 2.71920e-03 7.16300e-05 7.21960e-05 -3.05730e-03 -2.96850e-02 1.98380e-05 2.77640e-03 6.82420e-05 7.02630e-05 -2.52630e-03 -2.75340e-02 2.71740e-05 2.81610e-03 6.48220e-05 6.83690e-05 -2.02700e-03 -2.54640e-02 3.41100e-05 2.83830e-03 6.13710e-05 6.65110e-05 -1.55990e-03 -2.28330e-02 7.86990e-05 3.13480e-03 5.49780e-05 6.32890e-05 -7.19040e-04 -2.15710e-02 4.68540e-05 2.82950e-03 5.43740e-05 6.28800e-05 -7.24370e-04 -1.97450e-02 5.27090e-05 2.79840e-03 5.08240e-05 6.10920e-05 -3.57000e-04 -1.80010e-02 5.82610e-05 2.74950e-03 4.72310e-05 5.93090e-05 -2.37950e-05 -1.63360e-02 6.35490e-05 2.68260e-03 4.35850e-05 5.75150e-05 2.74840e-04 -1.47520e-02 6.86260e-05 2.59780e-03 3.98710e-05 5.56900e-05 5.38550e-04 -1.32480e-02 7.35460e-05 2.49500e-03 3.60660e-05 5.38030e-05 7.66990e-04 -1.18240e-02 7.83810e-05 2.37420e-03 3.21420e-05 5.18190e-05 9.59860e-04 -1.04790e-02 8.31900e-05 2.23530e-03 2.80640e-05 4.96880e-05 1.11690e-03 -9.70790e-03 6.64750e-05 2.06200e-03 2.69590e-05 4.89690e-05 1.13280e-03 -7.99770e-03 1.00850e-04 1.88700e-03 2.90130e-05 2.57010e-05 1.31000e-03 -7.33940e-03 8.79870e-05 1.72460e-03 2.61790e-05 2.72250e-05 1.30920e-03 -5.89210e-03 1.01610e-04 1.49620e-03 9.55370e-06 3.87090e-05 1.38330e-03 -4.52290e-03 1.25660e-04 1.18040e-03 8.74210e-06 2.77920e-05 1.35180e-03 -4.04510e-03 1.12360e-04 1.00210e-03 6.31350e-06 2.83040e-05 1.29510e-03 -3.24410e-03 1.05890e-04 7.31810e-04 1.72060e-06 2.85380e-05 1.20850e-03 -2.82910e-03 9.29780e-05 5.67660e-04 -4.86000e-07 2.91410e-05 1.15100e-03 -1.84630e-03 6.47710e-05 1.54440e-04 -1.21410e-05 2.93010e-05 9.67680e-04 -1.21870e-03 6.83450e-05 -1.16950e-04 -1.56440e-05 3.33300e-05 8.02460e-04 -6.23510e-04 1.96270e-04 -2.67220e-04 -2.00540e-05 4.11620e-05 5.39150e-04 -3.36810e-04 3.03720e-04 -2.81880e-04 -2.37610e-05 4.85950e-05 3.36880e-04 -4.46450e-01 -3.25910e-01 -3.16950e-01 2.77020e-09 -1.12850e-11 -5.97970e-03 -4.77230e-01 -2.34380e-01 -2.09310e-01 8.29500e-10 -4.41790e-11 2.58550e-02 -5.00790e-01 -1.07440e-01 -7.44770e-02 -1.71740e-09 1.33340e-11 5.70710e-02 -4.99360e-01 -4.54930e-02 -2.18200e-02 -2.16770e-09 2.07070e-10 4.80240e-02 -4.80960e-01 -1.83290e-02 -1.12250e-02 -1.82140e-09 4.96110e-10 3.43060e-02 -4.64850e-01 -1.04940e-02 -1.50740e-02 -1.31400e-09 7.57700e-10 2.54790e-02 -4.44560e-01 -4.30710e-03 -1.68070e-02 2.48270e-04 7.76980e-04 2.17640e-02 -4.36430e-01 -3.56560e-03 -1.91570e-02 1.75270e-04 2.94690e-04 1.40940e-02 -4.26430e-01 -2.30620e-03 -1.98430e-02 -2.08660e-10 1.19340e-09 6.80510e-03 -4.15760e-01 -1.62120e-03 -1.98640e-02 5.25250e-11 1.25450e-09 1.80550e-03 -4.05630e-01 -1.42160e-03 -1.94700e-02 2.90620e-10 1.29020e-09 -2.75500e-03 -3.95720e-01 -1.24270e-03 -1.88660e-02 5.01690e-10 1.30520e-09 -6.88310e-03 -3.86190e-01 -1.36730e-03 -1.82790e-02 6.97120e-10 1.30580e-09 -1.06040e-02 -3.76790e-01 -1.35740e-03 -1.75950e-02 8.71290e-10 1.29440e-09 -1.39520e-02 -3.68500e-01 -1.64170e-03 -1.78770e-02 -6.72400e-05 5.85680e-04 -1.84670e-02 -3.60790e-01 -1.40500e-03 -1.85910e-02 -2.18410e-04 1.74870e-03 -2.44250e-02 -3.49870e-01 -1.62350e-03 -1.59020e-02 1.28760e-09 1.21570e-09 -2.20740e-02 -3.41170e-01 -1.61430e-03 -1.53810e-02 1.39070e-09 1.17970e-09 -2.42410e-02 -3.32630e-01 -1.65310e-03 -1.49420e-02 1.47830e-09 1.14080e-09 -2.61760e-02 -2.67720e-01 5.85500e-03 -5.29740e-03 -3.45070e-04 1.52580e-03 -8.77960e-03 -2.97140e-01 9.44570e-04 -1.09450e-02 -3.55040e-04 1.53140e-03 -2.31210e-02 -3.07690e-01 -1.56770e-03 -1.37290e-02 -3.61140e-04 1.51150e-03 -3.07770e-02 -2.99610e-01 -1.53880e-03 -1.33820e-02 -3.64010e-04 1.46810e-03 -3.19520e-02 -2.91630e-01 -1.48430e-03 -1.30360e-02 -3.64850e-04 1.42450e-03 -3.29690e-02 -2.83770e-01 -1.44310e-03 -1.27130e-02 -3.64120e-04 1.38190e-03 -3.38340e-02 -2.74710e-01 -1.27060e-03 -9.82460e-03 1.56550e-09 7.03410e-10 -3.06020e-02 -2.68380e-01 -1.34180e-03 -1.20810e-02 1.83730e-09 8.17810e-10 -3.51450e-02 -2.60860e-01 -1.28830e-03 -1.17700e-02 1.86050e-09 7.87390e-10 -3.56070e-02 -2.53460e-01 -1.24140e-03 -1.14650e-02 1.87860e-09 7.60290e-10 -3.59480e-02 -2.46170e-01 -1.19070e-03 -1.11570e-02 1.89070e-09 7.36160e-10 -3.61770e-02 -2.39010e-01 -1.14480e-03 -1.08510e-02 1.89590e-09 7.14440e-10 -3.62990e-02 -2.31970e-01 -1.09710e-03 -1.05400e-02 1.89310e-09 6.94380e-10 -3.63210e-02 -2.25050e-01 -1.05290e-03 -1.02260e-02 1.88160e-09 6.75170e-10 -3.62480e-02 -2.18250e-01 -1.00810e-03 -9.90810e-03 1.86090e-09 6.56030e-10 -3.60880e-02 -2.11580e-01 -9.65820e-04 -9.58600e-03 1.83040e-09 6.36150e-10 -3.58440e-02 -2.05920e-01 -1.04350e-03 -1.16710e-02 2.00890e-09 7.58220e-10 -3.86440e-02 -1.65640e-01 4.33900e-03 -1.75350e-03 1.02640e-04 -2.95790e-04 -2.30010e-02 -1.60670e-01 4.22310e-03 -2.98340e-03 3.06910e-04 -8.76220e-04 -2.46620e-02 -1.86120e-01 -8.05460e-04 -8.24340e-03 1.60450e-09 5.33920e-10 -3.41520e-02 -1.80060e-01 -7.67940e-04 -7.89470e-03 1.52330e-09 4.98950e-10 -3.35750e-02 -1.74120e-01 -7.31740e-04 -7.54130e-03 1.43490e-09 4.59200e-10 -3.29460e-02 -1.68310e-01 -6.96320e-04 -7.18340e-03 1.34200e-09 4.14800e-10 -3.22700e-02 -1.63370e-01 -7.71610e-04 -8.97010e-03 1.45620e-09 5.11310e-10 -3.41210e-02 -1.41910e-01 1.85370e-03 -2.49730e-03 5.22040e-05 -1.49410e-04 -2.45140e-02 -1.27220e-01 3.44550e-03 -8.66040e-04 8.48460e-10 1.50670e-10 -2.12580e-02 -1.46240e-01 -5.64980e-04 -5.71860e-03 2.45340e-04 -6.61120e-04 -2.91740e-02 -1.41010e-01 -5.34560e-04 -5.34720e-03 2.37680e-04 -6.35060e-04 -2.83210e-02 -1.13750e-01 3.16590e-03 3.65290e-03 3.38130e-10 -2.51550e-10 -1.51570e-02 -1.09940e-01 3.04500e-03 2.05280e-03 4.61730e-10 -1.61780e-10 -1.66400e-02 -1.25310e-01 -3.52210e-04 -2.42270e-03 6.75340e-10 -6.78770e-11 -2.35700e-02 -1.21240e-01 -4.22020e-04 -3.86330e-03 7.93350e-10 1.90670e-11 -2.47080e-02 -1.16570e-01 -3.96110e-04 -3.49680e-03 7.86400e-10 -3.19260e-12 -2.37690e-02 -1.12010e-01 -3.71090e-04 -3.13370e-03 7.87950e-10 -2.03520e-11 -2.28220e-02 -1.07560e-01 -3.46910e-04 -2.77480e-03 7.96030e-10 -3.29730e-11 -2.18700e-02 -1.03220e-01 -3.23570e-04 -2.42110e-03 8.07990e-10 -4.18030e-11 -2.09150e-02 -9.89730e-02 -3.01050e-04 -2.07320e-03 8.20860e-10 -4.77060e-11 -1.99590e-02 -9.48340e-02 -2.79330e-04 -1.73210e-03 8.31250e-10 -5.17570e-11 -1.90050e-02 -9.07950e-02 -2.58400e-04 -1.39850e-03 8.35340e-10 -5.54280e-11 -1.80550e-02 -8.70920e-02 -2.64910e-04 -1.51640e-03 4.86500e-05 -1.21680e-04 -1.76080e-02 -8.37240e-02 -2.96940e-04 -2.03280e-03 1.42650e-04 -3.59330e-04 -1.76040e-02 -7.92750e-02 -2.00200e-04 -4.50370e-04 7.77430e-10 -7.91260e-11 -1.52530e-02 -7.56300e-02 -1.82260e-04 -1.54270e-04 7.28180e-10 -9.54400e-11 -1.43400e-02 -7.20800e-02 -1.65030e-04 1.30710e-04 6.63430e-10 -1.17020e-10 -1.34420e-02 -6.86240e-02 -1.48490e-04 4.03940e-04 5.84610e-10 -1.43670e-10 -1.25590e-02 -6.45490e-02 -6.39460e-05 1.67680e-03 3.83380e-10 -2.49850e-10 -1.05490e-02 -6.19900e-02 -1.17420e-04 9.12730e-04 3.93820e-10 -2.09400e-10 -1.08470e-02 -5.88110e-02 -1.02860e-04 1.14720e-03 2.87410e-10 -2.46400e-10 -1.00200e-02 -5.57210e-02 -8.89190e-05 1.36760e-03 1.77570e-10 -2.84690e-10 -9.21410e-03 -4.49180e-02 1.27420e-03 5.56050e-03 8.75960e-05 -2.02280e-04 -3.15250e-03 -4.72170e-02 3.92630e-04 3.07950e-03 8.00640e-05 -1.96000e-04 -5.94190e-03 -4.69850e-02 -5.06910e-05 1.94050e-03 7.36210e-05 -1.86620e-04 -6.93790e-03 -4.40120e-02 -2.06200e-05 2.32310e-03 2.31970e-05 -5.95430e-05 -5.96590e-03 -4.15960e-02 -2.80430e-05 2.24460e-03 -3.20580e-10 -4.56820e-10 -5.54850e-03 -3.90300e-02 -1.75240e-05 2.37230e-03 -3.90000e-10 -4.78910e-10 -4.89510e-03 -3.65480e-02 -7.52270e-06 2.48340e-03 -4.44030e-10 -4.94190e-10 -4.27060e-03 -3.48380e-02 -4.58360e-05 2.08740e-03 -4.32150e-10 -4.68440e-10 -4.28640e-03 -3.18370e-02 1.09880e-05 2.65470e-03 -5.02680e-10 -5.01630e-10 -3.11080e-03 -2.96060e-02 1.95280e-05 2.71460e-03 -5.07580e-10 -4.93510e-10 -2.57710e-03 -2.74570e-02 2.76100e-05 2.75700e-03 -4.98280e-10 -4.78460e-10 -2.07500e-03 -2.53910e-02 3.52520e-05 2.78190e-03 -4.77030e-10 -4.57700e-10 -1.60510e-03 -2.27630e-02 8.07710e-05 3.08230e-03 -4.50460e-10 -4.39010e-10 -7.60470e-04 -2.15020e-02 4.93020e-05 2.77850e-03 -4.07990e-10 -4.03820e-10 -7.64340e-04 -1.96800e-02 5.57610e-05 2.75010e-03 -3.65490e-10 -3.73380e-10 -3.94340e-04 -1.79380e-02 6.18870e-05 2.70380e-03 -3.20960e-10 -3.42050e-10 -5.85530e-05 -1.62760e-02 6.77230e-05 2.63970e-03 -2.77040e-10 -3.10930e-10 2.42640e-04 -1.46950e-02 7.33270e-05 2.55760e-03 -2.35850e-10 -2.80730e-10 5.08870e-04 -1.31940e-02 7.87550e-05 2.45750e-03 -1.98380e-10 -2.51630e-10 7.39780e-04 -1.17720e-02 8.40900e-05 2.33930e-03 -1.66040e-10 -2.24390e-10 9.35060e-04 -1.05990e-02 6.74850e-05 2.12210e-03 -1.83500e-06 4.24730e-06 9.48640e-04 -9.88350e-03 2.74680e-05 1.85800e-03 -3.77790e-06 9.53170e-06 8.22980e-04 -7.98560e-03 9.99740e-05 1.87580e-03 -1.11790e-10 -1.60490e-10 1.30430e-03 -7.03060e-03 9.90920e-05 1.69420e-03 2.37810e-06 -5.22670e-06 1.33770e-03 -5.43610e-03 1.25010e-04 1.42250e-03 6.73570e-06 -1.16000e-05 1.39370e-03 -4.77750e-03 1.16600e-04 1.22020e-03 1.86280e-06 -3.60340e-06 1.34750e-03 -4.03700e-03 1.11860e-04 9.94510e-04 -9.01710e-11 -1.08070e-10 1.29170e-03 -3.23700e-03 1.05490e-04 7.25110e-04 -8.09910e-11 -1.00390e-10 1.20560e-03 -2.61040e-03 9.15810e-05 4.79190e-04 2.36090e-06 -1.27620e-07 1.11200e-03 -2.12810e-03 7.44220e-05 2.71960e-04 6.76540e-06 -3.31310e-07 1.02800e-03 -1.20860e-03 7.64780e-05 -1.26040e-04 -4.17010e-11 -1.01410e-10 7.98220e-04 -6.19320e-04 2.05510e-04 -2.74920e-04 -1.49920e-11 -1.09840e-10 5.37990e-04 -3.35950e-04 3.13290e-04 -2.89920e-04 1.45830e-11 -1.16130e-10 3.37940e-04 -3.06090e-01 -2.07140e-01 -2.04480e-01 2.46170e-02 9.71600e-04 -2.07700e-02 -3.78420e-01 -1.76840e-01 -1.68210e-01 2.18090e-02 3.68860e-03 1.84090e-02 -4.09710e-01 -7.54020e-02 -6.45080e-02 1.21770e-02 6.18720e-03 5.80770e-02 -4.02640e-01 -1.94880e-02 -1.69470e-02 6.47950e-03 6.13800e-03 5.75720e-02 -3.99960e-01 -3.85180e-03 -9.43410e-03 9.50900e-04 4.79530e-03 4.47470e-02 -3.91260e-01 -1.41430e-02 -3.07570e-02 -1.11360e-03 2.84950e-03 4.01860e-02 -4.32180e-01 -4.17350e-03 -1.89010e-02 -1.31230e-03 2.10820e-03 2.17690e-02 -4.32930e-01 -3.77370e-03 -1.91940e-02 -1.38910e-03 2.59390e-03 1.75520e-02 -4.26010e-01 -2.42010e-03 -2.01480e-02 -9.78120e-04 2.39870e-03 6.70580e-03 -4.27920e-01 -2.60930e-03 -1.97340e-02 -1.24430e-03 1.37930e-03 4.60390e-04 -4.28140e-01 -4.37040e-03 -2.14070e-02 -1.19890e-03 6.42810e-04 -6.78940e-03 -4.18290e-01 -4.46660e-03 -2.09000e-02 -1.02650e-03 4.21830e-04 -1.09290e-02 -4.07860e-01 -4.25170e-03 -2.02530e-02 -8.51360e-04 2.57840e-04 -1.47720e-02 -3.90710e-01 -3.61460e-03 -1.97260e-02 -7.54860e-04 6.64610e-04 -1.74090e-02 -3.70020e-01 -1.94210e-03 -1.96720e-02 -7.50640e-04 1.36070e-03 -2.13960e-02 -3.58190e-01 -1.37820e-03 -1.62570e-02 -3.73200e-04 -4.67720e-04 -1.93560e-02 -3.49480e-01 -1.48240e-03 -1.57490e-02 -2.93860e-04 -4.89960e-04 -2.17610e-02 -3.40830e-01 -1.46720e-03 -1.52120e-02 -2.36070e-04 -4.96450e-04 -2.39240e-02 -3.32340e-01 -1.50880e-03 -1.47710e-02 -1.96730e-04 -4.94040e-04 -2.58570e-02 -3.23940e-01 -1.47510e-03 -1.43220e-02 -1.70240e-04 -4.85010e-04 -2.75830e-02 -2.60040e-01 6.83580e-03 -3.47620e-03 -1.16030e-04 -3.37140e-04 -1.00310e-02 -2.89020e-01 1.31840e-03 -1.00800e-02 -1.32360e-04 -4.13530e-04 -2.41280e-02 -2.99430e-01 -1.40350e-03 -1.32000e-02 -1.38880e-04 -4.42780e-04 -3.16440e-02 -2.91470e-01 -1.35290e-03 -1.28530e-02 -1.36670e-04 -4.26860e-04 -3.26650e-02 -2.83630e-01 -1.31590e-03 -1.25310e-02 -1.36410e-04 -4.11130e-04 -3.35350e-02 -2.74710e-01 -1.27640e-03 -9.81820e-03 -5.24270e-04 9.20110e-04 -3.05020e-02 -2.67900e-01 -1.21630e-03 -1.10950e-02 -2.68470e-04 5.29310e-05 -3.36380e-02 -2.60770e-01 -1.17420e-03 -1.15900e-02 -1.39970e-04 -3.65810e-04 -3.53260e-02 -2.53380e-01 -1.13160e-03 -1.12860e-02 -1.41520e-04 -3.51720e-04 -3.56740e-02 -2.46110e-01 -1.08520e-03 -1.09800e-02 -1.42950e-04 -3.38100e-04 -3.59080e-02 -2.38960e-01 -1.04330e-03 -1.06750e-02 -1.44240e-04 -3.25050e-04 -3.60370e-02 -2.31930e-01 -9.99780e-04 -1.03650e-02 -1.45350e-04 -3.12480e-04 -3.60650e-02 -2.25030e-01 -9.59420e-04 -1.00540e-02 -1.46280e-04 -3.00450e-04 -3.59980e-02 -2.18240e-01 -9.18490e-04 -9.73690e-03 -1.47020e-04 -2.88900e-04 -3.58440e-02 -2.11580e-01 -8.79900e-04 -9.41650e-03 -1.47610e-04 -2.77840e-04 -3.56060e-02 -2.05930e-01 -9.59250e-04 -1.15030e-02 -1.50790e-04 -2.70600e-04 -3.84100e-02 -1.79070e-01 2.30450e-03 -4.43680e-03 -6.41480e-05 -4.01840e-04 -2.76280e-02 -1.60530e-01 4.31640e-03 -1.23940e-03 -1.56310e-05 -4.50940e-04 -2.24670e-02 -1.55700e-01 4.22120e-03 -2.37980e-03 1.94300e-04 -9.95900e-04 -2.39210e-02 -1.80100e-01 -6.99060e-04 -7.73530e-03 -1.48380e-04 -2.29270e-04 -3.33680e-02 -1.74180e-01 -6.65970e-04 -7.38420e-03 -1.48140e-04 -2.20800e-04 -3.27450e-02 -1.68370e-01 -6.33600e-04 -7.02850e-03 -1.47790e-04 -2.12710e-04 -3.20740e-02 -1.63430e-01 -7.10150e-04 -8.81630e-03 -1.50220e-04 -2.07780e-04 -3.39290e-02 -1.48980e-01 7.60010e-04 -4.58690e-03 -1.38650e-04 -1.77690e-04 -2.76960e-02 -1.27330e-01 3.48870e-03 -7.06030e-04 -1.21510e-04 -1.31560e-04 -2.10700e-02 -1.46320e-01 -5.13520e-04 -5.57320e-03 -1.45150e-04 -1.83830e-04 -2.90000e-02 -1.41090e-01 -4.85720e-04 -5.20430e-03 -1.44200e-04 -1.77410e-04 -2.81530e-02 -1.13800e-01 3.16450e-03 3.70010e-03 -3.57740e-04 4.56960e-04 -1.51050e-02 -1.09930e-01 3.07140e-03 2.75780e-03 -1.94460e-04 7.57220e-05 -1.58420e-02 -1.25400e-01 -3.11970e-04 -2.28860e-03 -1.37640e-04 -1.57480e-04 -2.34190e-02 -1.21340e-01 -3.82840e-04 -3.73040e-03 -1.39220e-04 -1.54490e-04 -2.45600e-02 -1.16670e-01 -3.59160e-04 -3.36640e-03 -1.37690e-04 -1.49400e-04 -2.36260e-02 -1.12120e-01 -3.36300e-04 -3.00590e-03 -1.36050e-04 -1.44530e-04 -2.26840e-02 -1.07670e-01 -3.14200e-04 -2.64960e-03 -1.34310e-04 -1.39880e-04 -2.17360e-02 -1.03320e-01 -2.92880e-04 -2.29850e-03 -1.32460e-04 -1.35440e-04 -2.07850e-02 -9.90790e-02 -2.72310e-04 -1.95330e-03 -1.30510e-04 -1.31190e-04 -1.98330e-02 -9.49400e-02 -2.52480e-04 -1.61480e-03 -1.28460e-04 -1.27130e-04 -1.88840e-02 -9.09020e-02 -2.33370e-04 -1.28380e-03 -1.26310e-04 -1.23240e-04 -1.79380e-02 -8.69640e-02 -2.14980e-04 -9.61090e-04 -1.24070e-04 -1.19520e-04 -1.69990e-02 -8.33840e-02 -2.16230e-04 -1.04730e-03 -7.19470e-05 -2.29930e-04 -1.65200e-02 -8.01630e-02 -2.35380e-04 -1.48980e-03 2.66410e-05 -4.48980e-04 -1.64440e-02 -7.57360e-02 -1.63880e-04 -5.00500e-05 -1.16830e-04 -1.09270e-04 -1.42390e-02 -7.37500e-02 -4.21210e-04 -5.38980e-04 -1.37110e-04 -7.03160e-05 -1.43680e-02 -7.08850e-02 -5.25050e-04 -5.94900e-04 -1.92820e-04 5.56590e-05 -1.39020e-02 -6.45800e-02 -6.32900e-05 1.70770e-03 -2.23690e-04 1.60000e-04 -1.05180e-02 -6.18310e-02 -8.68970e-05 1.30480e-03 -1.43260e-04 -1.22030e-05 -1.04150e-02 -5.82680e-02 -1.71120e-05 2.20670e-03 4.83640e-06 -3.22440e-04 -8.84400e-03 -4.76100e-02 1.35750e-03 5.72450e-03 2.62380e-05 -2.78200e-04 -3.50680e-03 -4.55820e-02 1.27390e-03 4.98760e-03 2.17950e-05 -2.69650e-04 -3.85240e-03 -4.31550e-02 1.20090e-03 5.00700e-03 1.86510e-05 -2.55850e-04 -3.33190e-03 -4.07980e-02 1.12990e-03 5.01350e-03 1.57100e-05 -2.42540e-04 -2.83090e-03 -3.90070e-02 1.05350e-03 4.42410e-03 1.16960e-05 -2.34820e-04 -3.04750e-03 -4.16860e-02 -2.33900e-05 2.31970e-03 -8.48200e-05 -8.04190e-05 -5.48340e-03 -3.36380e-02 9.36040e-04 5.44950e-03 9.47160e-06 -2.00660e-04 -8.42620e-04 -3.20590e-02 8.66550e-04 4.90710e-03 5.97380e-06 -1.94030e-04 -1.03790e-03 -3.05510e-02 7.99770e-04 4.43390e-03 2.58550e-06 -1.87550e-04 -1.17340e-03 -3.67120e-02 -8.07780e-04 2.28750e-04 -4.30060e-05 -2.07610e-04 -6.40980e-03 -2.96850e-02 1.98380e-05 2.77640e-03 -6.82430e-05 -7.02640e-05 -2.52630e-03 -2.75340e-02 2.71740e-05 2.81610e-03 -6.48230e-05 -6.83700e-05 -2.02700e-03 -2.54640e-02 3.41100e-05 2.83830e-03 -6.13720e-05 -6.65120e-05 -1.55990e-03 -2.04500e-02 5.41620e-04 4.56840e-03 -9.15160e-07 -1.30780e-04 1.27590e-03 -1.93320e-02 4.89620e-04 4.19940e-03 -3.33910e-06 -1.26110e-04 1.17720e-03 -1.77740e-02 4.44890e-04 4.04390e-03 -3.85810e-06 -1.18040e-04 1.38870e-03 -1.62800e-02 4.02530e-04 3.87480e-03 -4.16050e-06 -1.10350e-04 1.57260e-03 -1.48500e-02 3.62570e-04 3.69230e-03 -4.23460e-06 -1.03010e-04 1.72870e-03 -1.34840e-02 3.25090e-04 3.49640e-03 -4.06140e-06 -9.60000e-05 1.85660e-03 -1.26420e-02 2.86540e-04 3.24080e-03 -5.72530e-06 -9.23640e-05 1.81170e-03 -1.20140e-02 5.22630e-05 2.27260e-03 -3.66410e-05 -4.78250e-05 7.90930e-04 -1.10930e-02 -2.80720e-07 1.91900e-03 -4.18070e-05 -3.73130e-05 5.75230e-04 -1.03410e-02 -6.24290e-05 1.52320e-03 -4.70930e-05 -2.57080e-05 2.51550e-04 -8.02770e-03 9.28430e-05 1.90290e-03 -1.92900e-05 -4.47680e-05 1.32250e-03 -6.92070e-03 9.75040e-05 1.70900e-03 -1.45370e-05 -4.18840e-05 1.37090e-03 -5.46970e-03 1.17150e-04 1.44380e-03 -6.22480e-06 -3.68460e-05 1.40760e-03 -4.94080e-03 1.04240e-04 1.26410e-03 -4.44270e-06 -3.53520e-05 1.36020e-03 -4.06480e-03 1.03870e-04 1.01240e-03 5.92430e-07 -3.20800e-05 1.30340e-03 -3.26100e-03 9.79260e-05 7.40850e-04 5.15050e-06 -2.94460e-05 1.21580e-03 -2.52400e-03 8.38720e-05 4.51630e-04 8.91400e-06 -2.82480e-05 1.10240e-03 -1.94880e-03 6.32110e-05 1.99920e-04 1.39880e-05 -2.84580e-05 9.91770e-04 -1.22510e-03 6.02060e-05 -1.11560e-04 2.29260e-05 -3.23060e-05 8.05970e-04 -6.24850e-04 1.86990e-04 -2.62320e-04 2.85690e-05 -4.29390e-05 5.40930e-04 -3.34930e-04 2.93910e-04 -2.76360e-04 3.41860e-05 -5.31220e-05 3.37550e-04 -3.14950e-01 -2.13790e-01 -2.13740e-01 3.77880e-02 1.68340e-03 -2.34600e-02 -3.79570e-01 -1.69170e-01 -1.66460e-01 3.15870e-02 6.25250e-03 1.49830e-02 -4.07910e-01 -6.61100e-02 -6.23030e-02 1.89250e-02 1.02870e-02 5.31080e-02 -4.01070e-01 -1.32720e-02 -1.78180e-02 7.34390e-03 1.02120e-02 5.22390e-02 -3.93750e-01 2.79100e-04 -9.05690e-03 8.95300e-04 8.35470e-03 4.02520e-02 -4.25840e-01 -3.68240e-03 -1.87530e-02 -2.48310e-03 4.87410e-03 2.98010e-02 -4.30710e-01 -2.46780e-03 -1.91250e-02 -2.77400e-03 3.93600e-03 1.70820e-02 -4.29940e-01 -1.76250e-03 -1.99930e-02 -2.84360e-03 2.80560e-03 1.02360e-02 -4.19690e-01 -1.11660e-03 -2.01960e-02 -2.73330e-03 1.77130e-03 5.71700e-03 -4.76850e-01 -6.53980e-03 -1.89540e-02 -2.48580e-03 1.96560e-03 -4.71840e-03 -4.73020e-01 -1.02940e-02 -2.53780e-02 -2.38510e-03 1.62310e-03 -1.48250e-02 -4.63210e-01 -1.10030e-02 -2.50980e-02 -2.03640e-03 1.23450e-03 -1.89460e-02 -4.51120e-01 -1.00480e-02 -2.42550e-02 -1.73240e-03 9.42110e-04 -2.30380e-02 -4.46430e-01 -1.26630e-02 -2.81820e-02 -1.57040e-03 8.05350e-04 -3.13140e-02 -3.05030e-01 5.68260e-03 -1.43770e-02 -6.98180e-04 -3.23820e-04 -6.87520e-03 -3.56740e-01 -9.46090e-04 -1.56800e-02 -5.43720e-04 -7.89030e-04 -1.84100e-02 -3.48220e-01 -1.03670e-03 -1.51320e-02 -4.09390e-04 -8.20740e-04 -2.07890e-02 -3.39740e-01 -1.02400e-03 -1.45810e-02 -3.14610e-04 -8.27150e-04 -2.29380e-02 -3.31390e-01 -1.06320e-03 -1.41220e-02 -2.51320e-04 -8.18900e-04 -2.48690e-02 -3.23090e-01 -1.03620e-03 -1.36680e-02 -2.10580e-04 -8.00380e-04 -2.66000e-02 -2.59190e-01 7.35620e-03 -2.64870e-03 -1.36110e-04 -4.99430e-04 -8.98380e-03 -2.88300e-01 1.77190e-03 -9.36410e-03 -1.58360e-04 -6.58630e-04 -2.31420e-02 -2.98820e-01 -9.91030e-04 -1.25430e-02 -1.69200e-04 -7.22060e-04 -3.06950e-02 -2.90920e-01 -9.52900e-04 -1.22000e-02 -1.69010e-04 -6.93640e-04 -3.17320e-02 -2.83140e-01 -9.28320e-04 -1.18810e-02 -1.71920e-04 -6.65770e-04 -3.26180e-02 -2.75460e-01 -8.90530e-04 -1.15640e-02 -1.76310e-04 -6.38430e-04 -3.33640e-02 -2.66670e-01 -7.22300e-04 -8.67480e-03 -1.77430e-04 -6.04860e-04 -3.01320e-02 -2.60440e-01 -8.25850e-04 -1.09570e-02 -1.86930e-04 -5.86620e-04 -3.44610e-02 -2.53100e-01 -7.96010e-04 -1.06590e-02 -1.92260e-04 -5.62230e-04 -3.48270e-02 -2.45880e-01 -7.62290e-04 -1.03600e-02 -1.97260e-04 -5.38810e-04 -3.50810e-02 -2.38770e-01 -7.32720e-04 -1.00610e-02 -2.01920e-04 -5.16440e-04 -3.52280e-02 -2.31780e-01 -7.01200e-04 -9.75900e-03 -2.06160e-04 -4.95020e-04 -3.52750e-02 -2.24910e-01 -6.72540e-04 -9.45510e-03 -2.10010e-04 -4.74590e-04 -3.52270e-02 -2.18160e-01 -6.43020e-04 -9.14620e-03 -2.13460e-04 -4.55070e-04 -3.50920e-02 -2.11530e-01 -6.15530e-04 -8.83370e-03 -2.16550e-04 -4.36470e-04 -3.48740e-02 -2.05900e-01 -6.99020e-04 -1.09240e-02 -2.24240e-04 -4.24420e-04 -3.76880e-02 -1.94110e-01 1.76910e-04 -7.35370e-03 -1.60770e-04 -4.97970e-04 -3.27310e-02 -1.73470e-01 2.51260e-03 -3.49140e-03 -1.24360e-04 -4.55660e-04 -2.65590e-02 -1.55450e-01 4.51460e-03 -1.93130e-04 -7.41360e-05 -4.59870e-04 -2.14030e-02 -1.50650e-01 4.52760e-03 -1.09700e-03 1.52320e-04 -9.27330e-04 -2.26710e-02 -1.74300e-01 -4.62160e-04 -6.85220e-03 -2.28280e-04 -3.42130e-04 -3.21230e-02 -1.68510e-01 -4.38930e-04 -6.50540e-03 -2.29190e-04 -3.29000e-04 -3.14700e-02 -1.63590e-01 -5.19230e-04 -8.29750e-03 -2.35190e-04 -3.21240e-04 -3.33350e-02 -1.42130e-01 2.08700e-03 -1.81260e-03 -2.76210e-04 -9.83670e-05 -2.37740e-02 -1.27480e-01 3.69680e-03 -1.08310e-04 -1.97260e-04 -1.72270e-04 -2.04630e-02 -1.46530e-01 -3.52980e-04 -5.08650e-03 -2.30080e-04 -2.82810e-04 -2.84640e-02 -1.41320e-01 -3.33110e-04 -4.72680e-03 -2.29620e-04 -2.72690e-04 -2.76330e-02 -1.36230e-01 -3.13810e-04 -4.36650e-03 -2.28900e-04 -2.63090e-04 -2.67780e-02 -1.09940e-01 3.12420e-03 4.18530e-03 -4.48770e-04 3.42700e-04 -1.41600e-02 -1.25570e-01 -2.72730e-04 -2.08090e-03 -4.87370e-04 2.38000e-04 -2.31580e-02 -1.21340e-01 -2.58890e-04 -2.78520e-03 -3.10880e-04 -7.83500e-05 -2.35070e-02 -1.16960e-01 -2.42810e-04 -2.93550e-03 -2.23440e-04 -2.29390e-04 -2.31820e-02 -1.12410e-01 -2.26540e-04 -2.58430e-03 -2.21450e-04 -2.22020e-04 -2.22540e-02 -1.07960e-01 -2.10830e-04 -2.23730e-03 -2.19230e-04 -2.15020e-04 -2.13200e-02 -1.03620e-01 -1.95690e-04 -1.89550e-03 -2.16790e-04 -2.08380e-04 -2.03830e-02 -9.93850e-02 -1.81100e-04 -1.55960e-03 -2.14120e-04 -2.02070e-04 -1.94440e-02 -9.52490e-02 -1.67060e-04 -1.23040e-03 -2.11230e-04 -1.96080e-04 -1.85080e-02 -9.12140e-02 -1.53540e-04 -9.08690e-04 -2.08140e-04 -1.90380e-04 -1.75750e-02 -8.72770e-02 -1.40540e-04 -5.95240e-04 -2.04840e-04 -1.84970e-04 -1.66480e-02 -8.34390e-02 -1.28050e-04 -2.90800e-04 -2.01360e-04 -1.79810e-04 -1.57300e-02 -8.04050e-02 -1.88990e-04 -1.21270e-03 -2.03330e-04 -1.78000e-04 -1.61830e-02 -7.84190e-02 -5.60560e-04 -9.80140e-04 -3.01640e-04 -2.33590e-05 -1.55410e-02 -7.60340e-02 -7.61520e-04 -1.37650e-03 -3.66360e-04 7.31600e-05 -1.55450e-02 -7.98940e-02 -2.03120e-03 -4.62300e-03 -3.89110e-04 3.10460e-05 -1.93120e-02 -6.56750e-02 -7.28090e-05 1.07200e-03 -1.81290e-04 -1.57420e-04 -1.13210e-02 -6.15470e-02 -2.49370e-05 2.12160e-03 -3.06750e-04 5.81610e-05 -9.52110e-03 -5.85010e-02 8.57620e-06 2.43520e-03 -1.66540e-04 -1.46970e-04 -8.64190e-03 -4.78290e-02 1.39530e-03 5.98630e-03 -1.25720e-04 -1.01050e-04 -3.29300e-03 -4.58000e-02 1.31010e-03 5.24470e-03 -1.26280e-04 -1.01850e-04 -3.64350e-03 -4.33700e-02 1.23390e-03 5.25520e-03 -1.21780e-04 -1.01000e-04 -3.13140e-03 -4.10110e-02 1.15980e-03 5.25290e-03 -1.17200e-04 -1.00180e-04 -2.63850e-03 -3.89250e-02 1.09370e-03 5.09130e-03 -8.31600e-05 -1.45360e-04 -2.36370e-03 -3.66150e-02 1.04010e-03 5.34580e-03 -1.91330e-05 -2.28370e-04 -1.61620e-03 -3.42130e-02 9.59480e-04 5.37540e-03 -7.33080e-05 -1.38520e-04 -1.05010e-03 -3.22560e-02 8.85620e-04 5.11170e-03 -9.82340e-05 -9.72290e-05 -8.76970e-04 -3.07460e-02 8.17570e-04 4.63380e-03 -9.81470e-05 -9.81410e-05 -1.01690e-03 -3.69110e-02 -8.10730e-04 3.68440e-04 -1.57220e-04 -1.44980e-04 -6.29100e-03 -2.99270e-02 2.29700e-05 2.97120e-03 -1.13980e-04 -1.16030e-04 -2.36850e-03 -2.77680e-02 2.79680e-05 3.00220e-03 -1.08190e-04 -1.13390e-04 -1.87770e-03 -2.56920e-02 3.26840e-05 3.01560e-03 -1.02350e-04 -1.10800e-04 -1.41890e-03 -2.06150e-02 5.46860e-04 4.71840e-03 -6.38580e-05 -9.12250e-05 1.38980e-03 -2.02760e-02 3.23760e-04 3.87600e-03 -6.38000e-05 -1.07390e-04 6.28120e-04 -1.93100e-02 1.75010e-04 3.37690e-03 -6.15730e-05 -1.15370e-04 3.52230e-04 -1.76400e-02 1.62580e-04 3.27830e-03 -5.71670e-05 -1.11270e-04 6.26880e-04 -1.60450e-02 1.50870e-04 3.16320e-03 -5.26170e-05 -1.07240e-04 8.69280e-04 -1.45240e-02 1.39920e-04 3.03180e-03 -4.79000e-05 -1.03240e-04 1.07910e-03 -1.36050e-02 1.11370e-04 2.80860e-03 -4.80980e-05 -1.02180e-04 1.08090e-03 -1.26750e-02 -3.87230e-05 2.08750e-03 -7.76600e-05 -8.19840e-05 4.08790e-04 -1.19010e-02 -1.15400e-04 1.63500e-03 -9.31370e-05 -7.41900e-05 3.63670e-05 -9.35630e-03 6.93710e-05 2.16870e-03 -3.84660e-05 -8.26740e-05 1.30030e-03 -8.16070e-03 7.27750e-05 1.98510e-03 -3.07610e-05 -7.85710e-05 1.37840e-03 -7.04360e-03 7.61500e-05 1.78320e-03 -2.25720e-05 -7.38920e-05 1.42070e-03 -5.57700e-03 9.42900e-05 1.50690e-03 -7.61120e-06 -6.51990e-05 1.44960e-03 -5.04190e-03 8.12130e-05 1.32340e-03 -4.86620e-06 -6.28310e-05 1.39980e-03 -4.15420e-03 8.09110e-05 1.06470e-03 4.11510e-06 -5.70000e-05 1.33870e-03 -3.33800e-03 7.61630e-05 7.86770e-04 1.23100e-05 -5.20300e-05 1.24690e-03 -2.58800e-03 6.40250e-05 4.91240e-04 1.84330e-05 -4.96640e-05 1.12870e-03 -1.89600e-03 4.49190e-05 1.87270e-04 2.24680e-05 -5.18720e-05 9.88300e-04 -1.25140e-03 4.50480e-05 -9.05650e-05 2.73750e-05 -5.98160e-05 8.16410e-04 -6.38670e-04 1.67430e-04 -2.46810e-04 3.52780e-05 -7.52120e-05 5.43800e-04 -3.43200e-04 2.70470e-04 -2.63110e-04 4.24020e-05 -9.01340e-05 3.35310e-04 -3.12770e-01 -1.95560e-01 -2.01840e-01 6.58310e-02 2.85400e-03 -3.00380e-02 -3.79830e-01 -1.46650e-01 -1.58610e-01 5.12650e-02 1.04390e-02 5.59320e-03 -4.06360e-01 -4.06790e-02 -5.52800e-02 2.21700e-02 1.52720e-02 4.04660e-02 -3.89080e-01 1.23080e-03 -1.32260e-02 3.09340e-03 1.34230e-02 3.94810e-02 -3.79550e-01 5.47260e-03 -9.88460e-03 -1.82310e-03 1.00680e-02 3.07840e-02 -4.35800e-01 -2.29070e-03 -1.68060e-02 -4.84340e-03 5.95370e-03 2.20490e-02 -4.28810e-01 -6.24060e-04 -1.83930e-02 -3.73050e-03 4.79500e-03 1.16410e-02 -4.19090e-01 -2.78970e-04 -1.93530e-02 -3.53130e-03 3.31310e-03 8.34410e-03 -4.10670e-01 -1.79700e-04 -1.94230e-02 -3.16680e-03 2.04790e-03 4.98330e-03 -4.02510e-01 -6.27790e-06 -1.88200e-02 -2.62320e-03 1.12160e-03 1.55890e-03 -3.94680e-01 -1.60780e-04 -1.81130e-02 -2.09360e-03 4.18130e-04 -1.85150e-03 -3.86650e-01 -9.80630e-05 -1.71450e-02 -1.57750e-03 -5.41840e-05 -5.18600e-03 -3.78690e-01 -2.77050e-04 -1.63340e-02 -1.15130e-03 -3.82480e-04 -8.36760e-03 -3.50120e-01 2.18750e-03 -1.45950e-02 -7.94370e-04 -4.33200e-04 -8.55140e-03 -3.01780e-01 6.36770e-03 -1.23730e-02 -5.31890e-04 -2.94810e-04 -5.27190e-03 -3.54140e-01 -3.79980e-04 -1.40360e-02 -3.31160e-04 -7.63910e-04 -1.67330e-02 -3.45950e-01 -4.58220e-04 -1.34700e-02 -1.94450e-04 -7.90100e-04 -1.90870e-02 -3.37720e-01 -4.42920e-04 -1.29140e-02 -1.00560e-04 -7.87670e-04 -2.12310e-02 -3.29580e-01 -4.81130e-04 -1.24570e-02 -4.38960e-05 -7.73080e-04 -2.31690e-02 -3.21450e-01 -4.61260e-04 -1.20140e-02 -1.06090e-05 -7.47140e-04 -2.49140e-02 -2.57930e-01 7.75880e-03 -8.75390e-04 5.26610e-05 -4.33510e-04 -7.26820e-03 -2.87020e-01 2.27440e-03 -7.69320e-03 2.16490e-05 -5.92310e-04 -2.14850e-02 -2.97580e-01 -4.51260e-04 -1.09390e-02 1.67330e-06 -6.53740e-04 -2.90770e-02 -2.89800e-01 -4.29650e-04 -1.06170e-02 -7.63550e-06 -6.21200e-04 -3.01400e-02 -2.82120e-01 -4.21170e-04 -1.03200e-02 -2.00790e-05 -5.90320e-04 -3.10550e-02 -2.74540e-01 -4.00890e-04 -1.00270e-02 -3.34200e-05 -5.60050e-04 -3.18300e-02 -2.65880e-01 -2.65110e-04 -7.17280e-03 -4.27090e-05 -5.23890e-04 -2.86400e-02 -2.59700e-01 -3.70410e-04 -9.46690e-03 -6.10850e-05 -5.04140e-04 -3.29890e-02 -2.52450e-01 -3.57200e-04 -9.19350e-03 -7.44420e-05 -4.78380e-04 -3.33860e-02 -2.45300e-01 -3.40200e-04 -8.91820e-03 -8.70410e-05 -4.53760e-04 -3.36710e-02 -2.38280e-01 -3.26670e-04 -8.64440e-03 -9.90480e-05 -4.30660e-04 -3.38500e-02 -2.31360e-01 -3.11060e-04 -8.36700e-03 -1.10260e-04 -4.08690e-04 -3.39300e-02 -2.24560e-01 -2.97710e-04 -8.08780e-03 -1.20830e-04 -3.88090e-04 -3.39150e-02 -2.17880e-01 -2.83260e-04 -7.80400e-03 -1.30680e-04 -3.68590e-04 -3.38110e-02 -2.11320e-01 -2.70320e-04 -7.51650e-03 -1.39910e-04 -3.50310e-04 -3.36250e-02 -2.05720e-01 -3.57610e-04 -9.61990e-03 -1.54690e-04 -3.38840e-04 -3.64570e-02 -1.98540e-01 -2.44420e-04 -6.92620e-03 -1.56500e-04 -3.16960e-04 -3.30260e-02 -1.82160e-01 1.37760e-03 -4.71110e-03 -1.53360e-04 -2.50260e-04 -2.93060e-02 -1.55510e-01 4.65590e-03 1.73380e-03 -1.31970e-04 -1.31470e-04 -1.94280e-02 -1.50880e-01 4.51860e-03 -2.29750e-04 -1.44160e-04 -1.27070e-04 -2.18400e-02 -1.74400e-01 -1.96850e-04 -5.68510e-03 -1.82840e-04 -2.62020e-04 -3.10600e-02 -1.68650e-01 -1.85730e-04 -5.36320e-03 -1.88080e-04 -2.50470e-04 -3.04370e-02 -1.63750e-01 -2.69370e-04 -7.16850e-03 -1.99700e-04 -2.44360e-04 -3.23190e-02 -1.32040e-01 3.98690e-03 1.97070e-03 -2.87260e-04 9.08920e-05 -1.85800e-02 -1.27730e-01 3.85520e-03 5.32910e-04 -5.49860e-04 4.68020e-04 -1.98870e-02 -1.46810e-01 -1.44860e-04 -4.04240e-03 -2.03960e-04 -2.11760e-04 -2.75440e-02 -1.41630e-01 -1.35470e-04 -3.70700e-03 -2.06700e-04 -2.03750e-04 -2.67410e-02 -1.36570e-01 -1.26350e-04 -3.37080e-03 -2.08970e-04 -1.96320e-04 -2.59120e-02 -1.31610e-01 -1.17570e-04 -3.03460e-03 -2.10780e-04 -1.89450e-04 -2.50630e-02 -1.06300e-01 3.25910e-03 5.23590e-03 -4.86180e-04 3.67330e-04 -1.29200e-02 -1.15070e-01 9.74150e-04 1.34060e-03 -3.02600e-04 -1.98220e-05 -1.83410e-02 -1.14600e-01 3.47670e-04 -9.47740e-04 -2.53210e-04 -1.06380e-04 -2.08690e-02 -1.12840e-01 -8.54660e-05 -1.70610e-03 -2.13640e-04 -1.66830e-04 -2.15130e-02 -1.08410e-01 -7.81800e-05 -1.38210e-03 -2.13310e-04 -1.62240e-04 -2.06020e-02 -1.04080e-01 -7.11880e-05 -1.06310e-03 -2.12600e-04 -1.58010e-04 -1.96880e-02 -9.98580e-02 -6.44730e-05 -7.49660e-04 -2.11510e-04 -1.54130e-04 -1.87720e-02 -9.57320e-02 -5.80380e-05 -4.42770e-04 -2.10060e-04 -1.50570e-04 -1.78570e-02 -9.17040e-02 -5.18700e-05 -1.43170e-04 -2.08260e-04 -1.47290e-04 -1.69460e-02 -8.77740e-02 -4.59690e-05 1.48390e-04 -2.06120e-04 -1.44280e-04 -1.60400e-02 -8.39400e-02 -4.03240e-05 4.31150e-04 -2.03660e-04 -1.41520e-04 -1.51420e-02 -8.09090e-02 -1.03850e-04 -5.02400e-04 -2.08470e-04 -1.42090e-04 -1.56070e-02 -8.86130e-02 -2.22040e-03 -5.23200e-03 -4.76550e-04 8.08690e-06 -2.12620e-02 -7.30080e-02 -2.48790e-05 1.21960e-03 -1.94490e-04 -1.34500e-04 -1.25120e-02 -6.95490e-02 -2.02040e-05 1.46020e-03 -1.90870e-04 -1.32510e-04 -1.16630e-02 -6.61820e-02 -1.57540e-05 1.68870e-03 -1.87010e-04 -1.30680e-04 -1.08300e-02 -6.29050e-02 -1.15240e-05 1.90450e-03 -1.82900e-04 -1.28980e-04 -1.00150e-02 -6.16060e-02 -4.20110e-04 1.71880e-03 -2.38310e-04 -8.10790e-05 -9.88250e-03 -4.83710e-02 1.40970e-03 6.57380e-03 -1.26500e-04 -8.12630e-05 -2.84180e-03 -4.63370e-02 1.32370e-03 5.82040e-03 -1.28920e-04 -8.41810e-05 -3.20200e-03 -4.38990e-02 1.24480e-03 5.81000e-03 -1.24530e-04 -8.53700e-05 -2.70670e-03 -4.15300e-02 1.16810e-03 5.78690e-03 -1.20000e-04 -8.65480e-05 -2.23040e-03 -3.92300e-02 1.09380e-03 5.75090e-03 -1.15340e-04 -8.77050e-05 -1.77390e-03 -3.69970e-02 1.02180e-03 5.70200e-03 -1.10560e-04 -8.88290e-05 -1.33830e-03 -3.48310e-02 9.52230e-04 5.63990e-03 -1.05680e-04 -8.99120e-05 -9.24220e-04 -3.27330e-02 8.85000e-04 5.56460e-03 -1.00700e-04 -9.09450e-05 -5.32570e-04 -3.12160e-02 8.16230e-04 5.07550e-03 -1.02060e-04 -9.36850e-05 -6.81300e-04 -3.46960e-02 -2.85300e-04 2.21240e-03 -1.14030e-04 -1.51770e-04 -4.06210e-03 -3.03440e-02 2.45710e-05 3.33650e-03 -1.19110e-04 -1.13760e-04 -2.08980e-03 -2.81750e-02 2.65560e-05 3.34920e-03 -1.12930e-04 -1.12580e-04 -1.61380e-03 -2.60870e-02 2.84150e-05 3.34450e-03 -1.06650e-04 -1.11370e-04 -1.16970e-03 -2.10060e-02 5.35760e-04 5.04660e-03 -6.30210e-05 -9.37650e-05 1.63760e-03 -2.11360e-02 2.03640e-04 3.84460e-03 -8.10250e-05 -1.03330e-04 3.97290e-04 -2.03070e-02 3.33230e-05 3.22480e-03 -8.73220e-05 -1.07460e-04 -3.47490e-05 -1.85410e-02 3.47760e-05 3.14950e-03 -8.07030e-05 -1.06020e-04 2.76230e-04 -1.68550e-02 3.61600e-05 3.05630e-03 -7.39790e-05 -1.04460e-04 5.52850e-04 -1.52480e-02 3.75030e-05 2.94550e-03 -6.71250e-05 -1.02760e-04 7.94770e-04 -1.42870e-02 1.35110e-05 2.73190e-03 -6.75710e-05 -1.03900e-04 8.14880e-04 -1.36950e-02 -1.83440e-04 1.80010e-03 -1.25580e-04 -1.03260e-04 -1.59210e-04 -1.09050e-02 4.15540e-05 2.50620e-03 -4.53170e-05 -9.61890e-05 1.30990e-03 -9.61480e-03 4.30230e-05 2.32430e-03 -3.73820e-05 -9.31910e-05 1.41110e-03 -8.40310e-03 4.45770e-05 2.12460e-03 -2.89420e-05 -8.95740e-05 1.47690e-03 -7.26910e-03 4.61900e-05 1.90710e-03 -1.98790e-05 -8.51890e-05 1.50800e-03 -5.77610e-03 6.23410e-05 1.60950e-03 -1.77990e-06 -7.57000e-05 1.52240e-03 -5.22980e-03 4.87680e-05 1.41820e-03 2.83340e-07 -7.38020e-05 1.46810e-03 -4.32090e-03 4.86520e-05 1.14650e-03 1.09460e-05 -6.71380e-05 1.39980e-03 -3.48200e-03 4.55510e-05 8.56530e-04 2.08090e-05 -6.09200e-05 1.30190e-03 -2.70790e-03 3.77230e-05 5.50980e-04 2.77990e-05 -5.72690e-05 1.17700e-03 -1.99140e-03 2.17500e-05 2.36020e-04 2.87110e-05 -6.02030e-05 1.02770e-03 -1.31820e-03 1.30400e-05 -5.60430e-05 2.77860e-05 -7.23690e-05 8.46130e-04 -6.68900e-04 1.18640e-04 -2.22680e-04 3.74430e-05 -9.40380e-05 5.59580e-04 -3.53470e-04 2.10760e-04 -2.39510e-04 5.23760e-05 -1.14460e-04 3.40290e-04 -3.34840e-01 -1.76160e-01 -1.97090e-01 1.03440e-01 1.86290e-03 -4.54190e-02 -3.87090e-01 -9.27200e-02 -1.29770e-01 6.13130e-02 1.06200e-02 -1.34590e-02 -3.77060e-01 -3.71640e-03 -2.64330e-02 9.09000e-03 1.46210e-02 1.80500e-02 -3.58660e-01 9.43230e-03 -8.16580e-03 -3.10590e-03 1.05800e-02 2.16160e-02 -3.53310e-01 8.92010e-03 -6.76700e-03 -3.51110e-03 7.39180e-03 1.95840e-02 -4.15410e-01 -1.29690e-03 -1.45950e-02 -3.24480e-03 4.34910e-03 1.71740e-02 -4.10170e-01 2.19900e-04 -1.55600e-02 -2.91520e-03 3.47350e-03 8.42730e-03 -4.03940e-01 3.32300e-04 -1.62200e-02 -2.34200e-03 2.32400e-03 7.13910e-03 -3.98430e-01 1.13170e-04 -1.62710e-02 -1.82780e-03 1.40110e-03 5.18420e-03 -3.92660e-01 2.43920e-04 -1.54760e-02 -1.27940e-03 7.31420e-04 2.67400e-03 -3.86760e-01 2.27140e-05 -1.47340e-02 -8.20220e-04 2.49160e-04 -1.44170e-04 -3.80230e-01 1.04780e-04 -1.36820e-02 -4.10640e-04 -6.65650e-05 -3.12300e-03 -3.73420e-01 -5.42620e-05 -1.28620e-02 -9.91390e-05 -2.72380e-04 -6.09600e-03 -3.45520e-01 2.55750e-03 -1.10150e-02 1.30080e-04 -3.23800e-04 -6.14050e-03 -2.97470e-01 7.02620e-03 -8.63480e-03 3.09300e-04 -2.65710e-04 -2.76730e-03 -3.50890e-01 -7.43150e-05 -1.05980e-02 4.30250e-04 -4.78580e-04 -1.42890e-02 -3.43080e-01 -1.31270e-04 -1.00720e-02 5.00390e-04 -4.80320e-04 -1.66520e-02 -3.35160e-01 -1.08920e-04 -9.56180e-03 5.39060e-04 -4.66080e-04 -1.88180e-02 -3.27260e-01 -1.39130e-04 -9.15590e-03 5.52820e-04 -4.44290e-04 -2.07850e-02 -3.19350e-01 -1.22030e-04 -8.76670e-03 5.50350e-04 -4.17570e-04 -2.25640e-02 -2.56050e-01 8.13340e-03 2.30860e-03 5.64390e-04 -2.72060e-04 -4.82870e-03 -2.85290e-01 2.61860e-03 -4.55710e-03 5.24500e-04 -3.22950e-04 -1.91700e-02 -2.96000e-01 -1.28960e-04 -7.86090e-03 4.89890e-04 -3.33160e-04 -2.68430e-02 -2.88360e-01 -1.18300e-04 -7.59770e-03 4.62120e-04 -3.06580e-04 -2.79470e-02 -2.80830e-01 -1.19380e-04 -7.35830e-03 4.33450e-04 -2.81460e-04 -2.89050e-02 -2.73380e-01 -1.10800e-04 -7.12280e-03 4.04580e-04 -2.57920e-04 -2.97230e-02 -2.64910e-01 -2.81240e-06 -4.35100e-03 3.79650e-04 -2.30220e-04 -2.65930e-02 -2.58800e-01 -1.02350e-04 -6.67840e-03 3.48550e-04 -2.15480e-04 -3.09700e-02 -2.51670e-01 -9.97050e-05 -6.46230e-03 3.21860e-04 -1.96500e-04 -3.14130e-02 -2.44640e-01 -9.37340e-05 -6.24430e-03 2.96100e-04 -1.78990e-04 -3.17430e-02 -2.37720e-01 -9.04840e-05 -6.02720e-03 2.71440e-04 -1.62810e-04 -3.19670e-02 -2.30910e-01 -8.52870e-05 -5.80630e-03 2.47750e-04 -1.47960e-04 -3.20920e-02 -2.24210e-01 -8.17720e-05 -5.58320e-03 2.25110e-04 -1.34310e-04 -3.21210e-02 -2.17630e-01 -7.71310e-05 -5.35510e-03 2.03420e-04 -1.21860e-04 -3.20630e-02 -2.11150e-01 -7.35410e-05 -5.12280e-03 1.82710e-04 -1.10490e-04 -3.19210e-02 -2.05600e-01 -1.58100e-04 -7.25820e-03 1.57390e-04 -1.04200e-04 -3.47790e-02 -1.98540e-01 -6.57510e-05 -4.64150e-03 1.44040e-04 -9.08870e-05 -3.14080e-02 -1.82230e-01 1.55980e-03 -2.46860e-03 1.34550e-04 -6.34590e-05 -2.76910e-02 -1.55670e-01 4.84160e-03 3.92300e-03 1.41440e-04 -1.57440e-05 -1.77930e-02 -1.51090e-01 4.70510e-03 1.92820e-03 1.20040e-04 -1.41900e-05 -2.02300e-02 -1.74670e-01 -5.14100e-05 -3.61210e-03 7.72140e-05 -6.24740e-05 -2.96090e-02 -1.68980e-01 -4.80140e-05 -3.34170e-03 6.25910e-05 -5.73120e-05 -2.90260e-02 -1.64110e-01 -1.29830e-04 -5.17640e-03 4.21260e-05 -5.60610e-05 -3.09300e-02 -1.32690e-01 4.12880e-03 2.75780e-03 6.44180e-05 -2.58200e-06 -1.85780e-02 -1.52580e-01 -3.86640e-05 -2.50580e-03 2.34870e-05 -4.56710e-05 -2.70230e-02 -1.47340e-01 -3.57040e-05 -2.22080e-03 1.19810e-05 -4.29300e-05 -2.62840e-02 -1.42200e-01 -3.28860e-05 -1.93370e-03 1.21530e-06 -4.06820e-05 -2.55170e-02 -1.37160e-01 -3.01330e-05 -1.64520e-03 -8.83300e-06 -3.88950e-05 -2.47240e-02 -1.32240e-01 -2.75040e-05 -1.35610e-03 -1.81780e-05 -3.75250e-05 -2.39080e-02 -1.27420e-01 -2.49520e-05 -1.06710e-03 -2.68400e-05 -3.65420e-05 -2.30740e-02 -1.03150e-01 3.09540e-03 6.62420e-03 -3.81680e-04 4.16620e-04 -1.13630e-02 -1.13910e-01 6.38820e-04 1.64960e-03 -1.07240e-04 5.47560e-05 -1.84540e-02 -1.13570e-01 -1.79090e-05 -2.09370e-04 -4.89120e-05 -3.55600e-05 -2.04890e-02 -1.09160e-01 -1.57450e-05 7.07970e-05 -5.50300e-05 -3.57870e-05 -1.96090e-02 -1.04850e-01 -1.36800e-05 3.46710e-04 -6.05600e-05 -3.62450e-05 -1.87250e-02 -1.00640e-01 -1.17020e-05 6.17560e-04 -6.55220e-05 -3.69060e-05 -1.78380e-02 -9.65240e-02 -9.81600e-06 8.82530e-04 -6.99350e-05 -3.77470e-05 -1.69520e-02 -9.25060e-02 -8.01540e-06 1.14080e-03 -7.38190e-05 -3.87450e-05 -1.60690e-02 -8.85830e-02 -6.30240e-06 1.39170e-03 -7.71940e-05 -3.98760e-05 -1.51910e-02 -8.65460e-02 -3.24310e-04 6.85690e-04 -1.25920e-04 -7.78330e-06 -1.55350e-02 -8.56590e-02 -8.00730e-04 -1.12400e-03 -1.93870e-04 3.19160e-05 -1.71510e-02 -7.73770e-02 -1.65520e-06 2.09230e-03 -8.44550e-05 -4.38740e-05 -1.26060e-02 -7.38260e-02 -2.64780e-07 2.30610e-03 -8.59840e-05 -4.53470e-05 -1.17670e-02 -7.03660e-02 1.05140e-06 2.50900e-03 -8.70990e-05 -4.68620e-05 -1.09430e-02 -6.69960e-02 2.29410e-06 2.70030e-03 -8.78170e-05 -4.84050e-05 -1.01340e-02 -6.37140e-02 3.46630e-06 2.87940e-03 -8.81570e-05 -4.99610e-05 -9.34340e-03 -6.25720e-02 -4.09780e-04 2.85200e-03 -2.32850e-05 -1.07510e-04 -9.10580e-03 -4.91830e-02 1.41990e-03 7.47680e-03 -4.88080e-05 -3.61640e-05 -2.17820e-03 -4.71420e-02 1.33400e-03 6.70370e-03 -5.56410e-05 -4.06540e-05 -2.55230e-03 -4.46930e-02 1.25270e-03 6.65930e-03 -5.52230e-05 -4.30760e-05 -2.08090e-03 -4.23110e-02 1.17390e-03 6.60260e-03 -5.45380e-05 -4.54260e-05 -1.62820e-03 -3.99970e-02 1.09760e-03 6.53340e-03 -5.36020e-05 -4.76980e-05 -1.19510e-03 -3.77490e-02 1.02370e-03 6.45170e-03 -5.24280e-05 -4.98830e-05 -7.82410e-04 -3.55670e-02 9.52370e-04 6.35730e-03 -5.10300e-05 -5.19750e-05 -3.91110e-04 -3.34520e-02 8.83490e-04 6.25010e-03 -4.94240e-05 -5.39670e-05 -2.19550e-05 -3.19250e-02 8.14610e-04 5.74280e-03 -5.45230e-05 -5.80200e-05 -1.83500e-04 -3.35980e-02 -6.91050e-06 3.84430e-03 -3.23280e-05 -8.13260e-05 -2.29370e-03 -3.19720e-02 -4.25070e-05 3.75040e-03 4.52950e-05 -1.13260e-04 -2.02010e-03 -2.88160e-02 1.33750e-05 3.89050e-03 -6.56320e-05 -6.64480e-05 -1.22450e-03 -2.67100e-02 1.38140e-05 3.85530e-03 -6.23550e-05 -6.71500e-05 -8.00680e-04 -2.16010e-02 5.25700e-04 5.53500e-03 -2.92870e-05 -6.12690e-05 2.00800e-03 -2.17160e-02 1.88380e-04 4.29800e-03 -4.48660e-05 -6.58150e-05 7.33080e-04 -2.08700e-02 1.49430e-05 3.64610e-03 -5.16180e-05 -6.85750e-05 2.73920e-04 -1.90840e-02 1.52720e-05 3.54160e-03 -4.77570e-05 -6.87970e-05 5.64870e-04 -1.73760e-02 1.55840e-05 3.41960e-03 -4.37530e-05 -6.88710e-05 8.21500e-04 -1.57480e-02 1.58910e-05 3.28010e-03 -3.95970e-05 -6.87750e-05 1.04350e-03 -1.47740e-02 -8.36390e-06 3.05040e-03 -4.35150e-05 -7.17620e-05 1.05220e-03 -1.27290e-02 1.65230e-05 2.94870e-03 -3.07330e-05 -6.79340e-05 1.38240e-03 -1.13380e-02 1.68750e-05 2.75700e-03 -2.59420e-05 -6.70810e-05 1.49920e-03 -1.00240e-02 1.72620e-05 2.54790e-03 -2.08270e-05 -6.58320e-05 1.58090e-03 -8.78780e-03 1.77020e-05 2.32170e-03 -1.52920e-05 -6.40800e-05 1.62800e-03 -7.62800e-03 1.81710e-05 2.07830e-03 -9.23100e-06 -6.16940e-05 1.64100e-03 -6.09490e-03 3.28560e-05 1.74560e-03 6.51570e-06 -5.42360e-05 1.63220e-03 -5.53090e-03 1.90020e-05 1.54120e-03 4.85910e-06 -5.45580e-05 1.57030e-03 -4.58800e-03 1.89840e-05 1.24820e-03 1.27740e-05 -4.98150e-05 1.49080e-03 -3.71020e-03 1.79810e-05 9.40130e-04 2.03880e-05 -4.48660e-05 1.38540e-03 -2.89260e-03 1.46530e-05 6.19610e-04 2.57670e-05 -4.12910e-05 1.25660e-03 -2.13010e-03 8.64690e-06 2.94670e-04 2.44630e-05 -4.28910e-05 1.10210e-03 -1.41970e-03 -4.96680e-06 -2.12150e-05 1.33500e-05 -5.59600e-05 9.11300e-04 -7.32060e-04 5.68670e-05 -2.31580e-04 1.71660e-05 -7.84330e-05 6.11810e-04 -3.97640e-04 1.18900e-04 -2.67400e-04 3.60900e-05 -9.96580e-05 3.79640e-04 -4.01630e-01 -1.63740e-01 -1.97750e-01 1.42380e-01 3.08040e-04 -7.00830e-02 -4.00160e-01 -5.14300e-02 -1.04340e-01 5.71440e-02 1.07300e-02 -3.80730e-02 -3.34140e-01 9.24660e-03 -7.89490e-03 -6.80400e-03 1.26620e-02 -5.21440e-04 -3.36910e-01 7.68640e-03 -8.65880e-03 -2.46690e-03 9.09020e-03 9.82780e-03 -3.33760e-01 1.01810e-02 -2.61450e-03 -4.42490e-03 6.28930e-03 1.27770e-02 -4.01540e-01 3.23040e-03 -8.84980e-03 -2.91900e-03 4.31100e-03 1.46530e-02 -3.97610e-01 3.41670e-06 -1.30440e-02 -2.14530e-03 3.76280e-03 7.16230e-03 -3.94880e-01 -6.00860e-04 -1.47900e-02 -8.71110e-04 3.07300e-03 7.35130e-03 -3.90950e-01 -1.87660e-04 -1.37660e-02 -8.62960e-04 2.43030e-03 6.27570e-03 -3.87230e-01 -2.68240e-04 -1.32720e-02 -2.27620e-04 2.02990e-03 4.29170e-03 -3.82430e-01 -1.83670e-04 -1.20930e-02 -7.96470e-05 1.69620e-03 1.73940e-03 -3.77010e-01 -1.55830e-04 -1.11570e-02 2.47600e-04 1.50460e-03 -1.10110e-03 -3.70850e-01 -1.64600e-04 -1.01890e-02 3.60790e-04 1.35350e-03 -4.03080e-03 -3.43340e-01 2.50860e-03 -8.42570e-03 4.94650e-04 1.34350e-03 -4.02460e-03 -2.95300e-01 7.41880e-03 -5.83310e-03 5.43650e-04 1.43060e-03 -6.14990e-04 -3.49530e-01 -1.22240e-04 -8.02540e-03 6.00000e-04 1.17680e-03 -1.22670e-02 -3.41920e-01 -1.45560e-04 -7.51610e-03 6.01340e-04 1.15030e-03 -1.46650e-02 -3.34170e-01 -1.22850e-04 -7.05480e-03 5.93420e-04 1.13530e-03 -1.68650e-02 -3.26400e-01 -1.38150e-04 -6.68100e-03 5.68530e-04 1.12120e-03 -1.88680e-02 -3.18600e-01 -1.21430e-04 -6.33450e-03 5.37430e-04 1.11040e-03 -2.06800e-02 -2.55120e-01 8.46030e-03 4.80600e-03 5.05230e-04 1.23980e-03 -2.87090e-03 -2.84640e-01 2.73240e-03 -2.16510e-03 4.65110e-04 1.13210e-03 -1.73180e-02 -2.95540e-01 -1.20440e-04 -5.54100e-03 4.22750e-04 1.07430e-03 -2.50620e-02 -2.87990e-01 -1.10520e-04 -5.31550e-03 3.82730e-04 1.06050e-03 -2.62010e-02 -2.80540e-01 -1.10750e-04 -5.11300e-03 3.44480e-04 1.04560e-03 -2.71930e-02 -2.73170e-01 -1.02740e-04 -4.91460e-03 3.06640e-04 1.02950e-03 -2.80470e-02 -2.64810e-01 -1.32800e-06 -2.19260e-03 2.76070e-04 1.00570e-03 -2.49670e-02 -2.58740e-01 -9.44500e-05 -4.54410e-03 2.36480e-04 9.94450e-04 -2.93660e-02 -2.51680e-01 -9.18010e-05 -4.36510e-03 2.04120e-04 9.75690e-04 -2.98440e-02 -2.44720e-01 -8.61070e-05 -4.18420e-03 1.72970e-04 9.55990e-04 -3.02100e-02 -2.37860e-01 -8.29480e-05 -4.00440e-03 1.43860e-04 9.35740e-04 -3.04710e-02 -2.31110e-01 -7.79710e-05 -3.82080e-03 1.16040e-04 9.14730e-04 -3.06300e-02 -2.24470e-01 -7.46060e-05 -3.63510e-03 9.00610e-05 8.93300e-04 -3.06960e-02 -2.17940e-01 -7.01750e-05 -3.44420e-03 6.53860e-05 8.71280e-04 -3.06720e-02 -2.11520e-01 -6.67790e-05 -3.24930e-03 4.23570e-05 8.48940e-04 -3.05640e-02 -2.05990e-01 -1.45700e-04 -5.40730e-03 1.22120e-05 8.32390e-04 -3.34430e-02 -1.99000e-01 -5.94510e-05 -2.84240e-03 3.64810e-07 8.03170e-04 -3.01190e-02 -1.82670e-01 1.62430e-03 -6.90360e-04 -1.76390e-05 8.10680e-04 -2.63940e-02 -1.56050e-01 5.01500e-03 5.68270e-03 -2.32080e-05 8.40730e-04 -1.64620e-02 -1.51480e-01 4.88070e-03 3.66610e-03 -4.75390e-05 8.20800e-04 -1.89190e-02 -1.75270e-01 -4.62030e-05 -1.96050e-03 -6.78900e-05 7.09220e-04 -2.84480e-02 -1.69610e-01 -4.31050e-05 -1.72650e-03 -8.19330e-05 6.85520e-04 -2.78950e-02 -1.64760e-01 -1.21050e-04 -3.58300e-03 -1.04430e-04 6.67240e-04 -2.98170e-02 -1.33230e-01 4.27790e-03 4.34330e-03 -9.93980e-05 7.14780e-04 -1.73960e-02 -1.53290e-01 -3.47000e-05 -9.98450e-04 -1.17350e-04 6.14680e-04 -2.59800e-02 -1.48060e-01 -3.20560e-05 -7.48870e-04 -1.27080e-04 5.91260e-04 -2.52700e-02 -1.42940e-01 -2.95590e-05 -4.96950e-04 -1.35820e-04 5.68020e-04 -2.45300e-02 -1.37920e-01 -2.71200e-05 -2.43350e-04 -1.43620e-04 5.44960e-04 -2.37630e-02 -1.33010e-01 -2.48060e-05 1.11330e-05 -1.50520e-04 5.22140e-04 -2.29740e-02 -1.28200e-01 -2.25600e-05 2.65780e-04 -1.56550e-04 4.99560e-04 -2.21660e-02 -1.23490e-01 -2.04230e-05 5.19750e-04 -1.61750e-04 4.77270e-04 -2.13410e-02 -1.18210e-01 5.47030e-05 2.42780e-03 -1.55630e-04 4.51330e-04 -1.86160e-02 -1.14380e-01 -1.63950e-05 1.02250e-03 -1.69800e-04 4.33610e-04 -1.96540e-02 -1.09970e-01 -1.45060e-05 1.26960e-03 -1.72720e-04 4.12300e-04 -1.87980e-02 -1.05660e-01 -1.27050e-05 1.51280e-03 -1.74950e-04 3.91350e-04 -1.79360e-02 -1.01450e-01 -1.09800e-05 1.75130e-03 -1.76530e-04 3.70780e-04 -1.70730e-02 -9.73370e-02 -9.33650e-06 1.98420e-03 -1.77490e-04 3.50620e-04 -1.62090e-02 -9.33170e-02 -7.76640e-06 2.21080e-03 -1.77850e-04 3.30880e-04 -1.53470e-02 -8.93920e-02 -6.27250e-06 2.43030e-03 -1.77660e-04 3.11560e-04 -1.44900e-02 -8.98470e-02 -7.52310e-04 6.05780e-04 -1.87440e-04 2.82060e-04 -1.63780e-02 -9.46520e-02 -2.26890e-03 -3.22250e-03 -2.09480e-04 2.42090e-04 -2.09060e-02 -7.81690e-02 -2.20900e-06 3.03870e-03 -1.74030e-04 2.56310e-04 -1.19660e-02 -7.46110e-02 -9.88710e-07 3.22240e-03 -1.71900e-04 2.38830e-04 -1.11470e-02 -7.11420e-02 1.69320e-07 3.39550e-03 -1.69360e-04 2.21820e-04 -1.03420e-02 -6.77620e-02 1.26560e-06 3.55730e-03 -1.66440e-04 2.05310e-04 -9.55200e-03 -6.44690e-02 2.30330e-06 3.70720e-03 -1.63160e-04 1.89290e-04 -8.77980e-03 -6.05410e-02 5.86690e-05 4.71240e-03 -1.48830e-04 1.72460e-04 -7.01900e-03 -4.98710e-02 1.45830e-03 8.24840e-03 -1.24690e-04 1.79260e-04 -1.61160e-03 -4.78240e-02 1.37200e-03 7.45910e-03 -1.30140e-04 1.65410e-04 -1.99710e-03 -4.53620e-02 1.28810e-03 7.38650e-03 -1.25880e-04 1.50060e-04 -1.54540e-03 -4.29680e-02 1.20690e-03 7.30200e-03 -1.21420e-04 1.35260e-04 -1.11220e-03 -4.06400e-02 1.12820e-03 7.20540e-03 -1.16770e-04 1.21020e-04 -6.98330e-04 -3.83780e-02 1.05200e-03 7.09650e-03 -1.11950e-04 1.07340e-04 -3.04770e-04 -3.61820e-02 9.78500e-04 6.97510e-03 -1.06980e-04 9.42130e-05 6.76150e-05 -3.40510e-02 9.07550e-04 6.84120e-03 -1.01880e-04 8.16500e-05 4.18020e-04 -3.25150e-02 8.38090e-04 6.31870e-03 -1.05740e-04 7.03190e-05 2.45710e-04 -3.38640e-02 1.04180e-05 4.43540e-03 -1.10140e-04 4.68740e-05 -1.79520e-03 -3.22740e-02 -2.81890e-05 4.03810e-03 -1.14620e-04 3.65030e-05 -1.82420e-03 -2.93710e-02 1.13640e-05 4.36440e-03 -9.84460e-05 2.77500e-05 -8.86050e-04 -2.72450e-02 1.17900e-05 4.30380e-03 -9.24920e-05 1.89700e-05 -4.78870e-04 -2.20900e-02 5.38250e-04 5.96030e-03 -6.08570e-05 1.81500e-05 2.33020e-03 -2.22040e-02 1.91150e-04 4.69700e-03 -7.11710e-05 5.76820e-06 1.02720e-03 -2.13480e-02 1.29020e-05 4.01940e-03 -7.43780e-05 -4.24590e-06 5.45930e-04 -1.95410e-02 1.32280e-05 3.89020e-03 -6.82960e-05 -1.09410e-05 8.20240e-04 -1.78140e-02 1.35350e-05 3.74380e-03 -6.22040e-05 -1.71090e-05 1.06020e-03 -1.61650e-02 1.38300e-05 3.58000e-03 -5.61040e-05 -2.27390e-05 1.26540e-03 -1.51790e-02 -1.02280e-05 3.33630e-03 -5.99070e-05 -2.98800e-05 1.26450e-03 -1.31050e-02 1.43930e-05 3.20070e-03 -4.38530e-05 -3.23260e-05 1.57060e-03 -1.16920e-02 1.46620e-05 2.98530e-03 -3.76670e-05 -3.62270e-05 1.67040e-03 -1.03570e-02 1.49360e-05 2.75280e-03 -3.13810e-05 -3.94650e-05 1.73510e-03 -9.09910e-03 1.51730e-05 2.50340e-03 -2.49610e-05 -4.19880e-05 1.76540e-03 -7.91670e-03 1.53950e-05 2.23740e-03 -1.82830e-05 -4.36860e-05 1.76200e-03 -6.34950e-03 2.91960e-05 1.87310e-03 -1.22200e-06 -4.09970e-05 1.73140e-03 -5.77010e-03 1.53370e-05 1.65690e-03 -3.92260e-06 -4.42780e-05 1.66170e-03 -4.79850e-03 1.44520e-05 1.34350e-03 3.60810e-06 -4.31500e-05 1.57090e-03 -3.88680e-03 1.30030e-05 1.01750e-03 1.12460e-05 -4.11500e-05 1.45870e-03 -3.03040e-03 8.39470e-06 6.80050e-04 1.62530e-05 -3.98590e-05 1.32960e-03 -2.22240e-03 3.57240e-06 3.42590e-04 1.69340e-05 -4.12250e-05 1.18120e-03 -1.47990e-03 -1.25990e-05 5.63370e-06 9.81840e-08 -5.51650e-05 9.95930e-04 -7.76790e-04 2.31790e-05 -2.49980e-04 -5.41000e-06 -7.94800e-05 6.90110e-04 -4.39230e-04 6.76510e-05 -3.10590e-04 1.08220e-05 -1.01510e-04 4.45590e-04 -7.55500e-01 -3.25690e-01 -3.80900e-01 -2.09030e-01 -5.72730e-04 -2.07800e-02 -7.20750e-01 -1.04480e-01 -1.65180e-01 -7.70700e-02 -3.75830e-03 -1.38550e-02 -6.06950e-01 2.69220e-03 1.07900e-02 1.46870e-02 -3.68100e-03 -1.50120e-02 -6.01610e-01 -5.25970e-03 -7.70780e-03 2.77170e-03 -4.64900e-03 -2.26900e-02 -5.84810e-01 9.76650e-04 -1.96430e-03 6.53860e-03 -5.32490e-03 -1.92400e-02 -5.79080e-01 6.32730e-03 -4.64440e-03 4.47090e-03 -4.24180e-03 -9.74300e-03 -5.76090e-01 4.19760e-04 -1.02280e-02 3.38650e-03 -3.89650e-03 -1.62970e-02 -5.72700e-01 -1.50190e-04 -1.25480e-02 1.79500e-03 -3.14960e-03 -1.80040e-02 -5.66610e-01 4.46230e-04 -1.17130e-02 1.52780e-03 -2.59850e-03 -2.11490e-02 -5.60140e-01 1.83430e-04 -1.21730e-02 6.86590e-04 -2.19800e-03 -2.51560e-02 -5.51690e-01 4.60680e-04 -1.16080e-02 3.87920e-04 -1.92800e-03 -2.95270e-02 -5.42590e-01 2.95660e-04 -1.17350e-02 -3.75980e-05 -1.75110e-03 -3.39520e-02 -5.32310e-01 4.29700e-04 -1.15130e-02 -2.11360e-04 -1.63530e-03 -3.82320e-02 -5.21650e-01 3.18620e-04 -1.16830e-02 -3.96250e-04 -1.56180e-03 -4.22620e-02 -5.10400e-01 3.84450e-04 -1.17200e-02 -4.60140e-04 -1.51190e-03 -4.59850e-02 -5.02520e-01 -1.11630e-04 -1.42960e-02 -4.93830e-04 -1.49800e-03 -5.35580e-02 -4.87390e-01 3.42400e-04 -1.21730e-02 -5.13540e-04 -1.45130e-03 -5.24540e-02 -4.75780e-01 2.92810e-04 -1.24890e-02 -5.05930e-04 -1.42940e-03 -5.52090e-02 -4.60900e-01 3.40750e-04 -1.06760e-02 -4.97630e-04 -1.39830e-03 -5.34320e-02 -4.52590e-01 2.75120e-04 -1.31030e-02 -4.37440e-04 -1.38780e-03 -5.98270e-02 -4.41100e-01 2.81660e-04 -1.34090e-02 -3.91680e-04 -1.36610e-03 -6.17230e-02 -4.29750e-01 2.58900e-04 -1.37400e-02 -3.48220e-04 -1.34410e-03 -6.33640e-02 -4.18500e-01 2.60430e-04 -1.40400e-02 -3.00680e-04 -1.32040e-03 -6.47630e-02 -4.07400e-01 2.44210e-04 -1.43430e-02 -2.56530e-04 -1.29620e-03 -6.59360e-02 -3.96440e-01 2.42840e-04 -1.46140e-02 -2.11560e-04 -1.27060e-03 -6.68930e-02 -3.85640e-01 2.30680e-04 -1.48720e-02 -1.70060e-04 -1.24450e-03 -6.76470e-02 -3.72340e-01 3.60630e-04 -1.27280e-02 -1.37150e-04 -1.20610e-03 -6.43760e-02 -3.64480e-01 2.18020e-04 -1.53000e-02 -9.14110e-05 -1.18980e-03 -6.85870e-02 -3.54150e-01 2.14000e-04 -1.54670e-02 -5.48590e-05 -1.16150e-03 -6.87930e-02 -3.43970e-01 2.06010e-04 -1.56070e-02 -2.10700e-05 -1.13290e-03 -6.88370e-02 -3.33960e-01 2.01490e-04 -1.57100e-02 1.12980e-05 -1.10370e-03 -6.87270e-02 -3.24120e-01 1.94580e-04 -1.57810e-02 4.12650e-05 -1.07440e-03 -6.84730e-02 -3.14440e-01 1.89840e-04 -1.58150e-02 6.97360e-05 -1.04470e-03 -6.80830e-02 -3.07140e-01 3.81780e-05 -1.81880e-02 1.05870e-04 -1.02490e-03 -7.09670e-02 -2.95590e-01 1.78890e-04 -1.57800e-02 1.20960e-04 -9.84870e-04 -6.69300e-02 -2.86410e-01 1.73280e-04 -1.57100e-02 1.43940e-04 -9.54850e-04 -6.61840e-02 -2.77410e-01 1.68550e-04 -1.56050e-02 1.65450e-04 -9.24730e-04 -6.53350e-02 -2.68570e-01 1.63370e-04 -1.54660e-02 1.85260e-04 -8.94690e-04 -6.43910e-02 -2.59900e-01 1.58760e-04 -1.52950e-02 2.03640e-04 -8.64680e-04 -6.33590e-02 -2.51400e-01 1.53920e-04 -1.50910e-02 2.20470e-04 -8.34810e-04 -6.22460e-02 -2.44970e-01 1.72850e-05 -1.70720e-02 2.48280e-04 -8.13000e-04 -6.40020e-02 -2.34900e-01 1.44910e-04 -1.45930e-02 2.49990e-04 -7.75560e-04 -5.98050e-02 -2.26900e-01 1.40630e-04 -1.43010e-02 2.62740e-04 -7.46260e-04 -5.84900e-02 -2.19060e-01 1.36320e-04 -1.39830e-02 2.74180e-04 -7.17250e-04 -5.71200e-02 -2.11380e-01 1.32210e-04 -1.36400e-02 2.84400e-04 -6.88530e-04 -5.57020e-02 -2.03870e-01 1.28120e-04 -1.32740e-02 2.93410e-04 -6.60160e-04 -5.42390e-02 -1.96510e-01 1.24180e-04 -1.28860e-02 3.01300e-04 -6.32150e-04 -5.27390e-02 -1.89320e-01 1.20290e-04 -1.24790e-02 3.08060e-04 -6.04530e-04 -5.12060e-02 -1.82280e-01 1.16520e-04 -1.20540e-02 3.13780e-04 -5.77320e-04 -4.96460e-02 -1.75390e-01 1.12810e-04 -1.16140e-02 3.18470e-04 -5.50560e-04 -4.80620e-02 -1.67050e-01 2.25320e-04 -9.33280e-03 3.07990e-04 -5.19330e-04 -4.41830e-02 -1.62080e-01 1.05660e-04 -1.06920e-02 3.24990e-04 -4.98440e-04 -4.48430e-02 -1.55660e-01 1.02210e-04 -1.02140e-02 3.26890e-04 -4.73120e-04 -4.32170e-02 -1.49380e-01 9.88210e-05 -9.72810e-03 3.27950e-04 -4.48320e-04 -4.15850e-02 -1.43250e-01 9.55210e-05 -9.23550e-03 3.28200e-04 -4.24040e-04 -3.99510e-02 -1.37260e-01 9.22870e-05 -8.73800e-03 3.27670e-04 -4.00310e-04 -3.83180e-02 -1.31420e-01 8.91320e-05 -8.23730e-03 3.26410e-04 -3.77140e-04 -3.66900e-02 -1.27200e-01 -1.67450e-05 -9.21940e-03 3.39340e-04 -3.57460e-04 -3.68980e-02 -1.20160e-01 8.30300e-05 -7.23350e-03 3.21860e-04 -3.32510e-04 -3.34610e-02 -1.14740e-01 8.00830e-05 -6.73370e-03 3.18620e-04 -3.11070e-04 -3.18670e-02 -1.09460e-01 7.72070e-05 -6.23740e-03 3.14810e-04 -2.90220e-04 -3.02900e-02 -1.04320e-01 7.43990e-05 -5.74620e-03 3.10440e-04 -2.69980e-04 -2.87320e-02 -9.93070e-02 7.16600e-05 -5.26160e-03 3.05540e-04 -2.50340e-04 -2.71970e-02 -9.30580e-02 1.59280e-04 -3.60920e-03 2.85030e-04 -2.30000e-04 -2.42230e-02 -8.96880e-02 6.63820e-05 -4.31780e-03 2.94330e-04 -2.12910e-04 -2.42030e-02 -8.50760e-02 6.38440e-05 -3.86120e-03 2.88060e-04 -1.95120e-04 -2.27490e-02 -8.05950e-02 6.13740e-05 -3.41660e-03 2.81400e-04 -1.77950e-04 -2.13260e-02 -7.62420e-02 5.89700e-05 -2.98520e-03 2.74370e-04 -1.61420e-04 -1.99360e-02 -7.20170e-02 5.66330e-05 -2.56800e-03 2.67000e-04 -1.45500e-04 -1.85810e-02 -6.79190e-02 5.43620e-05 -2.16610e-03 2.59310e-04 -1.30220e-04 -1.72620e-02 -6.39480e-02 5.21580e-05 -1.78060e-03 2.51340e-04 -1.15570e-04 -1.59820e-02 -6.01010e-02 5.00230e-05 -1.41230e-03 2.43110e-04 -1.01540e-04 -1.47410e-02 -5.63790e-02 4.79530e-05 -1.06220e-03 2.34640e-04 -8.81490e-05 -1.35420e-02 -5.27800e-02 4.59520e-05 -7.31110e-04 2.25950e-04 -7.53840e-05 -1.23860e-02 -4.93040e-02 4.40190e-05 -4.19740e-04 2.17080e-04 -6.32470e-05 -1.12730e-02 -4.70840e-02 -2.08360e-05 -7.18470e-04 2.23110e-04 -5.01820e-05 -1.10140e-02 -4.27180e-02 4.03600e-05 1.41030e-04 1.98840e-04 -4.08510e-05 -9.18270e-03 -3.96070e-02 3.86340e-05 3.89200e-04 1.89530e-04 -3.05880e-05 -8.20780e-03 -3.66170e-02 3.69790e-05 6.15160e-04 1.80120e-04 -2.09460e-05 -7.28080e-03 -3.37460e-02 3.53950e-05 8.18430e-04 1.70610e-04 -1.19220e-05 -6.40270e-03 -2.99950e-02 8.47660e-05 1.37640e-03 1.46130e-04 -6.13590e-06 -5.00400e-03 -2.83640e-02 3.24470e-05 1.15520e-03 1.51420e-04 4.27840e-06 -4.79600e-03 -2.58510e-02 3.10860e-05 1.28800e-03 1.41760e-04 1.14570e-05 -4.06890e-03 -2.34580e-02 2.98040e-05 1.39660e-03 1.32070e-04 1.80210e-05 -3.39340e-03 -2.11830e-02 2.86020e-05 1.48090e-03 1.22360e-04 2.39660e-05 -2.77000e-03 -1.90260e-02 2.74880e-05 1.54050e-03 1.12620e-04 2.92840e-05 -2.19930e-03 -1.69870e-02 2.64640e-05 1.57540e-03 1.02850e-04 3.39610e-05 -1.68160e-03 -1.50650e-02 2.55350e-05 1.58540e-03 9.30000e-05 3.79710e-05 -1.21710e-03 -1.32610e-02 2.47000e-05 1.57030e-03 8.30570e-05 4.12870e-05 -8.06150e-04 -1.22650e-02 -4.44960e-06 1.46200e-03 8.79410e-05 4.85320e-05 -6.47930e-04 -1.00000e-02 2.33210e-05 1.46450e-03 6.25500e-05 4.56120e-05 -1.44370e-04 -8.54200e-03 2.27680e-05 1.37350e-03 5.17460e-05 4.64720e-05 1.07080e-04 -7.19510e-03 2.21470e-05 1.25640e-03 4.04760e-05 4.63890e-05 3.06530e-04 -5.95620e-03 2.15190e-05 1.11290e-03 2.84420e-05 4.52180e-05 4.55250e-04 -4.32590e-03 3.45790e-05 8.80950e-04 1.17440e-06 3.72720e-05 5.93050e-04 -3.77980e-03 1.84170e-05 7.42600e-04 3.03460e-06 3.98870e-05 6.08390e-04 -2.82840e-03 1.31890e-05 5.14350e-04 -7.47700e-06 3.66670e-05 6.18040e-04 -1.95750e-03 7.44560e-06 2.68710e-04 -1.31630e-05 3.37460e-05 5.84190e-04 -1.18830e-03 -1.20270e-05 1.41500e-05 2.92610e-06 3.77050e-05 5.01440e-04 -5.30540e-04 2.12230e-05 -1.20150e-04 1.89080e-05 3.97970e-05 3.24870e-04 -2.49630e-04 6.56620e-05 -9.09560e-05 1.56090e-05 3.86020e-05 1.64760e-04 -6.56590e-01 -3.52840e-01 -3.78600e-01 -1.50070e-01 -1.33730e-03 4.98420e-03 -7.02160e-01 -1.72210e-01 -2.00560e-01 -8.45330e-02 -2.62890e-03 1.04950e-02 -6.70570e-01 -1.69700e-02 -1.34130e-02 -9.78760e-03 -3.37340e-03 2.49550e-03 -6.31860e-01 -1.26770e-03 -2.26460e-03 3.26910e-03 -3.35380e-03 -1.19190e-02 -6.13370e-01 -1.30320e-03 -7.95130e-03 4.21250e-03 -4.12110e-03 -1.32000e-02 -5.97160e-01 6.40180e-04 -1.15010e-02 4.77090e-03 -2.84600e-03 -8.35670e-03 -5.92260e-01 2.47660e-04 -1.38260e-02 4.22450e-03 -2.29810e-03 -1.57800e-02 -5.84130e-01 6.10920e-04 -1.45540e-02 3.60570e-03 -1.27720e-03 -1.87390e-02 -5.75630e-01 5.83690e-04 -1.49580e-02 2.77030e-03 -5.38480e-04 -2.25780e-02 -5.66640e-01 5.05200e-04 -1.49250e-02 2.02070e-03 2.34600e-05 -2.69260e-02 -5.56740e-01 5.40360e-04 -1.47580e-02 1.33570e-03 3.81380e-04 -3.14390e-02 -5.46380e-01 3.75960e-04 -1.46920e-02 7.92340e-04 6.12290e-04 -3.59040e-02 -5.35350e-01 4.05120e-04 -1.45730e-02 3.63590e-04 7.39160e-04 -4.01710e-02 -5.24070e-01 2.64310e-04 -1.46410e-02 5.40820e-05 8.03330e-04 -4.41670e-02 -5.12440e-01 2.84280e-04 -1.46810e-02 -1.65700e-04 8.22700e-04 -4.78490e-02 -5.04360e-01 -2.04220e-04 -1.71760e-02 -2.44920e-04 8.15470e-04 -5.53990e-02 -4.88920e-01 2.00060e-04 -1.50390e-02 -3.96480e-04 7.94430e-04 -5.42390e-02 -4.77150e-01 1.37260e-04 -1.53030e-02 -4.42190e-04 7.64110e-04 -5.69580e-02 -4.62070e-01 1.96750e-04 -1.34320e-02 -4.82930e-04 7.22680e-04 -5.51390e-02 -4.53710e-01 1.07360e-04 -1.58380e-02 -4.56120e-04 6.93900e-04 -6.15110e-02 -4.42120e-01 1.12940e-04 -1.61070e-02 -4.39990e-04 6.58470e-04 -6.33750e-02 -4.30670e-01 8.83350e-05 -1.63970e-02 -4.15690e-04 6.24160e-04 -6.49840e-02 -4.19330e-01 9.09900e-05 -1.66590e-02 -3.86590e-04 5.91460e-04 -6.63530e-02 -4.08140e-01 7.49950e-05 -1.69220e-02 -3.55160e-04 5.60410e-04 -6.74930e-02 -3.97100e-01 7.54830e-05 -1.71540e-02 -3.22710e-04 5.31180e-04 -6.84180e-02 -3.86210e-01 6.45510e-05 -1.73730e-02 -2.90440e-04 5.03580e-04 -6.91380e-02 -3.72800e-01 2.06700e-04 -1.51730e-02 -2.62540e-04 4.72250e-04 -6.58220e-02 -3.64900e-01 5.57130e-05 -1.77210e-02 -2.28010e-04 4.53270e-04 -7.00110e-02 -3.54490e-01 5.39050e-05 -1.78480e-02 -1.98360e-04 4.30400e-04 -7.01830e-02 -3.44240e-01 4.79680e-05 -1.79460e-02 -1.70000e-04 4.08860e-04 -7.01930e-02 -3.34160e-01 4.57650e-05 -1.80080e-02 -1.42780e-04 3.88710e-04 -7.00490e-02 -3.24260e-01 4.11460e-05 -1.80370e-02 -1.16820e-04 3.69770e-04 -6.97620e-02 -3.14520e-01 3.88590e-05 -1.80300e-02 -9.19670e-05 3.52080e-04 -6.93390e-02 -3.07180e-01 -1.17030e-04 -2.03770e-02 -6.20450e-05 3.40180e-04 -7.22030e-02 -2.95550e-01 3.30220e-05 -1.79100e-02 -4.56970e-05 3.20020e-04 -6.81210e-02 -2.86320e-01 3.00960e-05 -1.77980e-02 -2.41980e-05 3.05550e-04 -6.73430e-02 -2.77270e-01 2.81420e-05 -1.76500e-02 -3.71820e-06 2.92080e-04 -6.64630e-02 -2.68390e-01 2.58050e-05 -1.74690e-02 1.57160e-05 2.79510e-04 -6.54880e-02 -2.59670e-01 2.41210e-05 -1.72550e-02 3.41660e-05 2.67830e-04 -6.44260e-02 -2.51130e-01 2.22690e-05 -1.70090e-02 5.16160e-05 2.56950e-04 -6.32840e-02 -2.44680e-01 -1.17620e-04 -1.89650e-02 7.63920e-05 2.51320e-04 -6.50230e-02 -2.34560e-01 1.94210e-05 -1.64260e-02 8.36430e-05 2.37470e-04 -6.07860e-02 -2.26520e-01 1.82960e-05 -1.60920e-02 9.82490e-05 2.28760e-04 -5.94440e-02 -2.18650e-01 1.71910e-05 -1.57310e-02 1.11930e-04 2.20680e-04 -5.80470e-02 -2.10950e-01 1.63220e-05 -1.53460e-02 1.24710e-04 2.13200e-04 -5.66020e-02 -2.03400e-01 1.55040e-05 -1.49380e-02 1.36600e-04 2.06250e-04 -5.51140e-02 -1.96030e-01 1.48660e-05 -1.45090e-02 1.47630e-04 1.99810e-04 -5.35890e-02 -1.88810e-01 1.42920e-05 -1.40610e-02 1.57810e-04 1.93840e-04 -5.20320e-02 -1.81750e-01 1.38570e-05 -1.35950e-02 1.67150e-04 1.88300e-04 -5.04480e-02 -1.74840e-01 1.34890e-05 -1.31130e-02 1.75680e-04 1.83160e-04 -4.88410e-02 -1.66470e-01 1.34140e-04 -1.07750e-02 1.73250e-04 1.73840e-04 -4.49300e-02 -1.61500e-01 1.30330e-05 -1.21110e-02 1.90390e-04 1.73950e-04 -4.55780e-02 -1.55060e-01 1.29240e-05 -1.15930e-02 1.96600e-04 1.69810e-04 -4.39300e-02 -1.48770e-01 1.28710e-05 -1.10680e-02 2.02080e-04 1.65960e-04 -4.22770e-02 -1.42630e-01 1.28890e-05 -1.05360e-02 2.06860e-04 1.62360e-04 -4.06230e-02 -1.36640e-01 1.29560e-05 -9.99980e-03 2.10940e-04 1.58980e-04 -3.89700e-02 -1.30790e-01 1.30780e-05 -9.46070e-03 2.14350e-04 1.55810e-04 -3.73220e-02 -1.26560e-01 -9.34370e-05 -1.04210e-02 2.28160e-04 1.57550e-04 -3.75200e-02 -1.19520e-01 1.34510e-05 -8.38110e-03 2.19250e-04 1.49990e-04 -3.40560e-02 -1.14100e-01 1.36950e-05 -7.84400e-03 2.20780e-04 1.47310e-04 -3.24440e-02 -1.08810e-01 1.39710e-05 -7.31080e-03 2.21730e-04 1.44750e-04 -3.08490e-02 -1.03670e-01 1.42760e-05 -6.78320e-03 2.22110e-04 1.42290e-04 -2.92740e-02 -9.86600e-02 1.46060e-05 -6.26250e-03 2.21940e-04 1.39920e-04 -2.77220e-02 -9.24130e-02 1.08450e-04 -4.55930e-03 2.09680e-04 1.32710e-04 -2.47230e-02 -8.90450e-02 1.53260e-05 -5.24770e-03 2.20070e-04 1.35400e-04 -2.46950e-02 -8.44370e-02 1.57100e-05 -4.75630e-03 2.18390e-04 1.33220e-04 -2.32240e-02 -7.99600e-02 1.61070e-05 -4.27730e-03 2.16250e-04 1.31070e-04 -2.17850e-02 -7.56120e-02 1.65120e-05 -3.81180e-03 2.13660e-04 1.28950e-04 -2.03790e-02 -7.13940e-02 1.69250e-05 -3.36100e-03 2.10650e-04 1.26840e-04 -1.90090e-02 -6.73030e-02 1.73420e-05 -2.92600e-03 2.07230e-04 1.24730e-04 -1.76750e-02 -6.33390e-02 1.77610e-05 -2.50770e-03 2.03420e-04 1.22610e-04 -1.63800e-02 -5.95010e-02 1.81820e-05 -2.10720e-03 1.99240e-04 1.20480e-04 -1.51240e-02 -5.57880e-02 1.86000e-05 -1.72520e-03 1.94700e-04 1.18330e-04 -1.39100e-02 -5.22000e-02 1.90160e-05 -1.36260e-03 1.89820e-04 1.16140e-04 -1.27390e-02 -4.87340e-02 1.94280e-05 -1.02020e-03 1.84630e-04 1.13920e-04 -1.16110e-02 -4.65210e-02 -4.51440e-05 -1.30130e-03 1.91340e-04 1.16950e-04 -1.13440e-02 -4.21720e-02 2.02330e-05 -3.98660e-04 1.73350e-04 1.09350e-04 -9.49230e-03 -3.90730e-02 2.06230e-05 -1.20740e-04 1.67290e-04 1.06990e-04 -8.50290e-03 -3.60950e-02 2.10050e-05 1.34560e-04 1.60980e-04 1.04570e-04 -7.56150e-03 -3.32380e-02 2.13780e-05 3.66730e-04 1.54430e-04 1.02100e-04 -6.66890e-03 -2.95060e-02 7.41720e-05 9.65290e-04 1.35290e-04 9.41320e-05 -5.24940e-03 -2.78840e-02 2.20980e-05 7.60070e-04 1.40640e-04 9.69420e-05 -5.03330e-03 -2.53860e-02 2.24490e-05 9.20510e-04 1.33420e-04 9.42520e-05 -4.29170e-03 -2.30080e-02 2.27970e-05 1.05640e-03 1.25980e-04 9.14730e-05 -3.60160e-03 -2.07480e-02 2.31490e-05 1.16750e-03 1.18310e-04 8.85900e-05 -2.96350e-03 -1.86070e-02 2.35120e-05 1.25350e-03 1.10400e-04 8.55800e-05 -2.37800e-03 -1.65840e-02 2.39020e-05 1.31440e-03 1.02210e-04 8.24070e-05 -1.84540e-03 -1.46790e-02 2.43240e-05 1.34990e-03 9.36840e-05 7.90230e-05 -1.36590e-03 -1.28910e-02 2.48130e-05 1.35990e-03 8.47380e-05 7.53590e-05 -9.39850e-04 -1.19050e-02 -3.90230e-06 1.26590e-03 8.85020e-05 7.73940e-05 -7.73100e-04 -9.66720e-03 2.60470e-05 1.30300e-03 6.50940e-05 6.68150e-05 -2.47990e-04 -8.22830e-03 2.68160e-05 1.23550e-03 5.40720e-05 6.17050e-05 1.80990e-05 -6.90290e-03 2.77000e-05 1.14140e-03 4.20170e-05 5.58830e-05 2.31470e-04 -5.68840e-03 2.85390e-05 1.02000e-03 2.88240e-05 4.93090e-05 3.92790e-04 -4.10100e-03 4.49530e-05 8.19170e-04 6.34210e-07 3.53130e-05 5.44410e-04 -3.57750e-03 2.85880e-05 6.91500e-04 3.35900e-07 3.46500e-05 5.62920e-04 -2.67120e-03 2.51050e-05 4.83570e-04 -1.18010e-05 2.80010e-05 5.74000e-04 -1.85760e-03 1.77400e-05 2.54410e-04 -1.62930e-05 2.43770e-05 5.36110e-04 -1.13670e-03 -1.97940e-06 2.20670e-05 -6.21620e-06 2.64800e-05 4.49380e-04 -5.03710e-04 5.27700e-05 -7.55500e-05 -7.98240e-07 2.88870e-05 2.74240e-04 -2.27350e-04 1.11940e-04 -2.82200e-05 -8.23830e-06 3.07580e-05 1.21560e-04 -6.29460e-01 -3.92690e-01 -3.88570e-01 -9.49400e-02 -2.38030e-03 2.97600e-02 -6.92670e-01 -2.58170e-01 -2.38950e-01 -7.24410e-02 -3.66460e-03 3.39730e-02 -7.15120e-01 -7.13010e-02 -5.00240e-02 -3.07260e-02 -4.32260e-03 2.03400e-02 -6.75040e-01 -1.21060e-02 -4.82770e-03 -5.49220e-03 -4.16880e-03 -1.42150e-03 -6.48820e-01 -8.26530e-03 -1.21280e-02 1.22380e-03 -4.31070e-03 -6.56650e-03 -6.22580e-01 -6.59410e-04 -1.26010e-02 6.45690e-03 -3.20580e-03 -5.78230e-03 -6.15420e-01 -1.72170e-03 -1.66730e-02 5.01980e-03 -2.50710e-03 -1.40700e-02 -6.02710e-01 -9.17150e-04 -1.77340e-02 4.95040e-03 -1.36780e-03 -1.85320e-02 -5.90150e-01 -1.27500e-04 -1.78610e-02 4.44640e-03 -3.80810e-04 -2.34450e-02 -5.78140e-01 -1.89230e-04 -1.80490e-02 3.70200e-03 3.56630e-04 -2.84120e-02 -5.65790e-01 1.23850e-04 -1.77470e-02 2.95040e-03 8.79810e-04 -3.33180e-02 -5.53640e-01 -1.23030e-04 -1.77720e-02 2.25990e-03 1.22460e-03 -3.79790e-02 -5.41250e-01 -3.37760e-05 -1.75840e-02 1.68280e-03 1.43360e-03 -4.23550e-02 -5.29010e-01 -2.57540e-04 -1.76720e-02 1.22700e-03 1.55100e-03 -4.63870e-02 -5.16650e-01 -2.39280e-04 -1.76630e-02 8.80400e-04 1.60010e-03 -5.00790e-02 -5.08260e-01 -8.33370e-04 -2.01990e-02 7.14110e-04 1.60490e-03 -5.76070e-02 -4.92210e-01 -3.86460e-04 -1.79640e-02 4.56850e-04 1.59030e-03 -5.64360e-02 -4.80130e-01 -4.77060e-04 -1.81980e-02 3.43100e-04 1.55700e-03 -5.91290e-02 -4.46410e-01 2.26370e-03 -1.38710e-02 -6.16530e-05 1.80080e-03 -5.16780e-02 -4.47940e-01 6.82670e-04 -1.72600e-02 1.00680e-04 1.59050e-03 -6.06400e-02 -4.44460e-01 -5.02060e-04 -1.88800e-02 2.10560e-04 1.41500e-03 -6.54600e-02 -4.32840e-01 -5.23390e-04 -1.91300e-02 2.06050e-04 1.36570e-03 -6.70380e-02 -4.21350e-01 -5.08650e-04 -1.93500e-02 2.09560e-04 1.31630e-03 -6.83740e-02 -4.10020e-01 -5.15270e-04 -1.95710e-02 2.19370e-04 1.26900e-03 -6.94800e-02 -3.98840e-01 -5.00650e-04 -1.97590e-02 2.31550e-04 1.22260e-03 -7.03700e-02 -3.87820e-01 -4.99330e-04 -1.99350e-02 2.45680e-04 1.17840e-03 -7.10540e-02 -3.74220e-01 -3.28210e-04 -1.76730e-02 2.54830e-04 1.12460e-03 -6.76850e-02 -3.66250e-01 -4.80000e-04 -2.01940e-02 2.74130e-04 1.09440e-03 -7.18520e-02 -3.55720e-01 -4.67090e-04 -2.02770e-02 2.87670e-04 1.05470e-03 -7.19850e-02 -3.45360e-01 -4.59270e-04 -2.03300e-02 3.00730e-04 1.01670e-03 -7.19560e-02 -3.35170e-01 -4.47030e-04 -2.03470e-02 3.12880e-04 9.79980e-04 -7.17730e-02 -3.25160e-01 -4.37880e-04 -2.03310e-02 3.24390e-04 9.44860e-04 -7.14450e-02 -3.15320e-01 -4.26060e-04 -2.02780e-02 3.35060e-04 9.11010e-04 -7.09820e-02 -3.07930e-01 -5.82340e-04 -2.26000e-02 3.51760e-04 8.88000e-04 -7.38230e-02 -2.96160e-01 -4.04460e-04 -2.00680e-02 3.54360e-04 8.47370e-04 -6.96850e-02 -2.86840e-01 -3.93930e-04 -1.99100e-02 3.63020e-04 8.17460e-04 -6.88670e-02 -2.77710e-01 -3.82390e-04 -1.97170e-02 3.71010e-04 7.88700e-04 -6.79480e-02 -2.68740e-01 -3.71490e-04 -1.94910e-02 3.78400e-04 7.61130e-04 -6.69340e-02 -2.59950e-01 -3.59960e-04 -1.92320e-02 3.85160e-04 7.34650e-04 -6.58340e-02 -2.51340e-01 -3.48810e-04 -1.89410e-02 3.91340e-04 7.09250e-04 -6.46540e-02 -2.43550e-01 -4.56650e-04 -1.95200e-02 5.62090e-04 5.08020e-04 -6.45070e-02 -2.36550e-01 -6.84930e-04 -2.09400e-02 8.93340e-04 1.38000e-04 -6.53320e-02 -2.26540e-01 -3.14500e-04 -1.78910e-02 4.06310e-04 6.38960e-04 -6.07030e-02 -2.18610e-01 -3.03160e-04 -1.74860e-02 4.10130e-04 6.17370e-04 -5.92700e-02 -2.10850e-01 -2.91720e-04 -1.70580e-02 4.13380e-04 5.96630e-04 -5.77900e-02 -2.03260e-01 -2.80400e-04 -1.66070e-02 4.16060e-04 5.76710e-04 -5.62680e-02 -1.95830e-01 -2.69060e-04 -1.61350e-02 4.18170e-04 5.57550e-04 -5.47090e-02 -1.88570e-01 -2.57840e-04 -1.56440e-02 4.19730e-04 5.39140e-04 -5.31180e-02 -1.81470e-01 -2.46640e-04 -1.51350e-02 4.20730e-04 5.21420e-04 -5.15010e-02 -1.74530e-01 -2.35570e-04 -1.46120e-02 4.21180e-04 5.04360e-04 -4.98620e-02 -1.66110e-01 -9.48060e-05 -1.22140e-02 4.11580e-04 4.80550e-04 -4.59070e-02 -1.61120e-01 -2.13710e-04 -1.35270e-02 4.20480e-04 4.72120e-04 -4.65370e-02 -1.54650e-01 -2.02940e-04 -1.29690e-02 4.19350e-04 4.56870e-04 -4.48600e-02 -1.48330e-01 -1.92320e-04 -1.24030e-02 4.17710e-04 4.42170e-04 -4.31770e-02 -1.42160e-01 -1.81830e-04 -1.18310e-02 4.15570e-04 4.27970e-04 -4.14930e-02 -1.36140e-01 -1.71490e-04 -1.12560e-02 4.12940e-04 4.14270e-04 -3.98120e-02 -1.30270e-01 -1.61300e-04 -1.06780e-02 4.09840e-04 4.01020e-04 -3.81370e-02 -1.26040e-01 -2.65100e-04 -1.16170e-02 4.16420e-04 3.95100e-04 -3.83190e-02 -1.18970e-01 -1.41430e-04 -9.52150e-03 4.02250e-04 3.75810e-04 -3.48180e-02 -1.13530e-01 -1.31750e-04 -8.94680e-03 3.97790e-04 3.63810e-04 -3.31790e-02 -1.08240e-01 -1.22260e-04 -8.37660e-03 3.92910e-04 3.52170e-04 -3.15590e-02 -1.03080e-01 -1.12960e-04 -7.81220e-03 3.87610e-04 3.40880e-04 -2.99590e-02 -9.80600e-02 -1.03850e-04 -7.25530e-03 3.81910e-04 3.29930e-04 -2.83820e-02 -9.48310e-02 -5.59650e-04 -6.97830e-03 3.19920e-04 3.98160e-04 -2.73340e-02 -8.95320e-02 -3.17160e-04 -6.63870e-03 3.49180e-04 3.44030e-04 -2.59480e-02 -8.38180e-02 -7.77320e-05 -5.64320e-03 3.62530e-04 2.98850e-04 -2.38130e-02 -7.93370e-02 -6.94440e-05 -5.12980e-03 3.55350e-04 2.89040e-04 -2.23520e-02 -7.49880e-02 -6.13730e-05 -4.63040e-03 3.47830e-04 2.79470e-04 -2.09240e-02 -7.07680e-02 -5.35200e-05 -4.14610e-03 3.39990e-04 2.70140e-04 -1.95310e-02 -6.66780e-02 -4.58900e-05 -3.67800e-03 3.31840e-04 2.61020e-04 -1.81760e-02 -6.27160e-02 -3.84830e-05 -3.22710e-03 3.23380e-04 2.52100e-04 -1.68590e-02 -5.88810e-02 -3.13050e-05 -2.79440e-03 3.14640e-04 2.43380e-04 -1.55830e-02 -5.51720e-02 -2.43550e-05 -2.38060e-03 3.05620e-04 2.34840e-04 -1.43480e-02 -5.15890e-02 -1.76370e-05 -1.98670e-03 2.96330e-04 2.26480e-04 -1.31560e-02 -4.81290e-02 -1.11520e-05 -1.61340e-03 2.86790e-04 2.18270e-04 -1.20090e-02 -4.59200e-02 -7.34420e-05 -1.87780e-03 2.88050e-04 2.16250e-04 -1.17310e-02 -4.15820e-02 1.11230e-06 -9.31240e-04 2.67000e-04 2.02300e-04 -9.85040e-03 -3.84920e-02 6.89050e-06 -6.23630e-04 2.56770e-04 1.94520e-04 -8.84160e-03 -3.55240e-02 1.24330e-05 -3.39040e-04 2.46330e-04 1.86870e-04 -7.88100e-03 -3.26770e-02 1.77390e-05 -7.79590e-05 2.35680e-04 1.79330e-04 -6.96930e-03 -2.89620e-02 7.80100e-05 5.61970e-04 2.13650e-04 1.66030e-04 -5.52260e-03 -2.73460e-02 2.76620e-05 3.72040e-04 2.13790e-04 1.64570e-04 -5.29600e-03 -2.48610e-02 3.22910e-05 5.60240e-04 2.02550e-04 1.57320e-04 -4.53570e-03 -2.24950e-02 3.67140e-05 7.23520e-04 1.91090e-04 1.50140e-04 -3.82700e-03 -2.02500e-02 4.09500e-05 8.61620e-04 1.79390e-04 1.42980e-04 -3.17050e-03 -1.81230e-02 4.50230e-05 9.74330e-04 1.67410e-04 1.35820e-04 -2.56670e-03 -1.61150e-02 4.89710e-05 1.06150e-03 1.55080e-04 1.28590e-04 -2.01580e-03 -1.42260e-02 5.28320e-05 1.12280e-03 1.42320e-04 1.21220e-04 -1.51830e-03 -1.24550e-02 5.66680e-05 1.15830e-03 1.29000e-04 1.13600e-04 -1.07450e-03 -1.14790e-02 2.95120e-05 1.07800e-03 1.27300e-04 1.11850e-04 -8.97900e-04 -9.26830e-03 6.44390e-05 1.15050e-03 1.00020e-04 9.70860e-05 -3.48490e-04 -7.85070e-03 6.83980e-05 1.10660e-03 8.39760e-05 8.78980e-05 -6.66070e-05 -6.54940e-03 7.23000e-05 1.03520e-03 6.67050e-05 7.79600e-05 1.61120e-04 -5.36320e-03 7.56830e-05 9.35280e-04 4.82420e-05 6.73270e-05 3.34680e-04 -3.82690e-03 9.38450e-05 7.62680e-04 1.60260e-05 4.96410e-05 4.99160e-04 -3.32770e-03 7.61590e-05 6.44150e-04 1.05110e-05 4.59500e-05 5.20000e-04 -2.47030e-03 6.79830e-05 4.50770e-04 -4.70120e-06 3.76760e-05 5.33090e-04 -1.71050e-03 4.76910e-05 2.28910e-04 -1.18460e-05 3.40860e-05 4.96510e-04 -1.03390e-03 2.51250e-05 1.15040e-05 -1.25030e-05 3.55280e-05 4.11370e-04 -4.44110e-04 1.12390e-04 -5.63830e-05 -1.65650e-05 4.13790e-05 2.39210e-04 -1.89790e-04 1.94800e-04 4.37290e-06 -2.41920e-05 4.85150e-05 9.54880e-05 -6.36530e-01 -4.24580e-01 -4.08910e-01 -5.53710e-02 -2.16800e-03 4.43520e-02 -6.92180e-01 -2.91560e-01 -2.48280e-01 -4.50220e-02 -3.47370e-03 4.80660e-02 -7.18880e-01 -1.07910e-01 -5.65050e-02 -2.62660e-02 -3.99470e-03 3.10490e-02 -6.92910e-01 -3.31060e-02 -9.13010e-03 -1.08450e-02 -3.57310e-03 5.23980e-03 -6.66300e-01 -1.65170e-02 -9.65960e-03 -2.09630e-03 -3.47160e-03 -2.31590e-03 -6.38100e-01 -3.29030e-03 -1.05750e-02 2.50960e-03 -2.70010e-03 -3.41900e-03 -6.29550e-01 -4.62360e-03 -1.59730e-02 3.31690e-03 -2.15950e-03 -1.21820e-02 -6.14660e-01 -2.88000e-03 -1.78110e-02 3.89230e-03 -1.22500e-03 -1.76170e-02 -5.99870e-01 -1.16550e-03 -1.79610e-02 3.77550e-03 -4.39450e-04 -2.33170e-02 -5.85980e-01 -8.82930e-04 -1.84510e-02 3.38000e-03 2.22150e-04 -2.88550e-02 -5.72020e-01 -3.14490e-04 -1.82480e-02 2.82800e-03 6.86670e-04 -3.41520e-02 -5.58610e-01 -5.00200e-04 -1.84300e-02 2.30270e-03 1.02180e-03 -3.90680e-02 -5.45200e-01 -3.77540e-04 -1.83160e-02 1.81660e-03 1.22910e-03 -4.36000e-02 -5.32200e-01 -6.31280e-04 -1.84880e-02 1.42650e-03 1.35800e-03 -4.77240e-02 -5.19250e-01 -6.35080e-04 -1.85200e-02 1.11220e-03 1.42100e-03 -5.14640e-02 -5.10620e-01 -1.29590e-03 -2.11140e-02 9.66610e-04 1.43910e-03 -5.89990e-02 -4.94050e-01 -8.43470e-04 -1.88790e-02 7.10760e-04 1.44140e-03 -5.78480e-02 -4.81720e-01 -9.58700e-04 -1.91310e-02 5.94430e-04 1.42110e-03 -6.05360e-02 -4.11640e-01 6.85340e-03 -1.04930e-02 -1.73800e-04 2.79740e-03 -4.22010e-02 -4.28840e-01 3.14460e-03 -1.47460e-02 1.19960e-04 2.07990e-03 -5.47110e-02 -4.37480e-01 1.95540e-04 -1.83900e-02 3.35460e-04 1.52710e-03 -6.38880e-02 -4.33840e-01 -1.02130e-03 -2.00710e-02 4.18650e-04 1.27190e-03 -6.83830e-02 -4.22250e-01 -9.99010e-04 -2.02850e-02 4.11130e-04 1.23080e-03 -6.96980e-02 -4.10830e-01 -9.98130e-04 -2.05020e-02 4.09760e-04 1.19060e-03 -7.07830e-02 -3.99560e-01 -9.72700e-04 -2.06830e-02 4.11440e-04 1.15110e-03 -7.16510e-02 -3.85750e-01 -8.86770e-04 -1.86580e-02 9.11020e-04 -2.14070e-04 -6.87100e-02 -3.76650e-01 -9.26260e-04 -2.02620e-02 5.85530e-04 6.38550e-04 -7.15890e-02 -3.66750e-01 -9.18250e-04 -2.10950e-02 4.24360e-04 1.03970e-03 -7.30600e-02 -3.56150e-01 -8.93080e-04 -2.11690e-02 4.28880e-04 1.00490e-03 -7.31680e-02 -3.45720e-01 -8.73520e-04 -2.12130e-02 4.33140e-04 9.71260e-04 -7.31120e-02 -3.35470e-01 -8.49190e-04 -2.12200e-02 4.36920e-04 9.38760e-04 -7.29030e-02 -3.25400e-01 -8.28370e-04 -2.11940e-02 4.40290e-04 9.07390e-04 -7.25490e-02 -3.15500e-01 -8.04730e-04 -2.11300e-02 4.43180e-04 8.77080e-04 -7.20590e-02 -3.06540e-01 -8.76430e-04 -2.19040e-02 5.94910e-04 5.15980e-04 -7.26750e-02 -2.98480e-01 -1.03300e-03 -2.34950e-02 8.94160e-04 -1.63590e-04 -7.43430e-02 -2.86870e-01 -7.38350e-04 -2.07290e-02 4.49400e-04 7.92330e-04 -6.98650e-02 -2.77690e-01 -7.15570e-04 -2.05240e-02 4.50700e-04 7.66020e-04 -6.89190e-02 -2.68680e-01 -6.93630e-04 -2.02860e-02 4.51660e-04 7.40650e-04 -6.78800e-02 -2.59850e-01 -6.71130e-04 -2.00140e-02 4.52260e-04 7.16160e-04 -6.67530e-02 -2.51200e-01 -6.49180e-04 -1.97110e-02 4.52530e-04 6.92540e-04 -6.55470e-02 -2.42720e-01 -6.26930e-04 -1.93760e-02 4.52450e-04 6.69750e-04 -6.42690e-02 -2.36350e-01 -7.60840e-04 -2.12420e-02 4.58770e-04 6.55180e-04 -6.58390e-02 -2.26300e-01 -5.83120e-04 -1.86220e-02 4.51310e-04 6.26530e-04 -6.15220e-02 -2.18340e-01 -5.61460e-04 -1.82050e-02 4.50240e-04 6.06040e-04 -6.00650e-02 -2.10550e-01 -5.39820e-04 -1.77630e-02 4.48830e-04 5.86260e-04 -5.85610e-02 -2.02940e-01 -5.18460e-04 -1.72990e-02 4.47100e-04 5.67160e-04 -5.70150e-02 -1.95490e-01 -4.97200e-04 -1.68130e-02 4.45020e-04 5.48710e-04 -5.54330e-02 -1.88210e-01 -4.76210e-04 -1.63090e-02 4.42620e-04 5.30890e-04 -5.38200e-02 -1.81090e-01 -4.55400e-04 -1.57870e-02 4.39880e-04 5.13660e-04 -5.21810e-02 -1.74130e-01 -4.34850e-04 -1.52500e-02 4.36820e-04 4.97000e-04 -5.05210e-02 -1.65690e-01 -2.79540e-04 -1.28310e-02 4.26010e-04 4.74380e-04 -4.65350e-02 -1.60690e-01 -3.94510e-04 -1.41380e-02 4.29720e-04 4.65300e-04 -4.71540e-02 -1.54210e-01 -3.74740e-04 -1.35660e-02 4.25690e-04 4.50210e-04 -4.54560e-02 -1.47880e-01 -3.55280e-04 -1.29870e-02 4.21350e-04 4.35600e-04 -4.37530e-02 -1.41700e-01 -3.36110e-04 -1.24020e-02 4.16700e-04 4.21440e-04 -4.20500e-02 -1.35680e-01 -3.17260e-04 -1.18130e-02 4.11750e-04 4.07720e-04 -4.03500e-02 -1.29800e-01 -2.98730e-04 -1.12210e-02 4.06500e-04 3.94420e-04 -3.86560e-02 -1.25560e-01 -3.98580e-04 -1.21530e-02 4.08770e-04 3.87470e-04 -3.88280e-02 -1.18490e-01 -2.62690e-04 -1.00380e-02 3.95130e-04 3.68980e-04 -3.53010e-02 -1.13050e-01 -2.45200e-04 -9.45000e-03 3.89030e-04 3.56820e-04 -3.36450e-02 -1.07750e-01 -2.28060e-04 -8.86630e-03 3.82660e-04 3.44990e-04 -3.20080e-02 -1.02600e-01 -2.11290e-04 -8.28860e-03 3.76020e-04 3.33500e-04 -3.03910e-02 -9.75770e-02 -1.94890e-04 -7.71840e-03 3.69130e-04 3.22330e-04 -2.87980e-02 -1.00380e-01 -1.81040e-03 -1.04800e-02 2.76280e-04 6.38850e-04 -3.17320e-02 -8.89440e-02 -4.54310e-04 -6.81710e-03 3.35180e-04 3.63100e-04 -2.60220e-02 -8.33420e-02 -1.47990e-04 -6.06660e-03 3.46990e-04 2.90540e-04 -2.41830e-02 -7.88650e-02 -1.33140e-04 -5.54000e-03 3.39140e-04 2.80480e-04 -2.27060e-02 -7.45200e-02 -1.18690e-04 -5.02740e-03 3.31080e-04 2.70670e-04 -2.12630e-02 -7.03060e-02 -1.04650e-04 -4.53010e-03 3.22800e-04 2.61090e-04 -1.98570e-02 -6.62220e-02 -9.10140e-05 -4.04890e-03 3.14320e-04 2.51740e-04 -1.84870e-02 -6.22660e-02 -7.77890e-05 -3.58500e-03 3.05640e-04 2.42600e-04 -1.71570e-02 -5.84380e-02 -6.49800e-05 -3.13930e-03 2.96780e-04 2.33670e-04 -1.58670e-02 -5.47370e-02 -5.25880e-05 -2.71260e-03 2.87730e-04 2.24930e-04 -1.46190e-02 -4.98700e-02 3.78090e-05 -1.65670e-03 3.56330e-04 8.25010e-05 -1.25430e-02 -4.75900e-02 -2.58120e-05 -1.98400e-03 3.50400e-04 8.59050e-05 -1.23120e-02 -4.53870e-02 -8.43910e-05 -2.24050e-03 3.44420e-04 8.92310e-05 -1.20260e-02 -4.11810e-02 -7.23540e-06 -1.21170e-03 2.49840e-04 1.91750e-04 -1.00700e-02 -3.81010e-02 3.04260e-06 -8.91260e-04 2.39980e-04 1.83870e-04 -9.04830e-03 -3.51430e-02 1.28970e-05 -5.93870e-04 2.29970e-04 1.76120e-04 -8.07540e-03 -3.23060e-02 2.23310e-05 -3.19990e-04 2.19820e-04 1.68520e-04 -7.15170e-03 -2.86060e-02 8.81790e-05 3.38920e-04 2.01060e-04 1.56320e-04 -5.68760e-03 -2.69970e-02 3.99660e-05 1.55570e-04 1.99100e-04 1.53700e-04 -5.45450e-03 -2.45230e-02 4.81940e-05 3.56540e-04 1.88520e-04 1.46450e-04 -4.68250e-03 -2.21690e-02 5.60540e-05 5.32570e-04 1.77770e-04 1.39290e-04 -3.96220e-03 -1.99340e-02 6.35850e-05 6.83410e-04 1.66820e-04 1.32180e-04 -3.29420e-03 -1.78200e-02 7.08280e-05 8.08830e-04 1.55640e-04 1.25080e-04 -2.67890e-03 -1.58240e-02 7.78470e-05 9.08610e-04 1.44160e-04 1.17950e-04 -2.11690e-03 -1.39480e-02 8.47090e-05 9.82560e-04 1.32290e-04 1.10700e-04 -1.60850e-03 -1.21900e-02 9.15010e-05 1.03040e-03 1.19940e-04 1.03240e-04 -1.15400e-03 -1.12210e-02 6.61220e-05 9.56620e-04 1.16430e-04 1.00460e-04 -9.71810e-04 -9.03160e-03 1.05110e-04 1.04690e-03 9.32480e-05 8.72490e-05 -4.08390e-04 -7.63000e-03 1.11880e-04 1.01460e-03 7.86580e-05 7.85070e-05 -1.17910e-04 -6.34650e-03 1.18270e-04 9.54450e-04 6.31810e-05 6.92270e-05 1.17280e-04 -5.18020e-03 1.23530e-04 8.65310e-04 4.69950e-05 5.95680e-05 2.96920e-04 -3.67740e-03 1.41430e-04 7.06950e-04 2.09470e-05 4.48530e-05 4.68290e-04 -3.19150e-03 1.22690e-04 5.93510e-04 1.53070e-05 4.13400e-05 4.90310e-04 -2.36000e-03 1.08990e-04 4.07390e-04 2.81560e-06 3.50230e-05 5.06720e-04 -1.62450e-03 8.23310e-05 1.92490e-04 -5.76440e-06 3.22750e-05 4.74320e-04 -9.74430e-04 6.31650e-05 -1.54040e-05 -1.24580e-05 3.36310e-05 3.93200e-04 -4.18180e-04 1.59930e-04 -7.79420e-05 -1.88770e-05 4.05590e-05 2.29710e-04 -1.82300e-04 2.48720e-04 -1.91100e-05 -2.32870e-05 4.87540e-05 9.46150e-05 -6.31180e-01 -4.23510e-01 -4.02760e-01 -2.63290e-02 -1.28030e-03 5.16260e-02 -6.91050e-01 -3.06220e-01 -2.52350e-01 -2.20530e-02 -2.14090e-03 5.53820e-02 -7.21910e-01 -1.25830e-01 -5.97400e-02 -1.38050e-02 -2.50980e-03 3.73020e-02 -6.96610e-01 -4.55120e-02 -7.62620e-03 -6.90920e-03 -2.21650e-03 9.12150e-03 -6.73930e-01 -2.46170e-02 -9.58890e-03 -2.41580e-03 -2.03450e-03 2.93130e-04 -6.45800e-01 -1.09790e-02 -1.41280e-02 1.53550e-03 -4.18190e-04 -2.16840e-03 -6.35100e-01 -7.51510e-03 -1.64740e-02 1.77150e-03 -8.39720e-04 -9.06440e-03 -6.20930e-01 -4.03070e-03 -1.69830e-02 1.99940e-03 -8.16070e-04 -1.68260e-02 -6.05420e-01 -1.98680e-03 -1.78320e-02 2.07860e-03 -3.58390e-04 -2.29570e-02 -5.90470e-01 -1.14560e-03 -1.81780e-02 1.92040e-03 9.39140e-06 -2.88760e-02 -5.75710e-01 -4.96810e-04 -1.82780e-02 1.66670e-03 2.92770e-04 -3.44360e-02 -5.61530e-01 -5.36140e-04 -1.84560e-02 1.38450e-03 4.90200e-04 -3.95480e-02 -5.47540e-01 -4.26610e-04 -1.84830e-02 1.12620e-03 6.23620e-04 -4.42030e-02 -5.34050e-01 -6.69490e-04 -1.86810e-02 9.04130e-04 7.05500e-04 -4.84090e-02 -5.20740e-01 -7.06510e-04 -1.87810e-02 7.27110e-04 7.51490e-04 -5.21940e-02 -5.11930e-01 -1.37030e-03 -2.13750e-02 6.33340e-04 7.65240e-04 -5.97470e-02 -4.95030e-01 -9.61850e-04 -1.91950e-02 4.90770e-04 7.75780e-04 -5.86160e-02 -4.82540e-01 -1.09550e-03 -1.94620e-02 4.19540e-04 7.68730e-04 -6.13070e-02 -4.70200e-01 -1.11100e-03 -1.96810e-02 3.70470e-04 7.54590e-04 -6.36850e-02 -4.01240e-01 7.22640e-03 -9.97390e-03 -1.54110e-04 2.34410e-03 -4.53830e-02 -4.18320e-01 2.71160e-03 -1.54150e-02 7.99210e-05 1.51860e-03 -5.74020e-02 -4.26540e-01 -1.26330e-04 -1.90790e-02 2.39970e-04 9.24060e-04 -6.62350e-02 -4.22650e-01 -1.17000e-03 -2.06540e-02 2.98560e-04 6.74110e-04 -7.04300e-02 -4.11180e-01 -1.16800e-03 -2.08720e-02 2.95350e-04 6.52970e-04 -7.15020e-02 -3.99860e-01 -1.14000e-03 -2.10550e-02 2.94160e-04 6.32070e-04 -7.23570e-02 -3.85840e-01 -9.11640e-04 -1.87940e-02 2.91450e-04 6.06640e-04 -6.90900e-02 -3.77730e-01 -1.09550e-03 -2.13570e-02 2.94880e-04 5.91990e-04 -7.34570e-02 -3.66930e-01 -1.07450e-03 -2.14670e-02 2.95760e-04 5.72850e-04 -7.37250e-02 -3.56290e-01 -1.04500e-03 -2.15390e-02 2.96580e-04 5.54260e-04 -7.38190e-02 -3.45830e-01 -1.02120e-03 -2.15820e-02 2.97300e-04 5.36310e-04 -7.37490e-02 -3.35540e-01 -9.92520e-04 -2.15870e-02 2.97780e-04 5.18900e-04 -7.35250e-02 -3.25440e-01 -9.67400e-04 -2.15590e-02 2.98070e-04 5.02090e-04 -7.31560e-02 -3.15510e-01 -9.39470e-04 -2.14940e-02 2.98120e-04 4.85810e-04 -7.26510e-02 -3.05760e-01 -9.13780e-04 -2.13930e-02 2.97970e-04 4.70090e-04 -7.20200e-02 -2.96950e-01 -9.53490e-04 -2.20880e-02 4.07190e-04 1.09780e-04 -7.24400e-02 -2.89020e-01 -1.06480e-03 -2.35680e-02 6.24810e-04 -5.82190e-04 -7.38510e-02 -2.77600e-01 -8.33570e-04 -2.08760e-02 2.96320e-04 4.26010e-04 -6.94510e-02 -2.68570e-01 -8.07540e-04 -2.06340e-02 2.95430e-04 4.12310e-04 -6.83970e-02 -2.59720e-01 -7.80980e-04 -2.03590e-02 2.94360e-04 3.99060e-04 -6.72560e-02 -2.51050e-01 -7.54990e-04 -2.00520e-02 2.93140e-04 3.86270e-04 -6.60350e-02 -2.42560e-01 -7.28750e-04 -1.97140e-02 2.91760e-04 3.73910e-04 -6.47430e-02 -2.34870e-01 -7.63200e-04 -2.01180e-02 3.82280e-04 9.52410e-05 -6.43910e-02 -2.27960e-01 -8.55310e-04 -2.12330e-02 5.62010e-04 -4.39320e-04 -6.49170e-02 -2.18130e-01 -6.51480e-04 -1.85290e-02 2.86690e-04 3.39290e-04 -6.04980e-02 -2.10330e-01 -6.25980e-04 -1.80830e-02 2.84680e-04 3.28520e-04 -5.89800e-02 -2.02700e-01 -6.00790e-04 -1.76140e-02 2.82530e-04 3.18100e-04 -5.74210e-02 -1.95250e-01 -5.75750e-04 -1.71240e-02 2.80210e-04 3.08020e-04 -5.58270e-02 -1.87950e-01 -5.51020e-04 -1.66140e-02 2.77740e-04 2.98270e-04 -5.42010e-02 -1.80830e-01 -5.26510e-04 -1.60880e-02 2.75120e-04 2.88840e-04 -5.25500e-02 -1.72140e-01 -3.76800e-04 -1.36980e-02 4.74910e-04 -3.05580e-04 -4.85710e-02 -1.66490e-01 -4.37470e-04 -1.43900e-02 3.35700e-04 7.84880e-05 -4.84420e-02 -1.60410e-01 -4.54830e-04 -1.44240e-02 2.66320e-04 2.62300e-04 -4.74870e-02 -1.53920e-01 -4.31570e-04 -1.38470e-02 2.63090e-04 2.54000e-04 -4.57780e-02 -1.47590e-01 -4.08670e-04 -1.32620e-02 2.59700e-04 2.45960e-04 -4.40640e-02 -1.41410e-01 -3.86120e-04 -1.26720e-02 2.56180e-04 2.38150e-04 -4.23510e-02 -1.35390e-01 -3.63950e-04 -1.20770e-02 2.52510e-04 2.30580e-04 -4.06400e-02 -1.29510e-01 -3.42150e-04 -1.14800e-02 2.48690e-04 2.23230e-04 -3.89360e-02 -1.24250e-01 -3.62830e-04 -1.14110e-02 2.94170e-04 8.29200e-05 -3.78810e-02 -1.19600e-01 -4.23440e-04 -1.18180e-02 3.85110e-04 -1.84270e-04 -3.74150e-02 -1.12760e-01 -2.79190e-04 -9.69290e-03 2.36440e-04 2.02410e-04 -3.38950e-02 -1.07460e-01 -2.59030e-04 -9.10370e-03 2.32100e-04 1.95850e-04 -3.22490e-02 -1.02300e-01 -2.39310e-04 -8.52050e-03 2.27630e-04 1.89460e-04 -3.06230e-02 -9.72870e-02 -2.20030e-04 -7.94470e-03 2.23040e-04 1.83250e-04 -2.90210e-02 -9.24080e-02 -2.01190e-04 -7.37770e-03 2.18330e-04 1.77190e-04 -2.74450e-02 -8.63110e-02 -8.14590e-05 -5.65610e-03 2.09090e-04 1.68340e-04 -2.44640e-02 -8.30590e-02 -1.64880e-04 -6.27590e-03 2.08580e-04 1.65530e-04 -2.43810e-02 -7.85860e-02 -1.47430e-04 -5.74370e-03 2.03540e-04 1.59910e-04 -2.28960e-02 -7.42450e-02 -1.30440e-04 -5.22540e-03 1.98400e-04 1.54420e-04 -2.14450e-02 -7.00360e-02 -1.13920e-04 -4.72230e-03 1.93160e-04 1.49060e-04 -2.00310e-02 -6.59560e-02 -9.78920e-05 -4.23540e-03 1.87820e-04 1.43830e-04 -1.86540e-02 -6.20050e-02 -8.23430e-05 -3.76570e-03 1.82390e-04 1.38700e-04 -1.73160e-02 -5.69140e-02 1.85380e-05 -2.53600e-03 2.28940e-04 -4.57790e-05 -1.50100e-02 -5.44310e-02 -4.89970e-05 -2.91590e-03 2.23780e-04 -4.00350e-05 -1.47940e-02 -5.05090e-02 -1.16430e-05 -2.24090e-03 1.80230e-04 6.93830e-05 -1.32500e-02 -4.74720e-02 -2.50500e-05 -2.07690e-03 1.59800e-04 1.19250e-04 -1.23840e-02 -4.52700e-02 -8.33480e-05 -2.33180e-03 1.58500e-04 1.17270e-04 -1.20950e-02 -4.09550e-02 6.20840e-07 -1.35710e-03 1.48040e-04 1.10090e-04 -1.01870e-02 -3.78810e-02 1.27090e-05 -1.03070e-03 1.42050e-04 1.05640e-04 -9.15880e-03 -3.49290e-02 2.43000e-05 -7.27310e-04 1.36000e-04 1.01260e-04 -8.17940e-03 -3.21000e-02 3.54000e-05 -4.47370e-04 1.29870e-04 9.69570e-05 -7.24920e-03 -2.84100e-02 1.03420e-04 2.20680e-04 1.19100e-04 9.01930e-05 -5.77570e-03 -2.68040e-02 5.61630e-05 4.03950e-05 1.17420e-04 8.85520e-05 -5.53930e-03 -2.43370e-02 6.58640e-05 2.47520e-04 1.11090e-04 8.44330e-05 -4.76100e-03 -2.19900e-02 7.51460e-05 4.29740e-04 1.04660e-04 8.03550e-05 -4.03450e-03 -1.97630e-02 8.40590e-05 5.86790e-04 9.81380e-05 7.63000e-05 -3.36040e-03 -1.76550e-02 9.26580e-05 7.18420e-04 9.14820e-05 7.22430e-05 -2.73910e-03 -1.56670e-02 1.01030e-04 8.24400e-04 8.46620e-05 6.81530e-05 -2.17120e-03 -1.37990e-02 1.09250e-04 9.04520e-04 7.76280e-05 6.39840e-05 -1.65710e-03 -1.20490e-02 1.17430e-04 9.58510e-04 7.03210e-05 5.96830e-05 -1.19720e-03 -1.10840e-02 9.29870e-05 8.87730e-04 6.78020e-05 5.78960e-05 -1.01230e-03 -8.87960e-03 1.45120e-04 9.76590e-04 5.54860e-05 3.20850e-05 -4.49600e-04 -8.06990e-03 1.26370e-04 9.08760e-04 5.13610e-05 3.28120e-05 -3.02720e-04 -6.24270e-03 1.49550e-04 9.05450e-04 3.71810e-05 4.00940e-05 9.15080e-05 -4.57640e-03 1.87010e-04 8.03800e-04 2.51410e-05 2.87440e-05 3.48950e-04 -4.03130e-03 1.68820e-04 7.00430e-04 2.13300e-05 2.84990e-05 3.95330e-04 -3.10880e-03 1.62990e-04 5.53690e-04 1.40530e-05 2.72270e-05 4.67390e-04 -2.64870e-03 1.46260e-04 4.56760e-04 1.06040e-05 2.69770e-05 4.94390e-04 -1.58270e-03 1.07070e-04 1.67230e-04 -2.50760e-06 1.98640e-05 4.61770e-04 -9.47630e-04 8.88410e-05 -3.64140e-05 -7.22800e-06 2.08420e-05 3.84650e-04 -4.06420e-04 1.88360e-04 -9.54160e-05 -1.15370e-05 2.48890e-05 2.27810e-04 -1.77800e-04 2.80110e-04 -3.63880e-05 -1.44190e-05 2.92900e-05 9.76720e-05 -6.36530e-01 -4.33920e-01 -4.11890e-01 3.06490e-09 -7.28450e-12 5.39850e-02 -6.92450e-01 -3.09880e-01 -2.53010e-01 1.29960e-09 -2.52870e-10 5.77730e-02 -7.22220e-01 -1.30800e-01 -5.97950e-02 -9.04260e-10 -3.54970e-10 3.92390e-02 -6.98640e-01 -4.99890e-02 -8.34300e-03 -1.18820e-09 -9.16730e-11 1.05420e-02 -6.75160e-01 -2.68990e-02 -8.25500e-03 -8.61350e-10 2.64070e-10 1.13130e-03 -6.56470e-01 -1.46870e-02 -1.23110e-02 -4.00490e-10 5.47820e-10 -4.55430e-03 -6.33280e-01 -9.65750e-03 -1.74350e-02 3.18990e-04 1.28130e-03 -4.70720e-03 -6.20830e-01 -3.39710e-03 -1.58750e-02 2.38710e-04 4.53220e-04 -1.53600e-02 -6.07120e-01 -2.07330e-03 -1.74440e-02 7.49130e-10 1.00720e-09 -2.28150e-02 -5.92090e-01 -1.36340e-03 -1.82660e-02 1.06980e-09 1.08710e-09 -2.88350e-02 -5.76940e-01 -4.62440e-04 -1.81430e-02 1.37560e-09 1.14720e-09 -3.45070e-02 -5.62590e-01 -5.76200e-04 -1.85210e-02 1.65990e-09 1.19180e-09 -3.96790e-02 -5.48360e-01 -3.89000e-04 -1.84770e-02 1.93050e-09 1.22530e-09 -4.43880e-02 -5.34720e-01 -6.74490e-04 -1.87580e-02 2.17840e-09 1.24950e-09 -4.86200e-02 -5.22650e-01 -6.00290e-04 -1.93820e-02 -4.90490e-05 6.49360e-04 -5.38910e-02 -5.12420e-01 -1.41820e-03 -2.14980e-02 -1.66090e-04 1.93700e-03 -5.99810e-02 -4.95390e-01 -9.73820e-04 -1.92840e-02 2.78970e-09 1.28480e-09 -5.88660e-02 -4.82850e-01 -1.12070e-03 -1.95670e-02 2.94360e-09 1.28690e-09 -6.15580e-02 -4.70450e-01 -1.13850e-03 -1.97860e-02 3.07400e-09 1.28550e-09 -6.39360e-02 -4.58300e-01 -1.21160e-03 -2.00640e-02 3.18070e-09 1.28070e-09 -6.60170e-02 -3.91930e-01 5.99610e-03 -1.12090e-02 -3.55350e-04 1.64900e-03 -4.76440e-02 -4.16430e-01 1.24080e-03 -1.74200e-02 -3.44020e-04 1.63350e-03 -6.26860e-02 -4.22800e-01 -1.20820e-03 -2.07700e-02 -3.40170e-04 1.60070e-03 -7.06700e-02 -4.11310e-01 -1.20680e-03 -2.09900e-02 -3.40540e-04 1.55300e-03 -7.17390e-02 -3.99980e-01 -1.17810e-03 -2.11730e-02 -3.39960e-04 1.50550e-03 -7.25890e-02 -3.85930e-01 -9.46950e-04 -1.89110e-02 3.23320e-09 1.07650e-09 -6.93170e-02 -3.77820e-01 -1.13230e-03 -2.14760e-02 3.49250e-09 1.20170e-09 -7.36810e-02 -3.67010e-01 -1.11050e-03 -2.15850e-02 3.49720e-09 1.19130e-09 -7.39440e-02 -3.56360e-01 -1.07990e-03 -2.16570e-02 3.49340e-09 1.18200e-09 -7.40330e-02 -3.45880e-01 -1.05520e-03 -2.17000e-02 3.48090e-09 1.17370e-09 -7.39580e-02 -3.35590e-01 -1.02540e-03 -2.17050e-02 3.45910e-09 1.16580e-09 -7.37290e-02 -3.25470e-01 -9.99310e-04 -2.16770e-02 3.42790e-09 1.15780e-09 -7.33550e-02 -3.15530e-01 -9.70300e-04 -2.16100e-02 3.38740e-09 1.14930e-09 -7.28460e-02 -3.05770e-01 -9.43630e-04 -2.15090e-02 3.33750e-09 1.13950e-09 -7.22100e-02 -2.96200e-01 -9.15250e-04 -2.13710e-02 3.27850e-09 1.12790e-09 -7.14550e-02 -2.89010e-01 -1.06210e-03 -2.35830e-02 3.43890e-09 1.25330e-09 -7.39140e-02 -2.77580e-01 -8.60390e-04 -2.09890e-02 3.13200e-09 1.09670e-09 -6.96260e-02 -2.68550e-01 -8.33390e-04 -2.07460e-02 3.04420e-09 1.07550e-09 -6.85670e-02 -2.59690e-01 -8.05830e-04 -2.04700e-02 2.94670e-09 1.04980e-09 -6.74210e-02 -2.51020e-01 -7.78880e-04 -2.01620e-02 2.84020e-09 1.01890e-09 -6.61960e-02 -2.42520e-01 -7.51660e-04 -1.98220e-02 2.72640e-09 9.82570e-10 -6.48990e-02 -2.34200e-01 -7.24880e-04 -1.94540e-02 2.60790e-09 9.41080e-10 -6.35360e-02 -2.27940e-01 -8.54090e-04 -2.12550e-02 2.70590e-09 1.03830e-09 -6.49690e-02 -1.95270e-01 3.33650e-03 -1.29230e-02 2.53590e-04 -7.69010e-04 -5.12480e-02 -2.10270e-01 -6.45060e-04 -1.81860e-02 2.22930e-04 -7.48580e-04 -5.91180e-02 -2.02640e-01 -6.18940e-04 -1.77160e-02 2.15190e-04 -7.19580e-04 -5.75550e-02 -1.95180e-01 -5.92970e-04 -1.72240e-02 2.07450e-04 -6.91320e-04 -5.59560e-02 -1.87880e-01 -5.67320e-04 -1.67130e-02 1.99690e-04 -6.63790e-04 -5.43260e-02 -1.80750e-01 -5.41890e-04 -1.61850e-02 1.91960e-04 -6.36980e-04 -5.26710e-02 -1.72110e-01 -3.76690e-04 -1.37240e-02 1.72140e-09 4.55800e-10 -4.86120e-02 -1.66980e-01 -4.91990e-04 -1.50850e-02 1.82260e-09 5.38810e-10 -4.93010e-02 -1.60330e-01 -4.67530e-04 -1.45160e-02 1.78690e-09 5.09950e-10 -4.75960e-02 -1.53840e-01 -4.43390e-04 -1.39380e-02 1.75870e-09 4.85040e-10 -4.58830e-02 -1.47510e-01 -4.19630e-04 -1.33520e-02 1.73640e-09 4.63710e-10 -4.41660e-02 -1.41330e-01 -3.96230e-04 -1.27590e-02 1.71730e-09 4.45280e-10 -4.24490e-02 -1.35300e-01 -3.73230e-04 -1.21630e-02 1.69870e-09 4.28880e-10 -4.07350e-02 -1.29420e-01 -3.50610e-04 -1.15640e-02 1.67710e-09 4.13370e-10 -3.90280e-02 -1.23690e-01 -3.28410e-04 -1.09650e-02 1.64860e-09 3.97270e-10 -3.73300e-02 -1.18600e-01 -3.45780e-04 -1.08590e-02 3.89470e-05 -1.32890e-04 -3.62450e-02 -1.14120e-01 -4.00150e-04 -1.11970e-02 1.13180e-04 -3.92570e-04 -3.57140e-02 -1.07370e-01 -2.64350e-04 -9.18060e-03 1.48740e-09 3.30820e-10 -3.23270e-02 -1.02210e-01 -2.43880e-04 -8.59550e-03 1.40150e-09 2.99010e-10 -3.06990e-02 -9.71990e-02 -2.23870e-04 -8.01790e-03 1.29900e-09 2.61630e-10 -2.90940e-02 -9.23210e-02 -2.04320e-04 -7.44910e-03 1.18150e-09 2.19100e-10 -2.75150e-02 -8.62250e-02 -8.35590e-05 -5.72470e-03 9.23370e-10 9.02090e-11 -2.45300e-02 -8.29740e-02 -1.66630e-04 -6.34370e-03 9.11380e-10 1.21720e-10 -2.44450e-02 -7.85010e-02 -1.48510e-04 -5.80960e-03 7.64900e-10 6.88570e-11 -2.29580e-02 -7.41610e-02 -1.30880e-04 -5.28940e-03 6.15000e-10 1.45440e-11 -2.15040e-02 -6.99530e-02 -1.13740e-04 -4.78450e-03 4.64920e-10 -4.01790e-11 -2.00870e-02 -6.46200e-02 -8.93130e-06 -3.38360e-03 5.25820e-05 -2.13650e-04 -1.75570e-02 -6.19250e-02 -8.09520e-05 -3.82410e-03 4.85870e-05 -2.04820e-04 -1.73670e-02 -5.77000e-02 -3.77580e-05 -3.09940e-03 1.48830e-05 -6.53920e-05 -1.57210e-02 -5.44100e-02 -5.01890e-05 -2.93630e-03 -7.23910e-11 -2.38940e-10 -1.48100e-02 -5.08410e-02 -3.55740e-05 -2.52170e-03 -1.75320e-10 -2.76520e-10 -1.35960e-02 -4.73980e-02 -2.14730e-05 -2.12770e-03 -2.60670e-10 -3.06710e-10 -1.24260e-02 -4.54590e-02 -2.00820e-04 -2.62370e-03 3.18120e-06 -2.87270e-05 -1.24230e-02 -4.55090e-02 -8.27790e-04 -4.44680e-03 1.30050e-05 -1.40650e-04 -1.40750e-02 -3.78130e-02 1.77320e-05 -1.07570e-03 -4.01890e-10 -3.46650e-10 -9.19450e-03 -3.48630e-02 2.97680e-05 -7.70360e-04 -4.12310e-10 -3.43830e-10 -8.21290e-03 -3.20360e-02 4.12960e-05 -4.88470e-04 -4.07370e-10 -3.34530e-10 -7.28060e-03 -2.83490e-02 1.09880e-04 1.82550e-04 -3.98630e-10 -3.30580e-10 -5.80400e-03 -2.67440e-02 6.28660e-05 3.24190e-06 -3.60600e-10 -3.01110e-10 -5.56660e-03 -2.42790e-02 7.29500e-05 2.12360e-04 -3.24430e-10 -2.79430e-10 -4.78620e-03 -2.19340e-02 8.26050e-05 3.96570e-04 -2.83500e-10 -2.55780e-10 -4.05770e-03 -1.97090e-02 9.18850e-05 5.55610e-04 -2.41060e-10 -2.31290e-10 -3.38160e-03 -1.76040e-02 1.00850e-04 6.89230e-04 -1.99640e-10 -2.06810e-10 -2.75850e-03 -1.56180e-02 1.09590e-04 7.97200e-04 -1.60880e-10 -1.82870e-10 -2.18870e-03 -1.37520e-02 1.18200e-04 8.79280e-04 -1.27010e-10 -1.60520e-10 -1.67270e-03 -1.20050e-02 1.26780e-04 9.35200e-04 -1.00660e-10 -1.41330e-10 -1.21110e-03 -1.10420e-02 1.02580e-04 8.65350e-04 -8.34260e-11 -1.27230e-10 -1.02530e-03 -8.86920e-03 1.44080e-04 9.67210e-04 -6.80040e-11 -1.10050e-10 -4.52670e-04 -7.67350e-03 1.43530e-04 9.28140e-04 -5.42830e-07 -4.94060e-06 -2.06370e-04 -5.67520e-03 1.84410e-04 9.05170e-04 -7.13250e-07 -1.00210e-05 1.97150e-04 -4.89570e-03 1.73090e-04 8.03680e-04 -6.45290e-07 -3.08030e-06 2.93320e-04 -4.02430e-03 1.68300e-04 6.93960e-04 -5.20380e-11 -7.48280e-11 3.93720e-04 -3.10270e-03 1.62600e-04 5.48020e-04 -4.66130e-11 -6.92990e-11 4.66040e-04 -2.40630e-03 1.45300e-04 3.95630e-04 1.60870e-06 1.32830e-06 4.88380e-04 -1.88540e-03 1.22520e-04 2.58060e-04 4.49370e-06 4.17060e-06 4.87810e-04 -9.39180e-04 9.77760e-05 -4.32640e-05 -2.65700e-11 -7.68850e-11 3.82220e-04 -4.03260e-04 1.97700e-04 -1.01680e-04 -1.22860e-11 -8.80510e-11 2.27590e-04 -1.77520e-04 2.89440e-04 -4.35970e-05 8.45980e-12 -9.49800e-11 9.91300e-05 -6.31180e-01 -4.23510e-01 -4.02760e-01 2.63290e-02 1.28030e-03 5.16260e-02 -6.91050e-01 -3.06220e-01 -2.52350e-01 2.20530e-02 2.14090e-03 5.53820e-02 -7.21910e-01 -1.25830e-01 -5.97400e-02 1.38050e-02 2.50980e-03 3.73020e-02 -6.96610e-01 -4.55120e-02 -7.62620e-03 6.90920e-03 2.21650e-03 9.12150e-03 -6.73930e-01 -2.46170e-02 -9.58890e-03 2.41580e-03 2.03450e-03 2.93140e-04 -6.53820e-01 -1.26680e-02 -1.19620e-02 -2.43200e-04 1.74090e-03 -5.22440e-03 -6.07720e-01 -5.34680e-03 -1.75300e-02 -2.24690e-03 7.03560e-04 -1.31580e-03 -6.15100e-01 -9.85470e-04 -1.38820e-02 -1.87630e-03 2.21860e-03 -1.31320e-02 -6.18330e-01 -2.91610e-03 -1.71610e-02 -1.68650e-03 1.28840e-03 -2.44910e-02 -5.99300e-01 -1.67100e-03 -1.77980e-02 -1.87810e-03 1.90710e-04 -3.02470e-02 -5.75710e-01 -4.96810e-04 -1.82780e-02 -1.66670e-03 -2.92770e-04 -3.44360e-02 -5.61530e-01 -5.36140e-04 -1.84560e-02 -1.38450e-03 -4.90200e-04 -3.95480e-02 -5.47540e-01 -4.26610e-04 -1.84830e-02 -1.12620e-03 -6.23610e-04 -4.42030e-02 -5.35730e-01 -8.63720e-04 -1.95130e-02 -9.74010e-04 -4.96460e-05 -4.98240e-02 -5.25260e-01 -4.59340e-04 -2.05600e-02 -9.62600e-04 1.19310e-03 -5.67380e-02 -5.07810e-01 -9.19260e-04 -1.90210e-02 -5.90990e-04 -7.72190e-04 -5.55860e-02 -4.95030e-01 -9.61850e-04 -1.91950e-02 -4.90760e-04 -7.75780e-04 -5.86160e-02 -4.82540e-01 -1.09550e-03 -1.94620e-02 -4.19530e-04 -7.68730e-04 -6.13070e-02 -4.70200e-01 -1.11100e-03 -1.96810e-02 -3.70460e-04 -7.54590e-04 -6.36850e-02 -4.58070e-01 -1.17750e-03 -1.99520e-02 -3.38190e-04 -7.36780e-04 -6.57680e-02 -4.46090e-01 -1.16920e-03 -2.01830e-02 -3.17590e-04 -7.16550e-04 -6.75770e-02 -4.31040e-01 -9.36290e-04 -1.80540e-02 -2.98950e-04 -6.90390e-04 -6.50370e-02 -4.22650e-01 -1.17000e-03 -2.06540e-02 -2.98550e-04 -6.74110e-04 -7.04300e-02 -4.11180e-01 -1.16800e-03 -2.08720e-02 -2.95340e-04 -6.52960e-04 -7.15020e-02 -3.99860e-01 -1.14000e-03 -2.10550e-02 -2.94150e-04 -6.32070e-04 -7.23570e-02 -3.85930e-01 -9.52370e-04 -1.89120e-02 -6.66010e-04 7.99190e-04 -6.92380e-02 -3.76840e-01 -1.05330e-03 -2.05950e-02 -4.19550e-04 -1.27120e-04 -7.22140e-02 -3.66930e-01 -1.07450e-03 -2.14670e-02 -2.95750e-04 -5.72850e-04 -7.37250e-02 -3.56290e-01 -1.04500e-03 -2.15390e-02 -2.96570e-04 -5.54260e-04 -7.38190e-02 -3.45830e-01 -1.02120e-03 -2.15820e-02 -2.97290e-04 -5.36300e-04 -7.37490e-02 -3.35540e-01 -9.92520e-04 -2.15870e-02 -2.97780e-04 -5.18900e-04 -7.35250e-02 -3.25440e-01 -9.67400e-04 -2.15590e-02 -2.98070e-04 -5.02090e-04 -7.31560e-02 -3.15510e-01 -9.39470e-04 -2.14940e-02 -2.98110e-04 -4.85810e-04 -7.26510e-02 -3.05760e-01 -9.13780e-04 -2.13930e-02 -2.97960e-04 -4.70090e-04 -7.20200e-02 -2.96190e-01 -8.86440e-04 -2.12560e-02 -2.97590e-04 -4.54890e-04 -7.12710e-02 -2.89010e-01 -1.03320e-03 -2.34680e-02 -3.00500e-04 -4.44570e-04 -7.37320e-02 -2.47760e-01 4.29390e-03 -1.46980e-02 1.11090e-04 -1.35540e-03 -5.84520e-02 -2.68570e-01 -8.07540e-04 -2.06340e-02 -2.95420e-04 -4.12300e-04 -6.83970e-02 -2.59720e-01 -7.80980e-04 -2.03590e-02 -2.94350e-04 -3.99060e-04 -6.72560e-02 -2.51050e-01 -7.54990e-04 -2.00520e-02 -2.93130e-04 -3.86270e-04 -6.60350e-02 -2.42560e-01 -7.28750e-04 -1.97140e-02 -2.91750e-04 -3.73910e-04 -6.47430e-02 -2.34240e-01 -7.02930e-04 -1.93460e-02 -2.90220e-04 -3.61970e-04 -6.33850e-02 -2.27990e-01 -8.32430e-04 -2.11480e-02 -2.92380e-04 -3.54350e-04 -6.48210e-02 -1.95300e-01 3.40140e-03 -1.27810e-02 -2.21710e-04 -3.00020e-04 -5.10660e-02 -2.10330e-01 -6.25980e-04 -1.80830e-02 -2.84680e-04 -3.28510e-04 -5.89800e-02 -2.02700e-01 -6.00790e-04 -1.76140e-02 -2.82520e-04 -3.18100e-04 -5.74210e-02 -1.95250e-01 -5.75750e-04 -1.71240e-02 -2.80210e-04 -3.08020e-04 -5.58270e-02 -1.87950e-01 -5.51020e-04 -1.66140e-02 -2.77740e-04 -2.98270e-04 -5.42010e-02 -1.80830e-01 -5.26510e-04 -1.60880e-02 -2.75110e-04 -2.88840e-04 -5.25500e-02 -1.72190e-01 -3.62810e-04 -1.36290e-02 -2.68230e-04 -2.76180e-04 -4.84960e-02 -1.67060e-01 -4.78410e-04 -1.49910e-02 -2.69400e-04 -2.70870e-04 -4.91880e-02 -1.60410e-01 -4.54830e-04 -1.44240e-02 -2.66320e-04 -2.62300e-04 -4.74870e-02 -1.53920e-01 -4.31570e-04 -1.38470e-02 -2.63080e-04 -2.54000e-04 -4.57780e-02 -1.47590e-01 -4.08670e-04 -1.32620e-02 -2.59700e-04 -2.45960e-04 -4.40640e-02 -1.41410e-01 -3.86120e-04 -1.26720e-02 -2.56170e-04 -2.38150e-04 -4.23510e-02 -1.35390e-01 -3.63950e-04 -1.20770e-02 -2.52500e-04 -2.30580e-04 -4.06400e-02 -1.29510e-01 -3.42150e-04 -1.14800e-02 -2.48690e-04 -2.23230e-04 -3.89360e-02 -1.23780e-01 -3.20760e-04 -1.08830e-02 -2.44740e-04 -2.16090e-04 -3.72420e-02 -1.18190e-01 -2.99770e-04 -1.02870e-02 -2.40660e-04 -2.09150e-04 -3.55610e-02 -1.13260e-01 -3.15700e-04 -1.01500e-02 -1.94740e-04 -3.24770e-04 -3.44570e-02 -1.08950e-01 -3.65970e-04 -1.04240e-02 -1.10820e-04 -5.57220e-04 -3.38700e-02 -1.02300e-01 -2.39310e-04 -8.52050e-03 -2.27630e-04 -1.89460e-04 -3.06230e-02 -9.72870e-02 -2.20030e-04 -7.94470e-03 -2.23040e-04 -1.83240e-04 -2.90210e-02 -9.38780e-02 -4.64910e-04 -8.21360e-03 -2.42150e-04 -1.40700e-04 -2.85260e-02 -8.62490e-02 -8.25710e-05 -5.70100e-03 -3.05030e-04 1.08580e-04 -2.45070e-02 -8.25930e-02 -1.32340e-04 -5.91980e-03 -2.37860e-04 -7.38110e-05 -2.39370e-02 -7.73300e-02 -5.16960e-05 -4.63940e-03 -1.15340e-04 -4.02830e-04 -2.15380e-02 -7.43050e-02 -1.31070e-04 -5.18410e-03 -1.19340e-04 -3.90670e-04 -2.14060e-02 -7.00950e-02 -1.15220e-04 -4.68240e-03 -1.19790e-04 -3.70850e-04 -1.99930e-02 -6.55570e-02 -6.91450e-05 -3.91860e-03 -1.63370e-04 -2.13810e-04 -1.82590e-02 -6.20050e-02 -8.23430e-05 -3.76570e-03 -1.82390e-04 -1.38700e-04 -1.73160e-02 -5.81830e-02 -6.72810e-05 -3.31420e-03 -1.76860e-04 -1.33690e-04 -1.60190e-02 -5.44870e-02 -5.27100e-05 -2.88170e-03 -1.71260e-04 -1.28780e-04 -1.47630e-02 -5.09170e-02 -3.86320e-05 -2.46900e-03 -1.65570e-04 -1.23970e-04 -1.35520e-02 -4.74720e-02 -2.50500e-05 -2.07690e-03 -1.59800e-04 -1.19250e-04 -1.23840e-02 -4.48250e-02 -1.30070e-04 -2.14340e-03 -1.52520e-04 -1.35150e-04 -1.18210e-02 -4.32420e-02 -3.24570e-04 -2.74910e-03 -1.48740e-04 -1.58740e-04 -1.19850e-02 -3.78810e-02 1.27090e-05 -1.03070e-03 -1.42050e-04 -1.05640e-04 -9.15880e-03 -3.49290e-02 2.43000e-05 -7.27310e-04 -1.36000e-04 -1.01260e-04 -8.17940e-03 -3.21000e-02 3.54000e-05 -4.47370e-04 -1.29880e-04 -9.69570e-05 -7.24920e-03 -2.84100e-02 1.03420e-04 2.20680e-04 -1.19100e-04 -9.01930e-05 -5.77570e-03 -2.68040e-02 5.61630e-05 4.03950e-05 -1.17420e-04 -8.85520e-05 -5.53930e-03 -2.43370e-02 6.58640e-05 2.47530e-04 -1.11090e-04 -8.44330e-05 -4.76100e-03 -2.19900e-02 7.51460e-05 4.29740e-04 -1.04670e-04 -8.03550e-05 -4.03450e-03 -1.97630e-02 8.40590e-05 5.86790e-04 -9.81380e-05 -7.63000e-05 -3.36040e-03 -1.76550e-02 9.26580e-05 7.18420e-04 -9.14830e-05 -7.22440e-05 -2.73910e-03 -1.56670e-02 1.01030e-04 8.24410e-04 -8.46620e-05 -6.81530e-05 -2.17120e-03 -1.37990e-02 1.09250e-04 9.04520e-04 -7.76280e-05 -6.39840e-05 -1.65710e-03 -1.22740e-02 1.09180e-04 9.11720e-04 -7.29710e-05 -5.17000e-05 -1.28620e-03 -1.10530e-02 1.03730e-04 8.75740e-04 -6.87570e-05 -3.23360e-05 -1.02150e-03 -8.90780e-03 1.33890e-04 9.86800e-04 -5.46160e-05 -5.04400e-05 -4.41800e-04 -7.51590e-03 1.42010e-04 9.60160e-04 -4.61120e-05 -4.54020e-05 -1.47180e-04 -5.70570e-03 1.73570e-04 9.20550e-04 -3.16960e-05 -3.71470e-05 2.05120e-04 -5.08780e-03 1.55380e-04 8.21500e-04 -2.79790e-05 -3.46430e-05 2.74040e-04 -4.04920e-03 1.57500e-04 7.06870e-04 -1.88230e-05 -2.93330e-05 4.00570e-04 -3.12380e-03 1.52470e-04 5.59430e-04 -1.03350e-05 -2.46770e-05 4.72060e-04 -2.30510e-03 1.35670e-04 3.77600e-04 -3.17480e-06 -2.13220e-05 4.91120e-04 -1.69090e-03 1.06440e-04 2.02080e-04 3.69780e-06 -1.76420e-05 4.72970e-04 -9.53030e-04 7.99400e-05 -3.26480e-05 1.35550e-05 -1.38030e-05 3.87020e-04 -4.07240e-04 1.79030e-04 -9.14920e-05 1.87820e-05 -1.90080e-05 2.29000e-04 -1.75650e-04 2.70580e-04 -3.14060e-05 2.30380e-05 -2.47680e-05 9.80400e-05 -6.36530e-01 -4.24580e-01 -4.08910e-01 5.53710e-02 2.16800e-03 4.43520e-02 -6.92180e-01 -2.91560e-01 -2.48280e-01 4.50220e-02 3.47370e-03 4.80660e-02 -7.18880e-01 -1.07910e-01 -5.65050e-02 2.62660e-02 3.99470e-03 3.10490e-02 -6.92910e-01 -3.31060e-02 -9.13010e-03 1.08450e-02 3.57310e-03 5.23980e-03 -6.66300e-01 -1.65170e-02 -9.65960e-03 2.09630e-03 3.47160e-03 -2.31590e-03 -5.44300e-01 2.84740e-02 1.30970e-02 -4.20660e-03 2.16500e-03 7.79470e-03 -6.06980e-01 5.35860e-04 -1.27570e-02 -4.25210e-03 1.79940e-03 -6.55010e-03 -6.14660e-01 -2.88000e-03 -1.78110e-02 -3.89230e-03 1.22500e-03 -1.76170e-02 -6.63840e-01 -6.12110e-03 -1.55460e-02 -4.15540e-03 1.81520e-03 -3.10760e-02 -6.08370e-01 -2.25950e-03 -1.75450e-02 -3.27400e-03 1.59030e-03 -3.20840e-02 -5.74100e-01 -6.32820e-04 -1.86930e-02 -2.89630e-03 1.27830e-03 -3.43230e-02 -5.60070e-01 -6.28790e-04 -1.86590e-02 -2.49350e-03 9.36120e-04 -3.93110e-02 -5.46490e-01 -5.39020e-04 -1.86580e-02 -2.12520e-03 6.98170e-04 -4.38950e-02 -5.37560e-01 -1.31250e-03 -2.11250e-02 -1.93400e-03 5.81560e-04 -5.21510e-02 -5.19250e-01 -6.35080e-04 -1.85200e-02 -1.11220e-03 -1.42100e-03 -5.14640e-02 -5.06610e-01 -8.27550e-04 -1.87370e-02 -8.81440e-04 -1.44590e-03 -5.48290e-02 -4.94050e-01 -8.43470e-04 -1.88790e-02 -7.10760e-04 -1.44140e-03 -5.78480e-02 -4.81720e-01 -9.58690e-04 -1.91310e-02 -5.94420e-04 -1.42110e-03 -6.05360e-02 -4.69500e-01 -9.59130e-04 -1.93350e-02 -5.14770e-04 -1.38950e-03 -6.29170e-02 -4.57470e-01 -1.01570e-03 -1.95980e-02 -4.65190e-04 -1.35280e-03 -6.50070e-02 -4.45570e-01 -1.00160e-03 -1.98220e-02 -4.34620e-04 -1.31270e-03 -6.68240e-02 -4.30610e-01 -7.67570e-04 -1.76860e-02 -4.07510e-04 -1.26170e-03 -6.43000e-02 -4.22250e-01 -9.99010e-04 -2.02850e-02 -4.11120e-04 -1.23080e-03 -6.96980e-02 -4.10830e-01 -9.98130e-04 -2.05020e-02 -4.09750e-04 -1.19060e-03 -7.07830e-02 -3.99560e-01 -9.72700e-04 -2.06830e-02 -4.11430e-04 -1.15110e-03 -7.16510e-02 -3.88460e-01 -9.61050e-04 -2.08520e-02 -4.15190e-04 -1.11280e-03 -7.23120e-02 -3.74760e-01 -7.70670e-04 -1.85800e-02 -4.15100e-04 -1.06600e-03 -6.89070e-02 -3.66750e-01 -9.18250e-04 -2.10950e-02 -4.24360e-04 -1.03970e-03 -7.30600e-02 -3.56150e-01 -8.93080e-04 -2.11690e-02 -4.28870e-04 -1.00490e-03 -7.31680e-02 -3.45720e-01 -8.73520e-04 -2.12130e-02 -4.33130e-04 -9.71260e-04 -7.31120e-02 -3.35470e-01 -8.49180e-04 -2.12200e-02 -4.36910e-04 -9.38760e-04 -7.29030e-02 -3.25400e-01 -8.28360e-04 -2.11940e-02 -4.40280e-04 -9.07390e-04 -7.25490e-02 -3.15500e-01 -8.04730e-04 -2.11300e-02 -4.43170e-04 -8.77080e-04 -7.20590e-02 -3.05780e-01 -7.83270e-04 -2.10320e-02 -4.45660e-04 -8.47820e-04 -7.14430e-02 -2.96230e-01 -7.60140e-04 -2.08980e-02 -4.47710e-04 -8.19580e-04 -7.07090e-02 -2.89060e-01 -9.08040e-04 -2.31120e-02 -4.55390e-04 -8.00510e-04 -7.31790e-02 -2.46810e-01 4.50770e-03 -1.27840e-02 -1.94170e-04 -9.36040e-04 -5.57520e-02 -2.40000e-01 4.41070e-03 -1.39770e-02 7.01000e-05 -1.47660e-03 -5.68160e-02 -2.59850e-01 -6.71130e-04 -2.00140e-02 -4.52250e-04 -7.16160e-04 -6.67530e-02 -2.51200e-01 -6.49180e-04 -1.97110e-02 -4.52520e-04 -6.92540e-04 -6.55470e-02 -2.42720e-01 -6.26930e-04 -1.93760e-02 -4.52450e-04 -6.69750e-04 -6.42690e-02 -2.34420e-01 -6.05080e-04 -1.90130e-02 -4.52050e-04 -6.47750e-04 -6.29250e-02 -2.28180e-01 -7.35930e-04 -2.08170e-02 -4.58110e-04 -6.33840e-04 -6.43680e-02 -1.95410e-01 3.46330e-03 -1.25570e-02 -6.93800e-04 1.62040e-04 -5.07760e-02 -2.10550e-01 -5.39820e-04 -1.77630e-02 -4.48830e-04 -5.86260e-04 -5.85610e-02 -2.02940e-01 -5.18460e-04 -1.72990e-02 -4.47090e-04 -5.67160e-04 -5.70150e-02 -1.95490e-01 -4.97200e-04 -1.68130e-02 -4.45020e-04 -5.48710e-04 -5.54330e-02 -1.88210e-01 -4.76210e-04 -1.63090e-02 -4.42610e-04 -5.30890e-04 -5.38200e-02 -1.81090e-01 -4.55400e-04 -1.57870e-02 -4.39880e-04 -5.13660e-04 -5.21810e-02 -1.72330e-01 -3.48840e-04 -1.34740e-02 -7.15700e-04 4.35580e-05 -4.83010e-02 -1.66740e-01 -3.86730e-04 -1.41230e-02 -5.24960e-04 -3.03260e-04 -4.81260e-02 -1.60690e-01 -3.94510e-04 -1.41380e-02 -4.29720e-04 -4.65300e-04 -4.71540e-02 -1.54210e-01 -3.74740e-04 -1.35660e-02 -4.25690e-04 -4.50210e-04 -4.54560e-02 -1.47880e-01 -3.55280e-04 -1.29870e-02 -4.21350e-04 -4.35590e-04 -4.37530e-02 -1.41700e-01 -3.36110e-04 -1.24020e-02 -4.16700e-04 -4.21440e-04 -4.20500e-02 -1.35680e-01 -3.17260e-04 -1.18130e-02 -4.11750e-04 -4.07720e-04 -4.03500e-02 -1.29800e-01 -2.98730e-04 -1.12210e-02 -4.06500e-04 -3.94410e-04 -3.86560e-02 -1.24070e-01 -2.80540e-04 -1.06290e-02 -4.00960e-04 -3.81510e-04 -3.69720e-02 -1.18490e-01 -2.62690e-04 -1.00380e-02 -3.95130e-04 -3.68980e-04 -3.53010e-02 -1.13050e-01 -2.45200e-04 -9.45000e-03 -3.89030e-04 -3.56810e-04 -3.36450e-02 -1.10770e-01 -6.99910e-04 -1.07040e-02 -3.67730e-04 -4.26820e-04 -3.43740e-02 -1.14780e-01 -2.37040e-03 -1.46950e-02 -2.90440e-04 -7.25170e-04 -3.87730e-02 -9.97750e-02 -6.21380e-04 -9.03130e-03 -4.87810e-04 -1.70590e-04 -3.04860e-02 -9.59960e-02 -8.10350e-04 -9.19160e-03 -5.51150e-04 -5.95900e-05 -2.98370e-02 -9.80960e-02 -2.04040e-03 -1.24700e-02 -5.94770e-04 -9.36920e-05 -3.32080e-02 -8.18630e-02 -6.23550e-05 -5.04390e-03 -4.80700e-04 -5.44560e-05 -2.28980e-02 -7.75460e-02 -3.82570e-05 -4.48060e-03 -3.30990e-04 -2.75080e-04 -2.13920e-02 -7.45200e-02 -1.18690e-04 -5.02740e-03 -3.31080e-04 -2.70670e-04 -2.12630e-02 -7.03060e-02 -1.04650e-04 -4.53010e-03 -3.22800e-04 -2.61090e-04 -1.98570e-02 -6.62220e-02 -9.10140e-05 -4.04890e-03 -3.14320e-04 -2.51740e-04 -1.84870e-02 -6.22660e-02 -7.77890e-05 -3.58500e-03 -3.05640e-04 -2.42600e-04 -1.71570e-02 -5.84380e-02 -6.49800e-05 -3.13930e-03 -2.96780e-04 -2.33670e-04 -1.58670e-02 -5.47370e-02 -5.25880e-05 -2.71260e-03 -2.87730e-04 -2.24930e-04 -1.46190e-02 -5.11610e-02 -4.06150e-05 -2.30580e-03 -2.78500e-04 -2.16380e-04 -1.34140e-02 -4.77100e-02 -2.90650e-05 -1.91960e-03 -2.69110e-04 -2.08000e-04 -1.22530e-02 -4.43840e-02 -1.79380e-05 -1.55470e-03 -2.59550e-04 -1.99800e-04 -1.11380e-02 -4.22770e-02 -7.51270e-05 -1.78970e-03 -2.58230e-04 -1.96650e-04 -1.08500e-02 -3.81010e-02 3.04260e-06 -8.91260e-04 -2.39980e-04 -1.83870e-04 -9.04830e-03 -3.51430e-02 1.28970e-05 -5.93870e-04 -2.29970e-04 -1.76120e-04 -8.07540e-03 -3.23060e-02 2.23310e-05 -3.19990e-04 -2.19820e-04 -1.68520e-04 -7.15170e-03 -2.85070e-02 9.98750e-05 2.92280e-04 -2.49370e-04 -9.26760e-05 -5.72800e-03 -2.44430e-02 4.96440e-04 2.18410e-03 -9.81520e-05 -1.83390e-04 -2.85360e-03 -2.30450e-02 4.30500e-04 1.94240e-03 -1.00580e-04 -1.77730e-04 -2.72700e-03 -2.09220e-02 3.88890e-04 1.98050e-03 -9.61100e-05 -1.66000e-04 -2.17260e-03 -1.89030e-02 3.49690e-04 1.99760e-03 -9.12690e-05 -1.54680e-04 -1.66380e-03 -1.69860e-02 3.12920e-04 1.99370e-03 -8.60220e-05 -1.43740e-04 -1.20110e-03 -1.58710e-02 2.62190e-04 1.83640e-03 -8.74900e-05 -1.39020e-04 -1.06010e-03 -1.41730e-02 7.84380e-05 9.21290e-04 -1.42300e-04 -1.05840e-04 -1.71360e-03 -1.28270e-02 7.56440e-05 8.77830e-04 -1.47500e-04 -8.96070e-05 -1.43090e-03 -1.05520e-02 9.82880e-05 1.05200e-03 -1.06970e-04 -9.54640e-05 -7.53860e-04 -9.03160e-03 1.05110e-04 1.04690e-03 -9.32480e-05 -8.72490e-05 -4.08390e-04 -7.63000e-03 1.11880e-04 1.01460e-03 -7.86580e-05 -7.85070e-05 -1.17910e-04 -5.80430e-03 1.41920e-04 9.66820e-04 -5.29380e-05 -6.37480e-05 2.29250e-04 -5.18020e-03 1.23530e-04 8.65310e-04 -4.69950e-05 -5.95680e-05 2.96920e-04 -4.12960e-03 1.25940e-04 7.45570e-04 -3.06740e-05 -4.99880e-05 4.21070e-04 -3.19150e-03 1.22690e-04 5.93510e-04 -1.53070e-05 -4.13400e-05 4.90310e-04 -2.36000e-03 1.08990e-04 4.07390e-04 -2.81570e-06 -3.50240e-05 5.06720e-04 -1.62450e-03 8.23300e-05 1.92490e-04 5.76430e-06 -3.22750e-05 4.74320e-04 -9.74430e-04 6.31650e-05 -1.54040e-05 1.24580e-05 -3.36310e-05 3.93200e-04 -4.18180e-04 1.59930e-04 -7.79420e-05 1.88770e-05 -4.05590e-05 2.29710e-04 -1.82300e-04 2.48720e-04 -1.91110e-05 2.32870e-05 -4.87550e-05 9.46150e-05 -6.29460e-01 -3.92690e-01 -3.88570e-01 9.49400e-02 2.38030e-03 2.97600e-02 -6.92670e-01 -2.58170e-01 -2.38950e-01 7.24410e-02 3.66460e-03 3.39730e-02 -7.15120e-01 -7.13010e-02 -5.00240e-02 3.07260e-02 4.32260e-03 2.03400e-02 -6.75040e-01 -1.21060e-02 -4.82770e-03 5.49220e-03 4.16880e-03 -1.42150e-03 -6.48820e-01 -8.26530e-03 -1.21280e-02 -1.22380e-03 4.31080e-03 -6.56650e-03 -5.36170e-01 2.36780e-02 7.02550e-03 -6.10310e-03 4.47610e-03 5.52650e-03 -5.84550e-01 6.02440e-03 -1.11590e-02 -4.95360e-03 2.74800e-03 -8.46370e-03 -6.02710e-01 -9.17150e-04 -1.77340e-02 -4.95040e-03 1.36780e-03 -1.85320e-02 -5.90150e-01 -1.27500e-04 -1.78610e-02 -4.44640e-03 3.80810e-04 -2.34450e-02 -5.78140e-01 -1.89230e-04 -1.80490e-02 -3.70200e-03 -3.56630e-04 -2.84120e-02 -5.65790e-01 1.23850e-04 -1.77470e-02 -2.95040e-03 -8.79810e-04 -3.33180e-02 -5.53640e-01 -1.23030e-04 -1.77720e-02 -2.25990e-03 -1.22460e-03 -3.79790e-02 -5.41250e-01 -3.37750e-05 -1.75840e-02 -1.68280e-03 -1.43360e-03 -4.23550e-02 -5.33080e-01 -8.74010e-04 -2.01120e-02 -1.35630e-03 -1.51250e-03 -5.05490e-02 -5.16650e-01 -2.39280e-04 -1.76630e-02 -8.80400e-04 -1.60010e-03 -5.00780e-02 -5.04430e-01 -3.92620e-04 -1.78400e-02 -6.31890e-04 -1.61010e-03 -5.34220e-02 -4.92210e-01 -3.86460e-04 -1.79640e-02 -4.56840e-04 -1.59030e-03 -5.64360e-02 -4.80130e-01 -4.77060e-04 -1.81980e-02 -3.43100e-04 -1.55700e-03 -5.91290e-02 -4.68110e-01 -4.67740e-04 -1.83970e-02 -2.70390e-04 -1.51250e-03 -6.15210e-02 -4.56230e-01 -5.15210e-04 -1.86540e-02 -2.30590e-04 -1.46540e-03 -6.36250e-02 -4.44460e-01 -5.02060e-04 -1.88800e-02 -2.10560e-04 -1.41500e-03 -6.54600e-02 -4.29660e-01 -2.84500e-04 -1.67530e-02 -1.95390e-04 -1.35380e-03 -6.29610e-02 -4.21350e-01 -5.08650e-04 -1.93500e-02 -2.09550e-04 -1.31630e-03 -6.83740e-02 -4.10020e-01 -5.15270e-04 -1.95710e-02 -2.19360e-04 -1.26900e-03 -6.94800e-02 -3.98840e-01 -5.00650e-04 -1.97590e-02 -2.31540e-04 -1.22260e-03 -7.03700e-02 -3.87820e-01 -4.99330e-04 -1.99350e-02 -2.45670e-04 -1.17840e-03 -7.10540e-02 -3.74220e-01 -3.28200e-04 -1.76730e-02 -2.54820e-04 -1.12460e-03 -6.76850e-02 -3.66250e-01 -4.80000e-04 -2.01940e-02 -2.74120e-04 -1.09440e-03 -7.18520e-02 -3.55720e-01 -4.67090e-04 -2.02770e-02 -2.87660e-04 -1.05470e-03 -7.19850e-02 -3.45360e-01 -4.59260e-04 -2.03300e-02 -3.00720e-04 -1.01670e-03 -7.19560e-02 -3.35170e-01 -4.47030e-04 -2.03470e-02 -3.12870e-04 -9.79980e-04 -7.17730e-02 -3.25160e-01 -4.37880e-04 -2.03310e-02 -3.24380e-04 -9.44860e-04 -7.14450e-02 -3.15320e-01 -4.26060e-04 -2.02780e-02 -3.35050e-04 -9.11010e-04 -7.09820e-02 -3.05650e-01 -4.16070e-04 -2.01910e-02 -3.45080e-04 -8.78580e-04 -7.03920e-02 -2.96160e-01 -4.04460e-04 -2.00680e-02 -3.54350e-04 -8.47370e-04 -6.96850e-02 -2.89020e-01 -5.55530e-04 -2.22870e-02 -3.70200e-04 -8.26560e-04 -7.21690e-02 -2.46120e-01 4.99430e-03 -1.09440e-02 -2.73340e-04 -5.30600e-04 -5.36660e-02 -2.39840e-01 4.78380e-03 -1.30590e-02 -2.88790e-04 -5.16150e-04 -5.59860e-02 -2.59950e-01 -3.59960e-04 -1.92320e-02 -3.85150e-04 -7.34650e-04 -6.58340e-02 -2.51340e-01 -3.48810e-04 -1.89410e-02 -3.91330e-04 -7.09240e-04 -6.46540e-02 -2.42900e-01 -3.37290e-04 -1.86190e-02 -3.96900e-04 -6.84850e-04 -6.34010e-02 -2.34630e-01 -3.26000e-04 -1.82690e-02 -4.01900e-04 -6.61440e-04 -6.20820e-02 -2.28410e-01 -4.60830e-04 -2.00790e-02 -4.14800e-04 -6.47140e-04 -6.35380e-02 -2.18610e-01 -3.03160e-04 -1.74860e-02 -4.10130e-04 -6.17370e-04 -5.92700e-02 -2.10850e-01 -2.91720e-04 -1.70580e-02 -4.13380e-04 -5.96630e-04 -5.77900e-02 -2.03260e-01 -2.80400e-04 -1.66070e-02 -4.16060e-04 -5.76710e-04 -5.62680e-02 -1.95830e-01 -2.69060e-04 -1.61350e-02 -4.18170e-04 -5.57550e-04 -5.47090e-02 -1.88570e-01 -2.57840e-04 -1.56440e-02 -4.19720e-04 -5.39130e-04 -5.31180e-02 -1.81470e-01 -2.46640e-04 -1.51350e-02 -4.20720e-04 -5.21410e-04 -5.15010e-02 -1.74530e-01 -2.35570e-04 -1.46120e-02 -4.21170e-04 -5.04360e-04 -4.98620e-02 -1.65980e-01 -2.28750e-04 -1.25470e-02 -7.80200e-04 -1.36260e-04 -4.61630e-02 -1.60540e-01 -2.16080e-04 -1.30330e-02 -5.38490e-04 -3.56620e-04 -4.58780e-02 -1.54650e-01 -2.02940e-04 -1.29690e-02 -4.19340e-04 -4.56870e-04 -4.48600e-02 -1.48330e-01 -1.92320e-04 -1.24030e-02 -4.17700e-04 -4.42170e-04 -4.31770e-02 -1.42160e-01 -1.81830e-04 -1.18310e-02 -4.15560e-04 -4.27970e-04 -4.14930e-02 -1.36140e-01 -1.71490e-04 -1.12560e-02 -4.12940e-04 -4.14270e-04 -3.98120e-02 -1.30270e-01 -1.61300e-04 -1.06780e-02 -4.09830e-04 -4.01020e-04 -3.81370e-02 -1.24550e-01 -1.51280e-04 -1.00990e-02 -4.06270e-04 -3.88210e-04 -3.64710e-02 -1.18970e-01 -1.41430e-04 -9.52150e-03 -4.02250e-04 -3.75810e-04 -3.48180e-02 -1.13530e-01 -1.31750e-04 -8.94680e-03 -3.97790e-04 -3.63810e-04 -3.31790e-02 -1.12270e-01 -8.56540e-04 -1.06040e-02 -4.22270e-04 -3.93960e-04 -3.44420e-02 -1.15150e-01 -2.33700e-03 -1.44510e-02 -4.76780e-04 -4.64820e-04 -3.84960e-02 -1.09280e-01 -2.24390e-03 -1.37660e-02 -7.32780e-04 -2.55950e-04 -3.67250e-02 -9.31780e-02 -9.49380e-05 -6.70720e-03 -3.75820e-04 -3.19280e-04 -2.68310e-02 -8.84310e-02 -8.62310e-05 -6.16940e-03 -3.69350e-04 -3.08930e-04 -2.53070e-02 -8.38180e-02 -7.77320e-05 -5.64320e-03 -3.62520e-04 -2.98850e-04 -2.38130e-02 -7.80170e-02 2.23710e-05 -4.07700e-03 -3.44650e-04 -2.82640e-04 -2.10440e-02 -7.49880e-02 -6.13730e-05 -4.63040e-03 -3.47830e-04 -2.79470e-04 -2.09240e-02 -7.07680e-02 -5.35200e-05 -4.14610e-03 -3.39990e-04 -2.70140e-04 -1.95310e-02 -6.66780e-02 -4.58890e-05 -3.67800e-03 -3.31830e-04 -2.61020e-04 -1.81760e-02 -6.27160e-02 -3.84830e-05 -3.22710e-03 -3.23380e-04 -2.52100e-04 -1.68590e-02 -5.88810e-02 -3.13040e-05 -2.79440e-03 -3.14640e-04 -2.43380e-04 -1.55830e-02 -5.51720e-02 -2.43550e-05 -2.38060e-03 -3.05620e-04 -2.34840e-04 -1.43480e-02 -5.15890e-02 -1.76370e-05 -1.98670e-03 -2.96330e-04 -2.26480e-04 -1.31560e-02 -4.81290e-02 -1.11520e-05 -1.61340e-03 -2.86790e-04 -2.18270e-04 -1.20090e-02 -4.47940e-02 -4.90220e-06 -1.26140e-03 -2.77010e-04 -2.10210e-04 -1.09060e-02 -4.26820e-02 -6.47790e-05 -1.50300e-03 -2.78070e-04 -2.08300e-04 -1.06250e-02 -3.84920e-02 6.89050e-06 -6.23630e-04 -2.56770e-04 -1.94520e-04 -8.84160e-03 -3.55240e-02 1.24330e-05 -3.39040e-04 -2.46330e-04 -1.86870e-04 -7.88100e-03 -3.26770e-02 1.77390e-05 -7.79570e-05 -2.35680e-04 -1.79330e-04 -6.96930e-03 -2.99510e-02 2.28150e-05 1.59190e-04 -2.24840e-04 -1.71900e-04 -6.10750e-03 -2.46990e-02 5.05910e-04 2.39260e-03 -1.52540e-04 -1.30220e-04 -2.71070e-03 -2.37430e-02 2.87600e-04 1.59800e-03 -1.53680e-04 -1.42560e-04 -3.24590e-03 -2.21030e-02 1.48020e-04 1.22020e-03 -1.49300e-04 -1.45910e-04 -3.21820e-03 -1.99280e-02 1.36260e-04 1.31240e-03 -1.40420e-04 -1.38360e-04 -2.61570e-03 -1.77910e-02 1.86280e-04 1.63590e-03 -1.30610e-04 -1.27710e-04 -1.76110e-03 -1.60940e-02 2.58990e-04 1.99130e-03 -1.23710e-04 -1.18750e-04 -9.58860e-04 -1.48470e-02 3.72060e-05 9.21900e-04 -2.03690e-04 -1.28810e-04 -1.84780e-03 -1.24550e-02 5.66680e-05 1.15830e-03 -1.29000e-04 -1.13600e-04 -1.07450e-03 -1.08030e-02 6.05180e-05 1.16760e-03 -1.14960e-04 -1.05610e-04 -6.84490e-04 -9.26830e-03 6.44390e-05 1.15050e-03 -1.00020e-04 -9.70870e-05 -3.48490e-04 -7.85070e-03 6.83980e-05 1.10660e-03 -8.39760e-05 -8.78980e-05 -6.66060e-05 -5.99850e-03 9.51880e-05 1.04240e-03 -5.33240e-05 -7.10630e-05 2.69790e-04 -5.36320e-03 7.56830e-05 9.35290e-04 -4.82420e-05 -6.73280e-05 3.34680e-04 -4.29030e-03 7.77070e-05 8.05570e-04 -2.90630e-05 -5.63680e-05 4.54170e-04 -3.32770e-03 7.61590e-05 6.44150e-04 -1.05110e-05 -4.59500e-05 5.20000e-04 -2.47030e-03 6.79830e-05 4.50770e-04 4.70110e-06 -3.76760e-05 5.33090e-04 -1.71050e-03 4.76910e-05 2.28920e-04 1.18460e-05 -3.40860e-05 4.96510e-04 -1.03390e-03 2.51250e-05 1.15050e-05 1.25030e-05 -3.55280e-05 4.11370e-04 -4.44110e-04 1.12390e-04 -5.63810e-05 1.65650e-05 -4.13790e-05 2.39210e-04 -1.89790e-04 1.94800e-04 4.37310e-06 2.41920e-05 -4.85150e-05 9.54880e-05 -6.56590e-01 -3.52840e-01 -3.78600e-01 1.50070e-01 1.33730e-03 4.98420e-03 -7.02160e-01 -1.72210e-01 -2.00560e-01 8.45330e-02 2.62890e-03 1.04950e-02 -6.70570e-01 -1.69700e-02 -1.34130e-02 9.78760e-03 3.37340e-03 2.49550e-03 -6.31860e-01 -1.26770e-03 -2.26460e-03 -3.26910e-03 3.35380e-03 -1.19190e-02 -6.13370e-01 -1.30320e-03 -7.95130e-03 -4.21250e-03 4.12110e-03 -1.32000e-02 -5.14110e-01 2.22400e-02 6.97930e-03 -4.37090e-03 3.71280e-03 1.75920e-03 -5.63200e-01 7.36600e-03 -8.23420e-03 -4.44300e-03 2.40990e-03 -1.02410e-02 -5.84130e-01 6.10920e-04 -1.45540e-02 -3.60570e-03 1.27720e-03 -1.87390e-02 -5.75630e-01 5.83690e-04 -1.49580e-02 -2.77030e-03 5.38480e-04 -2.25780e-02 -5.66640e-01 5.05200e-04 -1.49250e-02 -2.02070e-03 -2.34590e-05 -2.69260e-02 -5.56740e-01 5.40360e-04 -1.47580e-02 -1.33570e-03 -3.81370e-04 -3.14390e-02 -5.46380e-01 3.75960e-04 -1.46920e-02 -7.92340e-04 -6.12290e-04 -3.59040e-02 -5.35350e-01 4.05120e-04 -1.45730e-02 -3.63580e-04 -7.39160e-04 -4.01710e-02 -5.27730e-01 -2.49610e-04 -1.69770e-02 -1.64490e-04 -7.81300e-04 -4.83610e-02 -5.12440e-01 2.84280e-04 -1.46810e-02 1.65710e-04 -8.22700e-04 -4.78490e-02 -5.00750e-01 1.86290e-04 -1.48710e-02 3.08470e-04 -8.16700e-04 -5.12060e-02 -4.88920e-01 2.00060e-04 -1.50390e-02 3.96490e-04 -7.94430e-04 -5.42390e-02 -4.77150e-01 1.37260e-04 -1.53030e-02 4.42190e-04 -7.64110e-04 -5.69580e-02 -4.65370e-01 1.46510e-04 -1.55440e-02 4.59280e-04 -7.29580e-04 -5.93770e-02 -4.53710e-01 1.07360e-04 -1.58380e-02 4.56130e-04 -6.93890e-04 -6.15110e-02 -4.42120e-01 1.12940e-04 -1.61070e-02 4.40000e-04 -6.58470e-04 -6.33750e-02 -4.27560e-01 3.05580e-04 -1.40420e-02 4.22790e-04 -6.17470e-04 -6.09160e-02 -4.19330e-01 9.09900e-05 -1.66590e-02 3.86590e-04 -5.91460e-04 -6.63530e-02 -4.08140e-01 7.49950e-05 -1.69220e-02 3.55170e-04 -5.60410e-04 -6.74930e-02 -3.97100e-01 7.54830e-05 -1.71540e-02 3.22720e-04 -5.31180e-04 -6.84180e-02 -3.86210e-01 6.45510e-05 -1.73730e-02 2.90450e-04 -5.03570e-04 -6.91380e-02 -3.72800e-01 2.06700e-04 -1.51730e-02 2.62550e-04 -4.72250e-04 -6.58220e-02 -3.64900e-01 5.57140e-05 -1.77210e-02 2.28020e-04 -4.53270e-04 -7.00110e-02 -3.54490e-01 5.39050e-05 -1.78480e-02 1.98370e-04 -4.30390e-04 -7.01830e-02 -3.44240e-01 4.79680e-05 -1.79460e-02 1.70010e-04 -4.08860e-04 -7.01930e-02 -3.34160e-01 4.57650e-05 -1.80080e-02 1.42790e-04 -3.88710e-04 -7.00490e-02 -3.24260e-01 4.11460e-05 -1.80370e-02 1.16820e-04 -3.69770e-04 -6.97620e-02 -3.14520e-01 3.88590e-05 -1.80300e-02 9.19760e-05 -3.52080e-04 -6.93390e-02 -3.04950e-01 3.51970e-05 -1.79880e-02 6.83100e-05 -3.35490e-04 -6.87890e-02 -2.95550e-01 3.30220e-05 -1.79100e-02 4.57060e-05 -3.20020e-04 -6.81210e-02 -2.88460e-01 -1.18210e-04 -2.01550e-02 1.72870e-05 -3.10150e-04 -7.06290e-02 -2.46050e-01 5.09000e-03 -8.66830e-03 5.23330e-05 -8.00550e-05 -5.21530e-02 -2.39810e-01 4.88460e-03 -1.08130e-02 2.57130e-05 -7.56180e-05 -5.44950e-02 -2.59670e-01 2.41210e-05 -1.72550e-02 -3.41570e-05 -2.67830e-04 -6.44260e-02 -2.51130e-01 2.22690e-05 -1.70090e-02 -5.16070e-05 -2.56950e-04 -6.32840e-02 -2.42760e-01 2.08680e-05 -1.67320e-02 -6.81020e-05 -2.46850e-04 -6.20690e-02 -2.34560e-01 1.94220e-05 -1.64260e-02 -8.36350e-05 -2.37470e-04 -6.07860e-02 -2.28370e-01 -1.17020e-04 -1.82600e-02 -1.06970e-04 -2.33220e-04 -6.22640e-02 -2.18650e-01 1.71910e-05 -1.57310e-02 -1.11920e-04 -2.20680e-04 -5.80470e-02 -2.10950e-01 1.63220e-05 -1.53460e-02 -1.24700e-04 -2.13190e-04 -5.66020e-02 -2.03400e-01 1.55050e-05 -1.49380e-02 -1.36600e-04 -2.06250e-04 -5.51140e-02 -1.96020e-01 1.48660e-05 -1.45090e-02 -1.47620e-04 -1.99810e-04 -5.35890e-02 -1.88810e-01 1.42920e-05 -1.40610e-02 -1.57800e-04 -1.93840e-04 -5.20320e-02 -1.81750e-01 1.38570e-05 -1.35950e-02 -1.67140e-04 -1.88300e-04 -5.04480e-02 -1.74840e-01 1.34890e-05 -1.31130e-02 -1.75680e-04 -1.83160e-04 -4.88410e-02 -1.68100e-01 1.32290e-05 -1.26180e-02 -1.83420e-04 -1.78380e-04 -4.72160e-02 -1.59900e-01 1.32050e-04 -1.03150e-02 -1.80060e-04 -1.69380e-04 -4.33570e-02 -1.55060e-01 1.29240e-05 -1.15930e-02 -1.96600e-04 -1.69810e-04 -4.39300e-02 -1.48770e-01 1.28710e-05 -1.10680e-02 -2.02080e-04 -1.65960e-04 -4.22770e-02 -1.42630e-01 1.28890e-05 -1.05360e-02 -2.06850e-04 -1.62350e-04 -4.06220e-02 -1.36640e-01 1.29560e-05 -9.99980e-03 -2.10930e-04 -1.58980e-04 -3.89700e-02 -1.30790e-01 1.30780e-05 -9.46070e-03 -2.14340e-04 -1.55810e-04 -3.73220e-02 -1.25080e-01 1.32430e-05 -8.92050e-03 -2.17110e-04 -1.52820e-04 -3.56830e-02 -1.19520e-01 1.34510e-05 -8.38110e-03 -2.19250e-04 -1.49990e-04 -3.40560e-02 -1.14100e-01 1.36950e-05 -7.84400e-03 -2.20780e-04 -1.47310e-04 -3.24440e-02 -1.12790e-01 -6.75660e-04 -9.56320e-03 -2.41020e-04 -1.78090e-04 -3.37380e-02 -1.15550e-01 -2.07710e-03 -1.34940e-02 -2.81780e-04 -2.41450e-04 -3.78280e-02 -9.86600e-02 1.46060e-05 -6.26250e-03 -2.21940e-04 -1.39920e-04 -2.77220e-02 -9.37860e-02 1.49570e-05 -5.75020e-03 -2.21250e-04 -1.37630e-04 -2.61940e-02 -8.90450e-02 1.53260e-05 -5.24770e-03 -2.20060e-04 -1.35400e-04 -2.46950e-02 -8.44370e-02 1.57100e-05 -4.75630e-03 -2.18390e-04 -1.33220e-04 -2.32240e-02 -7.86410e-02 1.02720e-04 -3.24010e-03 -2.04460e-04 -1.26050e-04 -2.04870e-02 -7.56120e-02 1.65120e-05 -3.81180e-03 -2.13660e-04 -1.28950e-04 -2.03790e-02 -7.13940e-02 1.69250e-05 -3.36100e-03 -2.10650e-04 -1.26840e-04 -1.90090e-02 -6.73030e-02 1.73420e-05 -2.92600e-03 -2.07230e-04 -1.24730e-04 -1.76750e-02 -6.33390e-02 1.77610e-05 -2.50770e-03 -2.03420e-04 -1.22610e-04 -1.63800e-02 -5.95010e-02 1.81820e-05 -2.10720e-03 -1.99230e-04 -1.20480e-04 -1.51240e-02 -5.57880e-02 1.86000e-05 -1.72520e-03 -1.94700e-04 -1.18330e-04 -1.39100e-02 -5.22000e-02 1.90160e-05 -1.36260e-03 -1.89820e-04 -1.16140e-04 -1.27390e-02 -4.87340e-02 1.94280e-05 -1.02020e-03 -1.84630e-04 -1.13920e-04 -1.16110e-02 -4.53920e-02 1.98340e-05 -6.98680e-04 -1.79130e-04 -1.11660e-04 -1.05290e-02 -4.22750e-02 1.07640e-04 -1.96840e-04 -1.40680e-04 -1.11010e-04 -9.31630e-03 -3.73630e-02 6.01180e-04 2.03990e-03 1.74020e-05 -1.03280e-04 -6.07990e-03 -3.60950e-02 2.10050e-05 1.34560e-04 -1.60980e-04 -1.04570e-04 -7.56150e-03 -3.32380e-02 2.13780e-05 3.66740e-04 -1.54430e-04 -1.02100e-04 -6.66890e-03 -3.05010e-02 2.17430e-05 5.75370e-04 -1.47640e-04 -9.95550e-05 -5.82600e-03 -2.52780e-02 4.79660e-04 2.81170e-03 -9.45000e-05 -7.06450e-05 -2.42330e-03 -2.45290e-02 1.77860e-04 1.58870e-03 -1.17470e-04 -8.54670e-05 -3.44690e-03 -2.30080e-02 2.27970e-05 1.05640e-03 -1.25980e-04 -9.14730e-05 -3.60160e-03 -2.07480e-02 2.31490e-05 1.16750e-03 -1.18310e-04 -8.85900e-05 -2.96350e-03 -1.86230e-02 8.87370e-05 1.57140e-03 -1.04950e-04 -8.38380e-05 -2.01700e-03 -1.65950e-02 2.30900e-04 2.29060e-03 -8.43570e-05 -7.70750e-05 -7.49790e-04 -1.46790e-02 2.43240e-05 1.34990e-03 -9.36840e-05 -7.90230e-05 -1.36590e-03 -1.28910e-02 2.48130e-05 1.35990e-03 -8.47380e-05 -7.53590e-05 -9.39850e-04 -1.12210e-02 2.53720e-05 1.34440e-03 -7.52560e-05 -7.13270e-05 -5.67230e-04 -9.66720e-03 2.60470e-05 1.30300e-03 -6.50940e-05 -6.68150e-05 -2.47990e-04 -8.22830e-03 2.68160e-05 1.23550e-03 -5.40720e-05 -6.17050e-05 1.81000e-05 -6.34030e-03 4.92530e-05 1.13870e-03 -2.78600e-05 -4.91750e-05 3.34170e-04 -5.68840e-03 2.85390e-05 1.02000e-03 -2.88240e-05 -4.93090e-05 3.92790e-04 -4.58150e-03 2.90590e-05 8.70320e-04 -1.46450e-05 -4.20760e-05 5.02930e-04 -3.57750e-03 2.85880e-05 6.91500e-04 -3.35820e-07 -3.46500e-05 5.62920e-04 -2.67120e-03 2.51050e-05 4.83570e-04 1.18010e-05 -2.80010e-05 5.74000e-04 -1.85760e-03 1.77400e-05 2.54410e-04 1.62930e-05 -2.43770e-05 5.36110e-04 -1.13670e-03 -1.97880e-06 2.20680e-05 6.21620e-06 -2.64800e-05 4.49380e-04 -5.03710e-04 5.27690e-05 -7.55500e-05 7.98290e-07 -2.88870e-05 2.74240e-04 -2.27350e-04 1.11940e-04 -2.82230e-05 8.23830e-06 -3.07580e-05 1.21560e-04 -7.55500e-01 -3.25690e-01 -3.80900e-01 2.09030e-01 5.72730e-04 -2.07800e-02 -7.20750e-01 -1.04480e-01 -1.65180e-01 7.70700e-02 3.75830e-03 -1.38550e-02 -6.06950e-01 2.69220e-03 1.07900e-02 -1.46870e-02 3.68100e-03 -1.50120e-02 -6.01610e-01 -5.25970e-03 -7.70780e-03 -2.77170e-03 4.64900e-03 -2.26900e-02 -5.84810e-01 9.76640e-04 -1.96430e-03 -6.53860e-03 5.32490e-03 -1.92400e-02 -4.98760e-01 2.53580e-02 1.18330e-02 -3.91030e-03 3.93710e-03 -2.91960e-04 -5.48900e-01 5.32450e-03 -6.54900e-03 -3.22560e-03 3.70270e-03 -1.06900e-02 -5.72700e-01 -1.50190e-04 -1.25480e-02 -1.79500e-03 3.14960e-03 -1.80040e-02 -5.66610e-01 4.46230e-04 -1.17130e-02 -1.52780e-03 2.59850e-03 -2.11490e-02 -5.60140e-01 1.83430e-04 -1.21730e-02 -6.86580e-04 2.19800e-03 -2.51560e-02 -5.51680e-01 4.60680e-04 -1.16080e-02 -3.87910e-04 1.92800e-03 -2.95270e-02 -5.42590e-01 2.95660e-04 -1.17350e-02 3.76050e-05 1.75110e-03 -3.39520e-02 -5.32310e-01 4.29700e-04 -1.15130e-02 2.11370e-04 1.63530e-03 -3.82320e-02 -5.25110e-01 -2.88780e-04 -1.40860e-02 3.66260e-04 1.59760e-03 -4.64350e-02 -5.10400e-01 3.84450e-04 -1.17200e-02 4.60150e-04 1.51190e-03 -4.59850e-02 -4.99010e-01 3.09950e-04 -1.19770e-02 5.15620e-04 1.47810e-03 -4.93830e-02 -4.87390e-01 3.42400e-04 -1.21730e-02 5.13550e-04 1.45130e-03 -5.24540e-02 -4.75780e-01 2.92810e-04 -1.24890e-02 5.05940e-04 1.42940e-03 -5.52090e-02 -4.64140e-01 3.08330e-04 -1.27660e-02 4.72000e-04 1.40820e-03 -5.76610e-02 -4.52590e-01 2.75120e-04 -1.31030e-02 4.37450e-04 1.38780e-03 -5.98270e-02 -4.41100e-01 2.81660e-04 -1.34090e-02 3.91690e-04 1.36610e-03 -6.17230e-02 -4.26680e-01 4.71950e-04 -1.13950e-02 3.52540e-04 1.33150e-03 -5.93080e-02 -4.18500e-01 2.60430e-04 -1.40400e-02 3.00690e-04 1.32040e-03 -6.47630e-02 -4.07400e-01 2.44210e-04 -1.43430e-02 2.56540e-04 1.29620e-03 -6.59360e-02 -3.96440e-01 2.42840e-04 -1.46140e-02 2.11570e-04 1.27060e-03 -6.68930e-02 -3.85640e-01 2.30680e-04 -1.48720e-02 1.70070e-04 1.24450e-03 -6.76470e-02 -3.72340e-01 3.60630e-04 -1.27280e-02 1.37160e-04 1.20610e-03 -6.43760e-02 -3.64480e-01 2.18020e-04 -1.53000e-02 9.14210e-05 1.18980e-03 -6.85870e-02 -3.54150e-01 2.14000e-04 -1.54670e-02 5.48690e-05 1.16150e-03 -6.87930e-02 -3.43970e-01 2.06010e-04 -1.56070e-02 2.10800e-05 1.13290e-03 -6.88370e-02 -3.33960e-01 2.01490e-04 -1.57100e-02 -1.12870e-05 1.10370e-03 -6.87270e-02 -3.24120e-01 1.94580e-04 -1.57810e-02 -4.12550e-05 1.07440e-03 -6.84730e-02 -3.14440e-01 1.89840e-04 -1.58150e-02 -6.97260e-05 1.04470e-03 -6.80830e-02 -3.04930e-01 1.83680e-04 -1.58160e-02 -9.60890e-05 1.01490e-03 -6.75660e-02 -2.95590e-01 1.78890e-04 -1.57800e-02 -1.20950e-04 9.84870e-04 -6.69300e-02 -2.88520e-01 3.15500e-05 -1.80500e-02 -1.54560e-04 9.64290e-04 -6.94560e-02 -2.46560e-01 4.78640e-03 -6.89120e-03 -6.15250e-05 8.43980e-04 -5.09510e-02 -2.40340e-01 4.59060e-03 -9.05950e-03 -9.23870e-05 8.25860e-04 -5.33120e-02 -2.59900e-01 1.58760e-04 -1.52950e-02 -2.03630e-04 8.64680e-04 -6.33590e-02 -2.51400e-01 1.53920e-04 -1.50910e-02 -2.20460e-04 8.34820e-04 -6.22460e-02 -2.43070e-01 1.49470e-04 -1.48570e-02 -2.35940e-04 8.05080e-04 -6.10590e-02 -2.34900e-01 1.44910e-04 -1.45930e-02 -2.49980e-04 7.75570e-04 -5.98050e-02 -2.28730e-01 1.12850e-05 -1.64530e-02 -2.75550e-04 7.53590e-04 -6.12990e-02 -2.19060e-01 1.36320e-04 -1.39830e-02 -2.74170e-04 7.17260e-04 -5.71200e-02 -2.11380e-01 1.32210e-04 -1.36400e-02 -2.84390e-04 6.88540e-04 -5.57020e-02 -2.03870e-01 1.28120e-04 -1.32740e-02 -2.93410e-04 6.60170e-04 -5.42390e-02 -1.96510e-01 1.24180e-04 -1.28860e-02 -3.01290e-04 6.32150e-04 -5.27390e-02 -1.89320e-01 1.20290e-04 -1.24790e-02 -3.08050e-04 6.04530e-04 -5.12060e-02 -1.82280e-01 1.16520e-04 -1.20540e-02 -3.13770e-04 5.77330e-04 -4.96450e-02 -1.75390e-01 1.12810e-04 -1.16140e-02 -3.18460e-04 5.50560e-04 -4.80620e-02 -1.68660e-01 1.09200e-04 -1.11590e-02 -3.22190e-04 5.24260e-04 -4.64600e-02 -1.60490e-01 2.20040e-04 -8.91210e-03 -3.10650e-04 4.93800e-04 -4.26320e-02 -1.55660e-01 1.02210e-04 -1.02140e-02 -3.26890e-04 4.73120e-04 -4.32170e-02 -1.49380e-01 9.88210e-05 -9.72810e-03 -3.27940e-04 4.48320e-04 -4.15850e-02 -1.43250e-01 9.55210e-05 -9.23550e-03 -3.28190e-04 4.24040e-04 -3.99510e-02 -1.37260e-01 9.22870e-05 -8.73800e-03 -3.27660e-04 4.00320e-04 -3.83180e-02 -1.31420e-01 8.91320e-05 -8.23730e-03 -3.26410e-04 3.77140e-04 -3.66900e-02 -1.25720e-01 8.60440e-05 -7.73530e-03 -3.24460e-04 3.54540e-04 -3.50700e-02 -1.20160e-01 8.30300e-05 -7.23350e-03 -3.21850e-04 3.32510e-04 -3.34610e-02 -1.14740e-01 8.00830e-05 -6.73370e-03 -3.18620e-04 3.11070e-04 -3.18670e-02 -1.13380e-01 -5.53520e-04 -8.45140e-03 -3.42000e-04 2.95000e-04 -3.31930e-02 -1.16030e-01 -1.84090e-03 -1.23410e-02 -3.93720e-04 2.82910e-04 -3.73280e-02 -9.93070e-02 7.16600e-05 -5.26160e-03 -3.05540e-04 2.50340e-04 -2.71970e-02 -9.44310e-02 6.89870e-05 -4.78500e-03 -3.00160e-04 2.31320e-04 -2.56870e-02 -8.96880e-02 6.63820e-05 -4.31780e-03 -2.94320e-04 2.12910e-04 -2.42030e-02 -8.50760e-02 6.38440e-05 -3.86120e-03 -2.88060e-04 1.95120e-04 -2.27490e-02 -7.92740e-02 1.45110e-04 -2.39400e-03 -2.66210e-04 1.77400e-04 -2.00350e-02 -7.62420e-02 5.89690e-05 -2.98520e-03 -2.74370e-04 1.61420e-04 -1.99360e-02 -7.20170e-02 5.66330e-05 -2.56800e-03 -2.66990e-04 1.45500e-04 -1.85810e-02 -6.79190e-02 5.43620e-05 -2.16610e-03 -2.59310e-04 1.30220e-04 -1.72620e-02 -6.39480e-02 5.21580e-05 -1.78060e-03 -2.51340e-04 1.15570e-04 -1.59820e-02 -6.01010e-02 5.00230e-05 -1.41230e-03 -2.43100e-04 1.01540e-04 -1.47410e-02 -5.63790e-02 4.79530e-05 -1.06220e-03 -2.34630e-04 8.81500e-05 -1.35420e-02 -5.27800e-02 4.59520e-05 -7.31110e-04 -2.25950e-04 7.53850e-05 -1.23860e-02 -4.93040e-02 4.40190e-05 -4.19740e-04 -2.17070e-04 6.32470e-05 -1.12730e-02 -4.59500e-02 4.21540e-05 -1.28810e-04 -2.08030e-04 5.17370e-05 -1.02050e-02 -4.20800e-02 2.28580e-04 7.76600e-04 -1.90890e-04 4.03030e-05 -8.41900e-03 -3.76750e-02 6.20280e-04 2.33280e-03 -1.63870e-04 2.98430e-05 -5.90460e-03 -3.66170e-02 3.69780e-05 6.15170e-04 -1.80110e-04 2.09460e-05 -7.28080e-03 -3.37460e-02 3.53940e-05 8.18430e-04 -1.70610e-04 1.19220e-05 -6.40270e-03 -3.09950e-02 3.38840e-05 9.98580e-04 -1.61040e-04 3.51460e-06 -5.57420e-03 -2.57830e-02 4.58380e-04 3.18930e-03 -1.06130e-04 -4.61060e-07 -2.16660e-03 -2.50020e-02 1.76040e-04 1.95030e-03 -1.26070e-04 -9.75130e-06 -3.21780e-03 -2.34580e-02 2.98030e-05 1.39660e-03 -1.32070e-04 -1.80210e-05 -3.39340e-03 -2.11830e-02 2.86020e-05 1.48090e-03 -1.22360e-04 -2.39660e-05 -2.77000e-03 -1.90490e-02 8.84110e-05 1.86340e-03 -1.09650e-04 -3.02170e-05 -1.82900e-03 -1.70180e-02 2.20660e-04 2.56610e-03 -9.20800e-05 -3.59130e-05 -5.58390e-04 -1.50650e-02 2.55350e-05 1.58540e-03 -9.30000e-05 -3.79710e-05 -1.21710e-03 -1.32610e-02 2.47000e-05 1.57030e-03 -8.30560e-05 -4.12870e-05 -8.06150e-04 -1.15730e-02 2.39740e-05 1.53010e-03 -7.29250e-05 -4.38500e-05 -4.48620e-04 -1.00000e-02 2.33210e-05 1.46450e-03 -6.25500e-05 -4.56130e-05 -1.44370e-04 -8.54200e-03 2.27680e-05 1.37350e-03 -5.17450e-05 -4.64720e-05 1.07080e-04 -6.62290e-03 4.26250e-05 1.24380e-03 -2.50920e-05 -4.08150e-05 4.03500e-04 -5.95620e-03 2.15190e-05 1.11290e-03 -2.84420e-05 -4.52180e-05 4.55250e-04 -4.82040e-03 2.01790e-05 9.41490e-04 -1.59920e-05 -4.30890e-05 5.55120e-04 -3.77980e-03 1.84170e-05 7.42600e-04 -3.03450e-06 -3.98870e-05 6.08390e-04 -2.82840e-03 1.31890e-05 5.14350e-04 7.47710e-06 -3.66670e-05 6.18040e-04 -1.95750e-03 7.44490e-06 2.68710e-04 1.31630e-05 -3.37460e-05 5.84190e-04 -1.18830e-03 -1.20270e-05 1.41500e-05 -2.92600e-06 -3.77050e-05 5.01440e-04 -5.30550e-04 2.12200e-05 -1.20150e-04 -1.89080e-05 -3.97970e-05 3.24870e-04 -2.49630e-04 6.56560e-05 -9.09620e-05 -1.56090e-05 -3.86020e-05 1.64760e-04 -9.85070e-01 -3.84250e-01 -4.28090e-01 -2.35620e-01 -9.24800e-03 5.57990e-02 -9.47770e-01 -1.11770e-01 -1.38040e-01 -8.27740e-02 -2.34500e-04 5.62980e-03 -7.78370e-01 1.12320e-02 3.04410e-02 1.16470e-02 2.94900e-03 -3.72270e-02 -7.79500e-01 -1.34650e-02 -1.05800e-02 -1.28090e-03 -2.65540e-03 -3.77780e-02 -7.62440e-01 -1.50100e-03 2.23310e-04 8.13990e-03 -2.23570e-03 -3.71680e-02 -7.64890e-01 2.65310e-03 -2.18730e-03 6.16110e-03 -2.09670e-03 -3.09790e-02 -7.58800e-01 -2.33650e-03 -7.35770e-03 4.72070e-03 -1.44250e-03 -4.21380e-02 -7.53810e-01 -2.64600e-03 -9.90870e-03 2.38460e-03 -1.19000e-03 -4.74080e-02 -7.43900e-01 -2.01000e-03 -9.88920e-03 2.22310e-03 -7.40440e-04 -5.36220e-02 -7.33270e-01 -1.87700e-03 -1.10260e-02 1.04580e-03 -6.18670e-04 -5.99190e-02 -7.20390e-01 -1.76430e-03 -1.17220e-02 7.37930e-04 -4.49440e-04 -6.61580e-02 -7.06720e-01 -1.62220e-03 -1.26810e-02 1.81550e-04 -4.15620e-04 -7.20110e-02 -6.92110e-01 -1.63620e-03 -1.36840e-02 -8.10010e-06 -3.63020e-04 -7.74750e-02 -6.77040e-01 -1.53110e-03 -1.46950e-02 -2.36180e-04 -3.60860e-04 -8.24470e-02 -6.61660e-01 -1.56010e-03 -1.58190e-02 -3.09740e-04 -3.47600e-04 -8.69660e-02 -6.51280e-01 -1.50980e-03 -1.84160e-02 -3.22730e-04 -3.59130e-04 -9.49680e-02 -6.30530e-01 -1.49870e-03 -1.80320e-02 -3.77950e-04 -3.47100e-04 -9.46260e-02 -6.14950e-01 -1.43810e-03 -1.91050e-02 -3.68930e-04 -3.47430e-04 -9.78170e-02 -5.94420e-01 -1.06410e-03 -1.81910e-02 -3.47200e-04 -3.32400e-04 -9.66790e-02 -5.84120e-01 -1.38850e-03 -2.12600e-02 -3.00090e-04 -3.39460e-04 -1.03040e-01 -5.68920e-01 -1.37740e-03 -2.23060e-02 -2.56900e-04 -3.33030e-04 -1.05120e-01 -5.53880e-01 -1.33380e-03 -2.32780e-02 -2.10320e-04 -3.25700e-04 -1.06860e-01 -5.39030e-01 -1.31490e-03 -2.42280e-02 -1.64990e-04 -3.17050e-04 -1.08280e-01 -5.24370e-01 -1.27570e-03 -2.51060e-02 -1.18780e-04 -3.07430e-04 -1.09410e-01 -5.09920e-01 -1.25220e-03 -2.59430e-02 -7.56860e-05 -2.97130e-04 -1.10260e-01 -4.95670e-01 -1.21630e-03 -2.67060e-02 -3.29890e-05 -2.86050e-04 -1.10840e-01 -4.77450e-01 -9.33250e-04 -2.51760e-02 7.62470e-07 -2.65450e-04 -1.07290e-01 -4.67820e-01 -1.15660e-03 -2.80510e-02 4.48330e-05 -2.62630e-04 -1.11250e-01 -4.54220e-01 -1.12920e-03 -2.86240e-02 8.02940e-05 -2.50460e-04 -1.11110e-01 -4.40840e-01 -1.09740e-03 -2.91230e-02 1.14530e-04 -2.37870e-04 -1.10760e-01 -4.27690e-01 -1.06950e-03 -2.95560e-02 1.46220e-04 -2.25220e-04 -1.10200e-01 -4.14770e-01 -1.03900e-03 -2.99140e-02 1.76580e-04 -2.12290e-04 -1.09460e-01 -4.02070e-01 -1.01110e-03 -3.02040e-02 2.04750e-04 -1.99360e-04 -1.08550e-01 -3.93170e-01 -1.19950e-03 -3.27340e-02 2.42640e-04 -1.92130e-04 -1.11080e-01 -3.77360e-01 -9.53920e-04 -3.05720e-02 2.56460e-04 -1.73230e-04 -1.06240e-01 -3.65350e-01 -9.25420e-04 -3.06520e-02 2.80000e-04 -1.60140e-04 -1.04860e-01 -3.53570e-01 -8.98090e-04 -3.06660e-02 3.01820e-04 -1.47160e-04 -1.03360e-01 -3.42020e-01 -8.70410e-04 -3.06130e-02 3.22300e-04 -1.34220e-04 -1.01730e-01 -3.30690e-01 -8.43570e-04 -3.04980e-02 3.41220e-04 -1.21430e-04 -9.99960e-02 -3.19590e-01 -8.16650e-04 -3.03200e-02 3.58830e-04 -1.08770e-04 -9.81560e-02 -3.11780e-01 -9.94180e-04 -3.23390e-02 3.88720e-04 -9.92900e-05 -9.94590e-02 -2.98060e-01 -7.64190e-04 -2.97900e-02 3.89900e-04 -8.40400e-05 -9.42080e-02 -2.87630e-01 -7.38530e-04 -2.94430e-02 4.03470e-04 -7.20230e-05 -9.21150e-02 -2.77420e-01 -7.13070e-04 -2.90440e-02 4.15820e-04 -6.02490e-05 -8.99560e-02 -2.67420e-01 -6.88070e-04 -2.85960e-02 4.26930e-04 -4.87680e-05 -8.77360e-02 -2.57650e-01 -6.63330e-04 -2.81020e-02 4.36870e-04 -3.75770e-05 -8.54640e-02 -2.48080e-01 -6.39020e-04 -2.75660e-02 4.45660e-04 -2.67140e-05 -8.31460e-02 -2.38730e-01 -6.15020e-04 -2.69900e-02 4.53340e-04 -1.61790e-05 -8.07900e-02 -2.29590e-01 -5.91430e-04 -2.63760e-02 4.59940e-04 -5.99900e-06 -7.84020e-02 -2.20660e-01 -5.68170e-04 -2.57290e-02 4.65500e-04 3.82300e-06 -7.59880e-02 -2.09390e-01 -3.70740e-04 -2.30960e-02 4.53610e-04 1.24390e-05 -7.09370e-02 -2.03400e-01 -5.22820e-04 -2.43440e-02 4.73620e-04 2.23300e-05 -7.11050e-02 -1.95080e-01 -5.00720e-04 -2.36130e-02 4.76240e-04 3.09980e-05 -6.86480e-02 -1.86950e-01 -4.79000e-04 -2.28600e-02 4.77960e-04 3.92690e-05 -6.61870e-02 -1.79020e-01 -4.57680e-04 -2.20880e-02 4.78800e-04 4.71320e-05 -6.37280e-02 -1.71280e-01 -4.36750e-04 -2.13000e-02 4.78780e-04 5.45860e-05 -6.12740e-02 -1.63740e-01 -4.16220e-04 -2.04980e-02 4.77950e-04 6.16260e-05 -5.88300e-02 -1.58630e-01 -5.48910e-04 -2.13320e-02 4.93970e-04 7.13000e-05 -5.85640e-02 -1.49210e-01 -3.76380e-04 -1.88650e-02 4.73940e-04 7.44550e-05 -5.39900e-02 -1.42230e-01 -3.57080e-04 -1.80390e-02 4.70830e-04 8.02420e-05 -5.16020e-02 -1.35430e-01 -3.38190e-04 -1.72110e-02 4.67000e-04 8.56110e-05 -4.92400e-02 -1.28820e-01 -3.19720e-04 -1.63820e-02 4.62510e-04 9.05620e-05 -4.69070e-02 -1.22380e-01 -3.01670e-04 -1.55560e-02 4.57360e-04 9.50970e-05 -4.46070e-02 -1.14100e-01 -1.50770e-04 -1.33840e-02 4.33210e-04 9.45880e-05 -4.05650e-02 -1.10040e-01 -2.66860e-04 -1.39170e-02 4.45220e-04 1.02930e-04 -4.01170e-02 -1.04130e-01 -2.50100e-04 -1.31100e-02 4.38280e-04 1.06240e-04 -3.79320e-02 -9.83910e-02 -2.33770e-04 -1.23130e-02 4.30790e-04 1.09140e-04 -3.57920e-02 -9.28270e-02 -2.17880e-04 -1.15290e-02 4.22770e-04 1.11640e-04 -3.36980e-02 -8.74340e-02 -2.02440e-04 -1.07590e-02 4.14260e-04 1.13750e-04 -3.16530e-02 -8.22090e-02 -1.87440e-04 -1.00060e-02 4.05260e-04 1.15480e-04 -2.96580e-02 -7.71530e-02 -1.72890e-04 -9.27000e-03 3.95800e-04 1.16820e-04 -2.77170e-02 -7.22630e-02 -1.58780e-04 -8.55330e-03 3.85910e-04 1.17780e-04 -2.58300e-02 -6.75380e-02 -1.45130e-04 -7.85750e-03 3.75610e-04 1.18380e-04 -2.40000e-02 -6.29790e-02 -1.31930e-04 -7.18370e-03 3.64910e-04 1.18610e-04 -2.22280e-02 -5.85830e-02 -1.19200e-04 -6.53330e-03 3.53840e-04 1.18490e-04 -2.05160e-02 -5.58990e-02 -1.98910e-04 -6.65470e-03 3.61710e-04 1.24960e-04 -1.99160e-02 -5.02780e-02 -9.51030e-05 -5.30740e-03 3.30660e-04 1.17200e-04 -1.72780e-02 -4.63690e-02 -8.37510e-05 -4.73390e-03 3.18580e-04 1.16060e-04 -1.57530e-02 -4.26200e-02 -7.28670e-05 -4.18800e-03 3.06210e-04 1.14590e-04 -1.42940e-02 -3.90320e-02 -6.24470e-05 -3.67050e-03 2.93570e-04 1.12800e-04 -1.29020e-02 -3.42800e-02 2.15750e-05 -2.66370e-03 2.61130e-04 1.03070e-04 -1.08010e-02 -3.23340e-02 -4.30100e-05 -2.72400e-03 2.67500e-04 1.08290e-04 -1.03180e-02 -2.92240e-02 -3.39960e-05 -2.29630e-03 2.54100e-04 1.05580e-04 -9.12890e-03 -2.62730e-02 -2.54470e-05 -1.89970e-03 2.40480e-04 1.02580e-04 -8.00950e-03 -2.34790e-02 -1.73630e-05 -1.53470e-03 2.26620e-04 9.92810e-05 -6.96020e-03 -2.08450e-02 -9.73340e-06 -1.20180e-03 2.12530e-04 9.56830e-05 -5.98180e-03 -1.83670e-02 -2.55970e-06 -9.01290e-04 1.98190e-04 9.17740e-05 -5.07460e-03 -1.60480e-02 4.16680e-06 -6.33500e-04 1.83540e-04 8.75320e-05 -4.23900e-03 -1.38850e-02 1.04500e-05 -3.98730e-04 1.68540e-04 8.29250e-05 -3.47540e-03 -1.27260e-02 -2.49360e-05 -3.67860e-04 1.73530e-04 8.67290e-05 -3.11570e-03 -1.00280e-02 2.17300e-05 -2.92350e-05 1.37030e-04 7.23900e-05 -2.16460e-03 -8.33180e-03 2.67310e-05 1.04840e-04 1.20200e-04 6.62980e-05 -1.61760e-03 -6.78860e-03 3.12040e-05 2.04310e-04 1.02430e-04 5.95460e-05 -1.14270e-03 -5.39630e-03 3.51490e-05 2.68310e-04 8.34350e-05 5.20080e-05 -7.40120e-04 -3.60260e-03 6.01010e-05 3.11760e-04 4.18010e-05 3.40630e-05 -2.87600e-04 -3.05570e-03 3.98420e-05 2.82070e-04 4.19090e-05 3.46730e-05 -1.54750e-04 -2.10470e-03 3.81570e-05 2.26030e-04 2.12440e-05 2.55370e-05 2.46230e-05 -1.30150e-03 3.25910e-05 1.29840e-04 3.82170e-06 1.65810e-05 1.24130e-04 -6.65270e-04 1.22450e-05 -1.44380e-06 2.46550e-06 1.10190e-05 1.41780e-04 -2.22040e-04 1.09400e-05 -6.37070e-05 1.23380e-05 1.10530e-06 8.01660e-05 -6.91610e-05 2.12480e-05 -2.66510e-05 1.78750e-05 -9.16890e-06 1.22500e-05 -8.62650e-01 -4.16550e-01 -4.17230e-01 -1.70040e-01 -8.06970e-03 8.55940e-02 -9.17180e-01 -1.84300e-01 -1.63220e-01 -9.39930e-02 2.49300e-04 2.93160e-02 -8.43120e-01 -3.44000e-03 1.48450e-02 -1.71440e-02 4.49060e-03 -2.56750e-02 -8.11900e-01 -1.06420e-02 -3.88540e-03 -2.42280e-03 2.59590e-04 -3.10370e-02 -7.96870e-01 -4.91060e-03 -6.10450e-03 3.64890e-03 -7.45010e-04 -3.34520e-02 -7.84880e-01 -6.84030e-03 -1.24740e-02 5.51440e-03 -3.06860e-04 -3.03540e-02 -7.76550e-01 -3.12780e-03 -1.14210e-02 5.34200e-03 1.15780e-04 -4.23350e-02 -7.65000e-01 -1.74840e-03 -1.17030e-02 4.59600e-03 7.11530e-04 -4.84460e-02 -7.52680e-01 -2.08360e-03 -1.31900e-02 3.72150e-03 1.09840e-03 -5.48950e-02 -7.38920e-01 -1.42300e-03 -1.34950e-02 2.78850e-03 1.38100e-03 -6.13530e-02 -7.24660e-01 -1.73610e-03 -1.46810e-02 2.01750e-03 1.51700e-03 -6.75450e-02 -7.09560e-01 -1.44790e-03 -1.53030e-02 1.36840e-03 1.59480e-03 -7.33760e-02 -6.94260e-01 -1.66370e-03 -1.64460e-02 8.90780e-04 1.60620e-03 -7.87560e-02 -6.78570e-01 -1.52750e-03 -1.73010e-02 5.33060e-04 1.59600e-03 -8.36800e-02 -6.62860e-01 -1.65460e-03 -1.84460e-02 2.92900e-04 1.56180e-03 -8.81340e-02 -6.52300e-01 -1.53320e-03 -2.09070e-02 2.08170e-04 1.52880e-03 -9.61160e-02 -6.31300e-01 -1.63980e-03 -2.05570e-02 3.72570e-05 1.47800e-03 -9.57130e-02 -6.15590e-01 -1.58310e-03 -2.15760e-02 -1.41630e-05 1.43420e-03 -9.88750e-02 -5.94920e-01 -1.21950e-03 -2.06090e-02 -5.35760e-05 1.38480e-03 -9.76940e-02 -5.84580e-01 -1.56040e-03 -2.36590e-02 -3.12550e-05 1.34930e-03 -1.04040e-01 -5.69320e-01 -1.56080e-03 -2.46710e-02 -1.58850e-05 1.30960e-03 -1.06090e-01 -5.54210e-01 -1.51970e-03 -2.56050e-02 7.34940e-06 1.27220e-03 -1.07810e-01 -5.39300e-01 -1.50680e-03 -2.65200e-02 3.50530e-05 1.23640e-03 -1.09210e-01 -5.24580e-01 -1.46950e-03 -2.73610e-02 6.48060e-05 1.20250e-03 -1.10310e-01 -5.10080e-01 -1.44930e-03 -2.81610e-02 9.49750e-05 1.16990e-03 -1.11130e-01 -4.95770e-01 -1.41460e-03 -2.88870e-02 1.24820e-04 1.13870e-03 -1.11690e-01 -4.77470e-01 -1.13070e-03 -2.73080e-02 1.48550e-04 1.10390e-03 -1.08110e-01 -4.67820e-01 -1.35770e-03 -3.01570e-02 1.81290e-04 1.07960e-03 -1.12050e-01 -4.54170e-01 -1.33130e-03 -3.06930e-02 2.07540e-04 1.05160e-03 -1.11880e-01 -4.40750e-01 -1.29990e-03 -3.11530e-02 2.32550e-04 1.02460e-03 -1.11510e-01 -4.27550e-01 -1.27230e-03 -3.15470e-02 2.56160e-04 9.98390e-04 -1.10930e-01 -4.14590e-01 -1.24160e-03 -3.18670e-02 2.78580e-04 9.73110e-04 -1.10170e-01 -4.01850e-01 -1.21340e-03 -3.21180e-02 2.99730e-04 9.48610e-04 -1.09230e-01 -3.92930e-01 -1.40610e-03 -3.46250e-02 3.28500e-04 9.30620e-04 -1.11740e-01 -3.77070e-01 -1.15460e-03 -3.24080e-02 3.38670e-04 9.01910e-04 -1.06870e-01 -3.65030e-01 -1.12490e-03 -3.24490e-02 3.56530e-04 8.79630e-04 -1.05480e-01 -3.53210e-01 -1.09610e-03 -3.24230e-02 3.73310e-04 8.58000e-04 -1.03950e-01 -3.41630e-01 -1.06670e-03 -3.23320e-02 3.89110e-04 8.37010e-04 -1.02310e-01 -3.30280e-01 -1.03790e-03 -3.21770e-02 4.03900e-04 8.16590e-04 -1.00550e-01 -3.19150e-01 -1.00880e-03 -3.19610e-02 4.17730e-04 7.96750e-04 -9.86900e-02 -3.11330e-01 -1.18810e-03 -3.39560e-02 4.41820e-04 7.84270e-04 -9.99830e-02 -2.97580e-01 -9.51230e-04 -3.13540e-02 4.42510e-04 7.58580e-04 -9.47060e-02 -2.87130e-01 -9.22700e-04 -3.09680e-02 4.53500e-04 7.40190e-04 -9.25970e-02 -2.76900e-01 -8.94180e-04 -3.05310e-02 4.63570e-04 7.22240e-04 -9.04210e-02 -2.66890e-01 -8.65940e-04 -3.00450e-02 4.72730e-04 7.04690e-04 -8.81850e-02 -2.57100e-01 -8.37790e-04 -2.95140e-02 4.80990e-04 6.87510e-04 -8.58980e-02 -2.47520e-01 -8.09910e-04 -2.89400e-02 4.88380e-04 6.70680e-04 -8.35660e-02 -2.38160e-01 -7.82180e-04 -2.83260e-02 4.94890e-04 6.54170e-04 -8.11960e-02 -2.29010e-01 -7.54730e-04 -2.76760e-02 5.00550e-04 6.37970e-04 -7.87950e-02 -2.20060e-01 -7.27490e-04 -2.69920e-02 5.05380e-04 6.22050e-04 -7.63680e-02 -2.08780e-01 -5.21930e-04 -2.43080e-02 4.95690e-04 5.98100e-04 -7.12980e-02 -2.02790e-01 -6.73830e-04 -2.55350e-02 5.12560e-04 5.90970e-04 -7.14620e-02 -1.94460e-01 -6.47430e-04 -2.47690e-02 5.14950e-04 5.75780e-04 -6.89930e-02 -1.86330e-01 -6.21320e-04 -2.39800e-02 5.16570e-04 5.60810e-04 -6.65220e-02 -1.78400e-01 -5.95540e-04 -2.31730e-02 5.17420e-04 5.46030e-04 -6.40510e-02 -1.70660e-01 -5.70090e-04 -2.23510e-02 5.17520e-04 5.31430e-04 -6.15880e-02 -1.63120e-01 -5.44990e-04 -2.15150e-02 5.16890e-04 5.17010e-04 -5.91340e-02 -1.58010e-01 -6.76750e-04 -2.23290e-02 5.30500e-04 5.11790e-04 -5.88650e-02 -1.48590e-01 -4.95890e-04 -1.98150e-02 5.13510e-04 4.88650e-04 -5.42770e-02 -1.41610e-01 -4.71900e-04 -1.89570e-02 5.10790e-04 4.74690e-04 -5.18800e-02 -1.34820e-01 -4.48320e-04 -1.80960e-02 5.07400e-04 4.60870e-04 -4.95100e-02 -1.28200e-01 -4.25150e-04 -1.72350e-02 5.03360e-04 4.47170e-04 -4.71690e-02 -1.21770e-01 -4.02410e-04 -1.63770e-02 4.98690e-04 4.33600e-04 -4.48610e-02 -1.13490e-01 -2.43520e-04 -1.41610e-02 4.77590e-04 4.10670e-04 -4.08060e-02 -1.09440e-01 -3.58250e-04 -1.46770e-02 4.87510e-04 4.06810e-04 -4.03560e-02 -1.03530e-01 -3.36850e-04 -1.38390e-02 4.81030e-04 3.93590e-04 -3.81640e-02 -9.78050e-02 -3.15920e-04 -1.30120e-02 4.73980e-04 3.80470e-04 -3.60170e-02 -9.22490e-02 -2.95480e-04 -1.21990e-02 4.66380e-04 3.67450e-04 -3.39160e-02 -8.68630e-02 -2.75530e-04 -1.14000e-02 4.58240e-04 3.54540e-04 -3.18640e-02 -8.16470e-02 -2.56080e-04 -1.06180e-02 4.49570e-04 3.41730e-04 -2.98620e-02 -7.66000e-02 -2.37150e-04 -9.85350e-03 4.40400e-04 3.29020e-04 -2.79140e-02 -7.17190e-02 -2.18740e-04 -9.10910e-03 4.30730e-04 3.16400e-04 -2.60210e-02 -6.70050e-02 -2.00860e-04 -8.38590e-03 4.20580e-04 3.03890e-04 -2.41840e-02 -6.24550e-02 -1.83530e-04 -7.68520e-03 4.09970e-04 2.91480e-04 -2.24050e-02 -5.80700e-02 -1.66750e-04 -7.00840e-03 3.98910e-04 2.79180e-04 -2.06870e-02 -5.53930e-02 -2.44870e-04 -7.11490e-03 4.04540e-04 2.76780e-04 -2.00840e-02 -4.97880e-02 -1.34870e-04 -5.73070e-03 3.75500e-04 2.54870e-04 -1.74350e-02 -4.58910e-02 -1.19790e-04 -5.13200e-03 3.63180e-04 2.42880e-04 -1.59030e-02 -4.21540e-02 -1.05300e-04 -4.56140e-03 3.50470e-04 2.31000e-04 -1.44370e-02 -3.85780e-02 -9.13870e-05 -4.01970e-03 3.37380e-04 2.19240e-04 -1.30370e-02 -3.38440e-02 -2.08100e-06 -2.97860e-03 3.06340e-04 1.97840e-04 -1.09250e-02 -3.19050e-02 -6.53570e-05 -3.02590e-03 3.10090e-04 1.96040e-04 -1.04390e-02 -2.88080e-02 -5.32420e-05 -2.57520e-03 2.95900e-04 1.84610e-04 -9.24210e-03 -2.58700e-02 -4.17260e-05 -2.15610e-03 2.81350e-04 1.73290e-04 -8.11480e-03 -2.30900e-02 -3.08090e-05 -1.76900e-03 2.66420e-04 1.62070e-04 -7.05740e-03 -2.04680e-02 -2.04770e-05 -1.41440e-03 2.51070e-04 1.50920e-04 -6.07070e-03 -1.80050e-02 -1.07220e-05 -1.09270e-03 2.35270e-04 1.39810e-04 -5.15490e-03 -1.56990e-02 -1.52340e-06 -8.04110e-04 2.18920e-04 1.28700e-04 -4.31060e-03 -1.35500e-02 7.14470e-06 -5.49040e-04 2.01910e-04 1.17510e-04 -3.53800e-03 -1.23990e-02 -2.71210e-05 -5.07130e-04 2.03270e-04 1.16070e-04 -3.17370e-03 -9.72280e-03 2.30440e-05 -1.40450e-04 1.65190e-04 9.44960e-05 -2.20900e-03 -8.04290e-03 3.03500e-05 1.23230e-05 1.45000e-04 8.24140e-05 -1.65300e-03 -6.51780e-03 3.72390e-05 1.29940e-04 1.23250e-04 6.97720e-05 -1.16970e-03 -5.14670e-03 4.36380e-05 2.11330e-04 9.97400e-05 5.65210e-05 -7.59670e-04 -3.39200e-03 7.26070e-05 2.79360e-04 5.34480e-05 3.23060e-05 -2.98810e-04 -2.86500e-03 5.32120e-05 2.57940e-04 4.84570e-05 2.89500e-05 -1.64920e-04 -1.95620e-03 5.33610e-05 2.17850e-04 2.35960e-05 1.60070e-05 1.46690e-05 -1.20680e-03 4.58430e-05 1.34990e-04 5.01860e-06 5.65410e-06 1.11090e-04 -6.22250e-04 2.00000e-05 1.79700e-05 2.92090e-07 -1.20010e-06 1.25250e-04 -2.10960e-04 1.87300e-05 -2.83640e-05 3.67470e-06 -8.60500e-06 6.18510e-05 -6.61370e-05 2.81610e-05 1.58540e-05 5.44670e-06 -1.42570e-05 -3.47690e-06 -8.28600e-01 -4.63150e-01 -4.22290e-01 -1.11350e-01 -7.76700e-03 1.18770e-01 -8.99050e-01 -2.72460e-01 -1.89660e-01 -8.39790e-02 -2.58350e-03 5.38020e-02 -8.80980e-01 -5.12480e-02 -8.80170e-03 -4.08170e-02 2.52620e-03 -1.72320e-02 -8.51260e-01 -2.39930e-02 -3.42340e-03 -1.28870e-02 8.58910e-04 -2.82020e-02 -8.34110e-01 -1.50600e-02 -9.77970e-03 -1.67960e-03 -7.27310e-04 -3.07220e-02 -8.11200e-01 -1.08030e-02 -1.40210e-02 7.01350e-03 -4.73550e-04 -2.98150e-02 -8.00520e-01 -5.75780e-03 -1.33100e-02 5.84280e-03 -1.54960e-04 -4.22430e-02 -7.83330e-01 -2.92730e-03 -1.34840e-02 6.14210e-03 4.94470e-04 -4.91670e-02 -7.66500e-01 -2.36210e-03 -1.48280e-02 5.70180e-03 1.07700e-03 -5.60450e-02 -7.49280e-01 -1.34110e-03 -1.51950e-02 4.87470e-03 1.46390e-03 -6.27320e-02 -7.32380e-01 -1.40510e-03 -1.62770e-02 4.04170e-03 1.74110e-03 -6.90210e-02 -7.15400e-01 -1.09480e-03 -1.69300e-02 3.24770e-03 1.88250e-03 -7.48630e-02 -6.98710e-01 -1.31100e-03 -1.80200e-02 2.60940e-03 1.96600e-03 -8.02270e-02 -6.82070e-01 -1.23410e-03 -1.88800e-02 2.09080e-03 1.98270e-03 -8.51140e-02 -6.65670e-01 -1.42260e-03 -1.99980e-02 1.71430e-03 1.97820e-03 -8.95340e-02 -6.54810e-01 -1.33930e-03 -2.24440e-02 1.52440e-03 1.94770e-03 -9.74960e-02 -6.33280e-01 -1.52440e-03 -2.20820e-02 1.24830e-03 1.91010e-03 -9.70470e-02 -6.17330e-01 -1.50860e-03 -2.30880e-02 1.12040e-03 1.86450e-03 -1.00180e-01 -5.96260e-01 -1.49080e-03 -2.20760e-02 1.74990e-04 3.28610e-03 -9.86540e-02 -5.84280e-01 -1.60630e-03 -2.45120e-02 7.11270e-04 2.25750e-03 -1.03860e-01 -5.70600e-01 -1.57780e-03 -2.61390e-02 9.74190e-04 1.73070e-03 -1.07340e-01 -5.55380e-01 -1.55180e-03 -2.70570e-02 9.64100e-04 1.68710e-03 -1.09030e-01 -5.40380e-01 -1.55530e-03 -2.79570e-02 9.64320e-04 1.64600e-03 -1.10420e-01 -5.25560e-01 -1.52760e-03 -2.87800e-02 9.68320e-04 1.60550e-03 -1.11500e-01 -5.10970e-01 -1.51830e-03 -2.95640e-02 9.75700e-04 1.56680e-03 -1.12300e-01 -4.96580e-01 -1.49050e-03 -3.02720e-02 9.83240e-04 1.52880e-03 -1.12830e-01 -4.78160e-01 -1.20990e-03 -2.86660e-02 9.83300e-04 1.48540e-03 -1.09210e-01 -4.68460e-01 -1.44660e-03 -3.15040e-02 9.98210e-04 1.45640e-03 -1.13140e-01 -4.54730e-01 -1.42610e-03 -3.20200e-02 1.00460e-03 1.42160e-03 -1.12950e-01 -4.41240e-01 -1.39890e-03 -3.24610e-02 1.00980e-03 1.38750e-03 -1.12550e-01 -4.27970e-01 -1.37590e-03 -3.28340e-02 1.01410e-03 1.35430e-03 -1.11950e-01 -4.14940e-01 -1.34870e-03 -3.31330e-02 1.01740e-03 1.32180e-03 -1.11160e-01 -4.02130e-01 -1.32390e-03 -3.33630e-02 1.01980e-03 1.29020e-03 -1.10190e-01 -3.93170e-01 -1.52220e-03 -3.58560e-02 1.03220e-03 1.26700e-03 -1.12700e-01 -3.77230e-01 -1.27030e-03 -3.36090e-02 1.02210e-03 1.22910e-03 -1.07790e-01 -3.65130e-01 -1.24240e-03 -3.36280e-02 1.02210e-03 1.19950e-03 -1.06370e-01 -3.53260e-01 -1.21520e-03 -3.35800e-02 1.02150e-03 1.17070e-03 -1.04810e-01 -3.41630e-01 -1.18680e-03 -3.34660e-02 1.02010e-03 1.14250e-03 -1.03140e-01 -3.30230e-01 -1.15870e-03 -3.32890e-02 1.01820e-03 1.11500e-03 -1.01360e-01 -3.19060e-01 -1.12980e-03 -3.30500e-02 1.01560e-03 1.08800e-03 -9.94780e-02 -3.09070e-01 -1.13900e-03 -3.35260e-02 1.20620e-03 8.38990e-04 -9.86510e-02 -3.00210e-01 -1.18330e-03 -3.46980e-02 1.58550e-03 3.76950e-04 -9.88280e-02 -2.86910e-01 -1.04240e-03 -3.19890e-02 1.00410e-03 1.01040e-03 -9.33140e-02 -2.76650e-01 -1.01270e-03 -3.15280e-02 9.99050e-04 9.85600e-04 -9.11150e-02 -2.66610e-01 -9.83060e-04 -3.10200e-02 9.93440e-04 9.61250e-04 -8.88580e-02 -2.56790e-01 -9.53170e-04 -3.04660e-02 9.87230e-04 9.37350e-04 -8.65490e-02 -2.47180e-01 -9.23280e-04 -2.98690e-02 9.80450e-04 9.13890e-04 -8.41950e-02 -2.37790e-01 -8.93280e-04 -2.92320e-02 9.73100e-04 8.90830e-04 -8.18050e-02 -2.28620e-01 -8.63310e-04 -2.85590e-02 9.65180e-04 8.68170e-04 -7.93830e-02 -2.19650e-01 -8.33320e-04 -2.78530e-02 9.56700e-04 8.45880e-04 -7.69360e-02 -2.08340e-01 -6.21410e-04 -2.51350e-02 9.33320e-04 8.14700e-04 -7.18370e-02 -2.02350e-01 -7.73560e-04 -2.63510e-02 9.38080e-04 8.02350e-04 -7.19910e-02 -1.94000e-01 -7.43830e-04 -2.55620e-02 9.27970e-04 7.81080e-04 -6.95040e-02 -1.85850e-01 -7.14230e-04 -2.47520e-02 9.17320e-04 7.60120e-04 -6.70150e-02 -1.77910e-01 -6.84810e-04 -2.39230e-02 9.06160e-04 7.39460e-04 -6.45270e-02 -1.70160e-01 -6.55580e-04 -2.30780e-02 8.94480e-04 7.19080e-04 -6.20460e-02 -1.62600e-01 -6.26580e-04 -2.22210e-02 8.82300e-04 6.98970e-04 -5.95760e-02 -1.57490e-01 -7.57510e-04 -2.30240e-02 8.84790e-04 6.88730e-04 -5.92990e-02 -1.48060e-01 -5.69360e-04 -2.04780e-02 8.56470e-04 6.59540e-04 -5.46860e-02 -1.41070e-01 -5.41190e-04 -1.95990e-02 8.42840e-04 6.40190e-04 -5.22740e-02 -1.34270e-01 -5.13360e-04 -1.87170e-02 8.28740e-04 6.21070e-04 -4.98890e-02 -1.27650e-01 -4.85890e-04 -1.78350e-02 8.14200e-04 6.02180e-04 -4.75330e-02 -1.21220e-01 -4.58790e-04 -1.69560e-02 7.99210e-04 5.83510e-04 -4.52110e-02 -1.12940e-01 -2.92630e-04 -1.47100e-02 7.68050e-04 5.55300e-04 -4.11350e-02 -1.08880e-01 -4.05850e-04 -1.52150e-02 7.67930e-04 5.46800e-04 -4.06780e-02 -1.02980e-01 -3.80040e-04 -1.43570e-02 7.51680e-04 5.28750e-04 -3.84720e-02 -9.72530e-02 -3.54710e-04 -1.35110e-02 7.35010e-04 5.10890e-04 -3.63120e-02 -9.16990e-02 -3.29870e-04 -1.26770e-02 7.17960e-04 4.93230e-04 -3.41980e-02 -8.63160e-02 -3.05550e-04 -1.18590e-02 7.00520e-04 4.75750e-04 -3.21330e-02 -8.11040e-02 -2.81760e-04 -1.10580e-02 6.82710e-04 4.58460e-04 -3.01190e-02 -7.60600e-02 -2.58530e-04 -1.02740e-02 6.64530e-04 4.41350e-04 -2.81590e-02 -7.11850e-02 -2.35880e-04 -9.51110e-03 6.46000e-04 4.24420e-04 -2.62530e-02 -6.64760e-02 -2.13820e-04 -8.76920e-03 6.27130e-04 4.07670e-04 -2.44050e-02 -6.19330e-02 -1.92380e-04 -8.05000e-03 6.07930e-04 3.91090e-04 -2.26140e-02 -5.75550e-02 -1.71560e-04 -7.35480e-03 5.88400e-04 3.74680e-04 -2.08840e-02 -5.48810e-02 -2.47850e-04 -7.45220e-03 5.85160e-04 3.68110e-04 -2.02760e-02 -4.92890e-02 -1.31870e-04 -6.04110e-03 5.48410e-04 3.42380e-04 -1.76090e-02 -4.53990e-02 -1.13030e-04 -5.42460e-03 5.27960e-04 3.26490e-04 -1.60670e-02 -4.16720e-02 -9.48830e-05 -4.83640e-03 5.07230e-04 3.10770e-04 -1.45900e-02 -3.81050e-02 -7.74310e-05 -4.27730e-03 4.86220e-04 2.95220e-04 -1.31780e-02 -3.33850e-02 1.70410e-05 -3.21040e-03 4.48010e-04 2.70340e-04 -1.10500e-02 -3.14520e-02 -4.46540e-05 -3.24920e-03 4.43350e-04 2.64610e-04 -1.05580e-02 -2.83650e-02 -2.93340e-05 -2.78160e-03 4.21490e-04 2.49540e-04 -9.35050e-03 -2.54380e-02 -1.47180e-05 -2.34570e-03 3.99320e-04 2.34610e-04 -8.21220e-03 -2.26690e-02 -7.96170e-07 -1.94210e-03 3.76800e-04 2.19790e-04 -7.14400e-03 -2.00590e-02 1.24640e-05 -1.57120e-03 3.53880e-04 2.05040e-04 -6.14640e-03 -1.76070e-02 2.50920e-05 -1.23330e-03 3.30470e-04 1.90310e-04 -5.21980e-03 -1.53130e-02 3.71530e-05 -9.28780e-04 3.06440e-04 1.75520e-04 -4.36480e-03 -1.31770e-02 4.87010e-05 -6.58050e-04 2.81610e-04 1.60570e-04 -3.58180e-03 -1.20330e-02 1.60300e-05 -6.08460e-04 2.74440e-04 1.55040e-04 -3.21250e-03 -9.37890e-03 7.06000e-05 -2.19250e-04 2.28580e-04 1.29560e-04 -2.23310e-03 -7.71630e-03 8.10680e-05 -5.21320e-05 1.99810e-04 1.13190e-04 -1.66850e-03 -6.21150e-03 9.11190e-05 7.91180e-05 1.69200e-04 9.60910e-05 -1.17780e-03 -4.86520e-03 1.00430e-04 1.73280e-04 1.36740e-04 7.83180e-05 -7.62240e-04 -3.15800e-03 1.31570e-04 2.58620e-04 8.24140e-05 5.00140e-05 -2.96500e-04 -2.65250e-03 1.11660e-04 2.41780e-04 6.92450e-05 4.27870e-05 -1.63930e-04 -1.78950e-03 1.07220e-04 2.10170e-04 3.87090e-05 2.74070e-05 1.31800e-05 -1.09040e-03 8.59360e-05 1.30620e-04 1.64090e-05 1.59490e-05 1.05600e-04 -5.49780e-04 4.47530e-05 1.81430e-05 4.28920e-06 8.38250e-06 1.14200e-04 -1.76380e-04 4.04730e-05 -1.77350e-05 -1.44930e-06 4.50030e-06 4.71130e-05 -4.87140e-05 4.88170e-05 3.26190e-05 -4.17280e-06 4.24100e-06 -1.41340e-05 -8.44650e-01 -5.05300e-01 -4.48310e-01 -6.69440e-02 -6.12720e-03 1.38020e-01 -9.03030e-01 -3.07290e-01 -1.96490e-01 -5.31300e-02 -3.99170e-03 6.83980e-02 -8.79380e-01 -8.35970e-02 -9.41150e-03 -3.30990e-02 -8.54800e-04 -1.10430e-02 -8.63020e-01 -4.43380e-02 -5.33750e-03 -1.61290e-02 -4.96240e-04 -2.69020e-02 -8.47920e-01 -2.44230e-02 -7.02880e-03 -4.80150e-03 -1.01170e-03 -3.00380e-02 -8.26140e-01 -1.32340e-02 -1.13460e-02 2.47050e-03 -1.00390e-03 -2.93450e-02 -8.13960e-01 -8.32430e-03 -1.22230e-02 3.73770e-03 -6.32760e-04 -4.19360e-02 -7.94870e-01 -4.10230e-03 -1.31400e-02 4.72720e-03 -9.22530e-05 -4.91740e-02 -7.75600e-01 -2.24890e-03 -1.43970e-02 4.77380e-03 4.19270e-04 -5.64270e-02 -7.56400e-01 -7.13070e-04 -1.50110e-02 4.35780e-03 8.12680e-04 -6.33080e-02 -7.37750e-01 -4.34750e-04 -1.61420e-02 3.77070e-03 1.08690e-03 -6.97450e-02 -7.19420e-01 -1.86770e-05 -1.68930e-02 3.17580e-03 1.26740e-03 -7.56460e-02 -7.01680e-01 -2.16970e-04 -1.80360e-02 2.64510e-03 1.36920e-03 -8.10420e-02 -6.84250e-01 -1.76870e-04 -1.89370e-02 2.20770e-03 1.42320e-03 -8.59280e-02 -6.67280e-01 -4.32910e-04 -2.00920e-02 1.86760e-03 1.43940e-03 -9.03400e-02 -6.56150e-01 -3.67080e-04 -2.25220e-02 1.71030e-03 1.43460e-03 -9.82980e-02 -6.34180e-01 -6.72830e-04 -2.22190e-02 1.43050e-03 1.41790e-03 -9.78230e-02 -6.18010e-01 -7.15250e-04 -2.32350e-02 1.30310e-03 1.39370e-03 -1.00940e-01 -6.02110e-01 -8.37430e-04 -2.43220e-02 1.21880e-03 1.36500e-03 -1.03670e-01 -5.81130e-01 -1.07780e-03 -2.33190e-02 6.73480e-04 2.98920e-03 -1.01830e-01 -5.69190e-01 -9.26460e-04 -2.55720e-02 9.68220e-04 1.85070e-03 -1.06670e-01 -5.55640e-01 -9.38080e-04 -2.72440e-02 1.11000e-03 1.27570e-03 -1.09740e-01 -5.40580e-01 -9.74760e-04 -2.81520e-02 1.09910e-03 1.24670e-03 -1.11110e-01 -5.25710e-01 -9.74640e-04 -2.89810e-02 1.09310e-03 1.21850e-03 -1.12180e-01 -5.11070e-01 -9.92450e-04 -2.97710e-02 1.09030e-03 1.19100e-03 -1.12970e-01 -4.92400e-01 -5.22420e-04 -2.84180e-02 1.52560e-03 -2.19700e-04 -1.09720e-01 -4.81050e-01 -8.25410e-04 -3.04280e-02 1.23350e-03 6.82190e-04 -1.12510e-01 -4.68440e-01 -9.89330e-04 -3.17240e-02 1.08570e-03 1.11290e-03 -1.13770e-01 -4.54680e-01 -9.89990e-04 -3.22440e-02 1.08360e-03 1.08800e-03 -1.13570e-01 -4.41150e-01 -9.82480e-04 -3.26870e-02 1.08080e-03 1.06370e-03 -1.13150e-01 -4.27850e-01 -9.78810e-04 -3.30640e-02 1.07730e-03 1.03990e-03 -1.12530e-01 -4.14780e-01 -9.69880e-04 -3.33650e-02 1.07310e-03 1.01670e-03 -1.11730e-01 -4.01950e-01 -9.62930e-04 -3.35960e-02 1.06820e-03 9.93890e-04 -1.10750e-01 -3.90570e-01 -9.65220e-04 -3.45670e-02 1.19540e-03 6.20750e-04 -1.10870e-01 -3.80560e-01 -9.88330e-04 -3.62850e-02 1.45310e-03 -8.97730e-05 -1.12040e-01 -3.64870e-01 -9.30440e-04 -3.38650e-02 1.05020e-03 9.28400e-04 -1.06880e-01 -3.52980e-01 -9.18310e-04 -3.38180e-02 1.04320e-03 9.07470e-04 -1.05310e-01 -3.41330e-01 -9.04280e-04 -3.37040e-02 1.03580e-03 8.86970e-04 -1.03620e-01 -3.29900e-01 -8.89990e-04 -3.35270e-02 1.02800e-03 8.66890e-04 -1.01830e-01 -3.18720e-01 -8.74230e-04 -3.32870e-02 1.01970e-03 8.47200e-04 -9.99310e-02 -3.07760e-01 -8.58030e-04 -3.29890e-02 1.01100e-03 8.27890e-04 -9.79420e-02 -3.00070e-01 -1.04420e-03 -3.48920e-02 1.01290e-03 8.14960e-04 -9.90750e-02 -2.86530e-01 -8.22770e-04 -3.22240e-02 9.92600e-04 7.90340e-04 -9.37240e-02 -2.76250e-01 -8.03940e-04 -3.17620e-02 9.82820e-04 7.72080e-04 -9.15120e-02 -2.66200e-01 -7.84590e-04 -3.12520e-02 9.72670e-04 7.54130e-04 -8.92410e-02 -2.56370e-01 -7.64490e-04 -3.06970e-02 9.62170e-04 7.36480e-04 -8.69190e-02 -2.46760e-01 -7.43910e-04 -3.00980e-02 9.51300e-04 7.19120e-04 -8.45530e-02 -2.37360e-01 -7.22720e-04 -2.94600e-02 9.40090e-04 7.02030e-04 -8.21500e-02 -2.28180e-01 -7.01110e-04 -2.87850e-02 9.28520e-04 6.85200e-04 -7.97160e-02 -2.19210e-01 -6.79030e-04 -2.80760e-02 9.16610e-04 6.68620e-04 -7.72570e-02 -2.07890e-01 -4.77320e-04 -2.53550e-02 8.92630e-04 6.45670e-04 -7.21400e-02 -2.01900e-01 -6.33810e-04 -2.65700e-02 8.91790e-04 6.36160e-04 -7.22890e-02 -1.93550e-01 -6.10760e-04 -2.57780e-02 8.78880e-04 6.20250e-04 -6.97910e-02 -1.85400e-01 -5.87450e-04 -2.49650e-02 8.65640e-04 6.04550e-04 -6.72910e-02 -1.77450e-01 -5.63950e-04 -2.41330e-02 8.52090e-04 5.89040e-04 -6.47930e-02 -1.69700e-01 -5.40290e-04 -2.32860e-02 8.38230e-04 5.73720e-04 -6.23020e-02 -1.62150e-01 -5.16530e-04 -2.24250e-02 8.24070e-04 5.58580e-04 -5.98220e-02 -1.57040e-01 -6.50450e-04 -2.32270e-02 8.21790e-04 5.50510e-04 -5.95400e-02 -1.47610e-01 -4.68850e-04 -2.06770e-02 7.94840e-04 5.28800e-04 -5.49130e-02 -1.40630e-01 -4.45000e-04 -1.97940e-02 7.79800e-04 5.14150e-04 -5.24920e-02 -1.33830e-01 -4.21210e-04 -1.89090e-02 7.64480e-04 4.99650e-04 -5.00970e-02 -1.27220e-01 -3.97510e-04 -1.80230e-02 7.48890e-04 4.85300e-04 -4.77330e-02 -1.20790e-01 -3.73930e-04 -1.71410e-02 7.33030e-04 4.71090e-04 -4.54020e-02 -1.12610e-01 -2.61850e-04 -1.48450e-02 5.84040e-04 7.34770e-04 -4.12670e-02 -1.07840e-01 -2.98720e-04 -1.49370e-02 6.57720e-04 5.34080e-04 -4.02600e-02 -1.02570e-01 -3.04340e-04 -1.45310e-02 6.83930e-04 4.29250e-04 -3.86400e-02 -9.68480e-02 -2.81630e-04 -1.36810e-02 6.67080e-04 4.15550e-04 -3.64720e-02 -9.13010e-02 -2.59220e-04 -1.28440e-02 6.49990e-04 4.01980e-04 -3.43500e-02 -8.59260e-02 -2.37150e-04 -1.20210e-02 6.32680e-04 3.88530e-04 -3.22780e-02 -8.07210e-02 -2.15430e-04 -1.12150e-02 6.15150e-04 3.75190e-04 -3.02570e-02 -7.56860e-02 -1.94110e-04 -1.04280e-02 5.97410e-04 3.61960e-04 -2.82900e-02 -7.08190e-02 -1.73210e-04 -9.66040e-03 5.79460e-04 3.48840e-04 -2.63780e-02 -6.61190e-02 -1.52760e-04 -8.91410e-03 5.61310e-04 3.35830e-04 -2.45220e-02 -5.62320e-02 8.79970e-04 -4.12890e-03 4.88650e-04 1.43410e-04 -1.77710e-02 -5.36680e-02 7.69150e-04 -4.38760e-03 4.80570e-04 1.45210e-04 -1.73500e-02 -5.11820e-02 6.64510e-04 -4.57490e-03 4.72430e-04 1.46950e-04 -1.68740e-02 -4.89660e-02 -7.59560e-05 -6.16740e-03 4.86820e-04 2.84860e-04 -1.77010e-02 -4.50860e-02 -5.81210e-05 -5.54600e-03 4.67760e-04 2.72370e-04 -1.61520e-02 -4.13680e-02 -4.08760e-05 -4.95280e-03 4.48530e-04 2.59980e-04 -1.46690e-02 -3.78100e-02 -2.42320e-05 -4.38860e-03 4.29140e-04 2.47700e-04 -1.32520e-02 -3.31050e-02 6.90440e-05 -3.31340e-03 3.96500e-04 2.28540e-04 -1.11140e-02 -3.11760e-02 7.20700e-06 -3.35000e-03 3.89850e-04 2.23410e-04 -1.06190e-02 -2.80990e-02 2.20000e-05 -2.87700e-03 3.69930e-04 2.11380e-04 -9.40530e-03 -2.51810e-02 3.61920e-05 -2.43570e-03 3.49810e-04 1.99420e-04 -8.26110e-03 -2.24210e-02 4.98060e-05 -2.02640e-03 3.29450e-04 1.87500e-04 -7.18690e-03 -1.98210e-02 6.28920e-05 -1.64980e-03 3.08780e-04 1.75580e-04 -6.18340e-03 -1.73790e-02 7.55070e-05 -1.30620e-03 2.87730e-04 1.63600e-04 -5.25120e-03 -1.50950e-02 8.77480e-05 -9.96010e-04 2.66180e-04 1.51490e-04 -4.39060e-03 -1.29690e-02 9.97020e-05 -7.19590e-04 2.43960e-04 1.39150e-04 -3.60230e-03 -1.18300e-02 6.75600e-05 -6.67730e-04 2.35360e-04 1.33830e-04 -3.23100e-03 -9.19440e-03 1.23170e-04 -2.69820e-04 1.96760e-04 1.13280e-04 -2.24480e-03 -7.54550e-03 1.34740e-04 -9.75570e-05 1.71370e-04 9.95290e-05 -1.67680e-03 -6.05650e-03 1.45880e-04 3.85030e-05 1.44650e-04 8.51750e-05 -1.18390e-03 -4.72840e-03 1.55890e-04 1.37180e-04 1.16800e-04 7.03830e-05 -7.67320e-04 -3.05300e-03 1.85460e-04 2.29060e-04 7.31420e-05 4.79830e-05 -3.00950e-04 -2.55890e-03 1.63900e-04 2.13820e-04 6.11800e-05 4.17140e-05 -1.70100e-04 -1.71880e-03 1.52820e-04 1.85320e-04 3.71580e-05 2.99070e-05 5.96870e-06 -1.03950e-03 1.21800e-04 1.08560e-04 1.85430e-05 2.11620e-05 9.76600e-05 -5.17050e-04 7.40040e-05 7.99540e-07 5.25360e-06 1.60460e-05 1.05970e-04 -1.63440e-04 6.59760e-05 -3.17510e-05 -3.59950e-06 1.56300e-05 4.28360e-05 -4.54080e-05 7.29650e-05 1.77710e-05 -7.62710e-06 1.80190e-05 -1.35490e-05 -8.44900e-01 -5.08980e-01 -4.44170e-01 -3.22660e-02 -3.29100e-03 1.47320e-01 -9.06630e-01 -3.24410e-01 -2.00610e-01 -2.62430e-02 -2.53200e-03 7.57740e-02 -8.82530e-01 -1.00150e-01 -1.12290e-02 -1.72540e-02 -1.14320e-03 -7.20800e-03 -8.64510e-01 -5.62220e-02 -3.55630e-03 -9.53860e-03 -8.34580e-04 -2.54780e-02 -8.54070e-01 -3.30590e-02 -7.43880e-03 -3.83970e-03 -8.19630e-04 -2.94960e-02 -8.34340e-01 -2.24480e-02 -1.65670e-02 1.29030e-03 9.41860e-04 -2.87790e-02 -8.18700e-01 -9.06920e-03 -1.12960e-02 1.99250e-03 9.31180e-05 -4.06100e-02 -8.01210e-01 -4.89020e-03 -1.25140e-02 2.40970e-03 -2.11210e-04 -4.90820e-02 -7.81350e-01 -2.58700e-03 -1.44660e-02 2.59360e-03 8.19780e-05 -5.64750e-02 -7.60890e-01 -2.41350e-04 -1.47780e-02 2.44840e-03 3.14140e-04 -6.35440e-02 -7.41420e-01 1.34340e-04 -1.62040e-02 2.17960e-03 4.88160e-04 -7.00590e-02 -7.22190e-01 7.95660e-04 -1.68580e-02 1.86810e-03 6.00410e-04 -7.60420e-02 -7.03850e-01 5.64280e-04 -1.81290e-02 1.58570e-03 6.74180e-04 -8.14590e-02 -6.85870e-01 6.41810e-04 -1.90050e-02 1.34040e-03 7.12070e-04 -8.63680e-02 -6.68540e-01 3.22480e-04 -2.02150e-02 1.14880e-03 7.31750e-04 -9.07760e-02 -6.57220e-01 4.20300e-04 -2.25920e-02 1.04570e-03 7.30580e-04 -9.87400e-02 -6.34940e-01 1.73630e-07 -2.23620e-02 8.93000e-04 7.30870e-04 -9.82500e-02 -6.18610e-01 -7.76120e-05 -2.33790e-02 8.15810e-04 7.20410e-04 -1.01360e-01 -6.02600e-01 -2.43850e-04 -2.44770e-02 7.63790e-04 7.08270e-04 -1.04090e-01 -5.86810e-01 -2.98280e-04 -2.54690e-02 7.28450e-04 6.93960e-04 -1.06450e-01 -5.66200e-01 -2.45990e-04 -2.43410e-02 4.31350e-04 2.36330e-03 -1.04390e-01 -5.54310e-01 -4.40290e-04 -2.67360e-02 5.98950e-04 1.22020e-03 -1.08770e-01 -5.40840e-01 -4.95910e-04 -2.83200e-02 6.82750e-04 6.50930e-04 -1.11500e-01 -5.25940e-01 -5.17090e-04 -2.91500e-02 6.76970e-04 6.36850e-04 -1.12560e-01 -5.11260e-01 -5.55470e-04 -2.99420e-02 6.73240e-04 6.23290e-04 -1.13340e-01 -4.92430e-01 -3.65060e-04 -2.84740e-02 6.65660e-04 6.07790e-04 -1.09910e-01 -4.82570e-01 -5.94890e-04 -3.13160e-02 6.67710e-04 5.96960e-04 -1.14110e-01 -4.68560e-01 -6.05520e-04 -3.18980e-02 6.65010e-04 5.84220e-04 -1.14120e-01 -4.54770e-01 -6.22390e-04 -3.24180e-02 6.62140e-04 5.71800e-04 -1.13910e-01 -4.41220e-01 -6.30340e-04 -3.28620e-02 6.58880e-04 5.59610e-04 -1.13490e-01 -4.27900e-01 -6.41640e-04 -3.32380e-02 6.55290e-04 5.47690e-04 -1.12860e-01 -4.14810e-01 -6.47090e-04 -3.35390e-02 6.51300e-04 5.35980e-04 -1.12050e-01 -4.01960e-01 -6.54050e-04 -3.37700e-02 6.46990e-04 5.24520e-04 -1.11060e-01 -3.89350e-01 -6.56920e-04 -3.39290e-02 6.42350e-04 5.13280e-04 -1.09910e-01 -3.78150e-01 -7.01640e-04 -3.48070e-02 7.13780e-04 1.41960e-04 -1.09820e-01 -3.68280e-01 -7.78890e-04 -3.63970e-02 8.60250e-04 -5.76260e-04 -1.10770e-01 -3.52920e-01 -6.60140e-04 -3.39880e-02 6.26810e-04 4.80880e-04 -1.05590e-01 -3.41250e-01 -6.57620e-04 -3.38730e-02 6.21160e-04 4.70490e-04 -1.03890e-01 -3.29820e-01 -6.54370e-04 -3.36950e-02 6.15300e-04 4.60300e-04 -1.02090e-01 -3.18620e-01 -6.49230e-04 -3.34540e-02 6.09240e-04 4.50300e-04 -1.00180e-01 -3.07650e-01 -6.43190e-04 -3.31540e-02 6.02990e-04 4.40480e-04 -9.81850e-02 -2.97910e-01 -6.79080e-04 -3.35580e-02 6.58150e-04 1.49890e-04 -9.71920e-02 -2.89350e-01 -7.56810e-04 -3.46480e-02 7.72060e-04 -4.10720e-04 -9.71510e-02 -2.76110e-01 -6.17110e-04 -3.19220e-02 5.83130e-04 4.12020e-04 -9.17320e-02 -2.66050e-01 -6.06300e-04 -3.14100e-02 5.76160e-04 4.02840e-04 -8.94540e-02 -2.56210e-01 -5.94370e-04 -3.08520e-02 5.69010e-04 3.93810e-04 -8.71240e-02 -2.46590e-01 -5.81580e-04 -3.02520e-02 5.61700e-04 3.84910e-04 -8.47510e-02 -2.37190e-01 -5.67840e-04 -2.96110e-02 5.54220e-04 3.76140e-04 -8.23410e-02 -2.28000e-01 -5.53330e-04 -2.89340e-02 5.46570e-04 3.67490e-04 -7.99000e-02 -2.16380e-01 -3.09330e-04 -2.62240e-02 6.55750e-04 -2.63760e-04 -7.47640e-02 -2.09400e-01 -4.46900e-04 -2.68280e-02 5.68570e-04 1.45710e-04 -7.40820e-02 -2.01710e-01 -5.05400e-04 -2.67120e-02 5.22670e-04 3.42220e-04 -7.24540e-02 -1.93360e-01 -4.88200e-04 -2.59180e-02 5.14390e-04 3.34000e-04 -6.99500e-02 -1.85210e-01 -4.70450e-04 -2.51030e-02 5.05950e-04 3.25880e-04 -6.74430e-02 -1.77260e-01 -4.52240e-04 -2.42680e-02 4.97370e-04 3.17840e-04 -6.49390e-02 -1.69500e-01 -4.33610e-04 -2.34180e-02 4.88650e-04 3.09890e-04 -6.24430e-02 -1.61950e-01 -4.14620e-04 -2.25550e-02 4.79780e-04 3.02030e-04 -5.99570e-02 -1.55320e-01 -4.35790e-04 -2.22460e-02 4.97050e-04 1.50420e-04 -5.82250e-02 -1.49580e-01 -4.94390e-04 -2.24450e-02 5.36670e-04 -1.38650e-04 -5.71850e-02 -1.40430e-01 -3.55970e-04 -1.99160e-02 4.52350e-04 2.78890e-04 -5.26110e-02 -1.33630e-01 -3.36030e-04 -1.90280e-02 4.42950e-04 2.71310e-04 -5.02120e-02 -1.27020e-01 -3.15960e-04 -1.81400e-02 4.33420e-04 2.63810e-04 -4.78430e-02 -1.20590e-01 -2.95830e-04 -1.72550e-02 4.23770e-04 2.56360e-04 -4.55070e-02 -1.14340e-01 -2.75670e-04 -1.63740e-02 4.14000e-04 2.48980e-04 -4.32080e-02 -1.06290e-01 -1.21990e-04 -1.41760e-02 3.97270e-04 2.38020e-04 -3.92160e-02 -1.02380e-01 -2.35450e-04 -1.46370e-02 3.94120e-04 2.34390e-04 -3.87310e-02 -9.66570e-02 -2.15470e-04 -1.37830e-02 3.84010e-04 2.27170e-04 -3.65590e-02 -9.11120e-02 -1.95620e-04 -1.29430e-02 3.73800e-04 2.20010e-04 -3.44330e-02 -8.57400e-02 -1.75960e-04 -1.21180e-02 3.63490e-04 2.12910e-04 -3.23570e-02 -8.05380e-02 -1.56520e-04 -1.13090e-02 3.53070e-04 2.05850e-04 -3.03320e-02 -7.55060e-02 -1.37330e-04 -1.05190e-02 3.42560e-04 1.98840e-04 -2.83610e-02 -6.88970e-02 1.15800e-05 -8.79240e-03 3.31170e-04 -9.25140e-06 -2.51580e-02 -6.59030e-02 -7.96610e-05 -9.01120e-03 3.24170e-04 -4.08040e-06 -2.46000e-02 -6.03340e-02 1.25520e-04 -7.46320e-03 2.92100e-04 6.60060e-05 -2.18000e-02 -5.58760e-02 2.25140e-04 -6.53320e-03 2.71110e-04 1.08900e-04 -1.98330e-02 -5.32690e-02 1.38230e-04 -6.65820e-03 2.66790e-04 1.08430e-04 -1.92650e-02 -4.88080e-02 -2.93950e-05 -6.24040e-03 2.77660e-04 1.57770e-04 -1.77500e-02 -4.49310e-02 -1.28880e-05 -5.61590e-03 2.66560e-04 1.51090e-04 -1.61980e-02 -4.12170e-02 3.12630e-06 -5.01960e-03 2.55390e-04 1.44440e-04 -1.47110e-02 -3.76640e-02 1.86320e-05 -4.45220e-03 2.44140e-04 1.37840e-04 -1.32900e-02 -3.29650e-02 1.10420e-04 -3.37180e-03 2.25760e-04 1.27630e-04 -1.11470e-02 -3.10380e-02 4.80700e-05 -3.40720e-03 2.21420e-04 1.24740e-04 -1.06510e-02 -2.79650e-02 6.20040e-05 -2.93090e-03 2.09930e-04 1.18240e-04 -9.43430e-03 -2.50510e-02 7.54370e-05 -2.48630e-03 1.98330e-04 1.11760e-04 -8.28690e-03 -2.22960e-02 8.84030e-05 -2.07380e-03 1.86610e-04 1.05280e-04 -7.20950e-03 -1.97000e-02 1.00960e-04 -1.69390e-03 1.74730e-04 9.87800e-05 -6.20300e-03 -1.72620e-02 1.13200e-04 -1.34700e-03 1.62650e-04 9.22250e-05 -5.26770e-03 -1.49840e-02 1.25220e-04 -1.03360e-03 1.50280e-04 8.55720e-05 -4.40440e-03 -1.28640e-02 1.37130e-04 -7.54050e-04 1.37540e-04 7.87640e-05 -3.61360e-03 -1.17270e-02 1.05130e-04 -7.01050e-04 1.32140e-04 7.56620e-05 -3.24140e-03 -9.08000e-03 1.75660e-04 -3.01390e-04 9.22770e-05 4.22360e-05 -2.25440e-03 -8.14140e-03 1.51000e-04 -2.53020e-04 8.60970e-05 4.21070e-05 -1.94160e-03 -5.98000e-03 1.84440e-04 1.48850e-05 8.10140e-05 4.88160e-05 -1.18930e-03 -4.07710e-03 2.36100e-04 1.78080e-04 4.79260e-05 3.29400e-05 -6.04470e-04 -3.49450e-03 2.13840e-04 1.74960e-04 4.19390e-05 3.17610e-05 -4.36560e-04 -2.50480e-03 2.11080e-04 1.94330e-04 3.06510e-05 2.86300e-05 -1.78290e-04 -2.03770e-03 1.92600e-04 1.94760e-04 2.51610e-05 2.73240e-05 -4.83960e-05 -1.01440e-03 1.47680e-04 9.51700e-05 1.14330e-05 1.43800e-05 9.23060e-05 -5.01860e-04 9.66790e-05 -1.03230e-05 3.38820e-06 1.20260e-05 1.02200e-04 -1.57300e-04 8.74820e-05 -4.08510e-05 -2.58160e-06 1.22290e-05 4.25320e-05 -4.32540e-05 9.52420e-05 8.48330e-06 -5.64900e-06 1.36180e-05 -1.11690e-05 -8.53340e-01 -5.22920e-01 -4.55980e-01 3.74860e-09 2.05930e-10 1.50260e-01 -9.09840e-01 -3.29050e-01 -2.01300e-01 2.04650e-09 -2.31300e-10 7.81000e-02 -8.82690e-01 -1.04930e-01 -1.07680e-02 1.12830e-10 -4.64380e-10 -5.95100e-03 -8.66100e-01 -6.07960e-02 -4.31860e-03 -2.00410e-10 -1.63120e-10 -2.49520e-02 -8.54590e-01 -3.54510e-02 -6.19830e-03 -5.34560e-12 1.23100e-10 -2.92470e-02 -8.40940e-01 -2.07150e-02 -9.27830e-03 3.81800e-10 3.39290e-10 -3.47570e-02 -8.14520e-01 -6.86280e-03 -8.73310e-03 3.47370e-04 1.68480e-03 -3.82810e-02 -8.00950e-01 -5.45570e-03 -1.28420e-02 2.88150e-04 5.94220e-04 -4.75930e-02 -7.82970e-01 -2.51180e-03 -1.41050e-02 1.62580e-09 7.02770e-10 -5.64950e-02 -7.62500e-01 -2.85520e-04 -1.49000e-02 2.02130e-09 7.87370e-10 -6.35770e-02 -7.42550e-01 4.18540e-04 -1.60530e-02 2.40780e-09 8.64940e-10 -7.01610e-02 -7.23180e-01 9.97510e-04 -1.69100e-02 2.77850e-09 9.36060e-10 -7.61460e-02 -7.04540e-01 8.74510e-04 -1.80800e-02 3.13360e-09 1.00380e-09 -8.15930e-02 -6.86440e-01 8.98380e-04 -1.90370e-02 3.46490e-09 1.06700e-09 -8.64970e-02 -6.71020e-01 3.98250e-04 -2.09070e-02 -3.25340e-06 6.64690e-04 -9.21900e-02 -6.57580e-01 6.28740e-04 -2.26600e-02 -2.56810e-05 1.97810e-03 -9.88700e-02 -6.35180e-01 2.43980e-04 -2.23820e-02 4.28540e-09 1.23590e-09 -9.83860e-02 -6.18800e-01 1.43970e-04 -2.34120e-02 4.49230e-09 1.28420e-09 -1.01490e-01 -6.02750e-01 -3.15530e-05 -2.45070e-02 4.66510e-09 1.32820e-09 -1.04220e-01 -5.86930e-01 -1.00610e-04 -2.55040e-02 4.80490e-09 1.36760e-09 -1.06570e-01 -5.71370e-01 -2.12170e-04 -2.65190e-02 4.91400e-09 1.40250e-09 -1.08580e-01 -5.51200e-01 -1.06510e-04 -2.54630e-02 -2.04650e-04 1.65810e-03 -1.06240e-01 -5.40900e-01 -3.26240e-04 -2.83590e-02 -2.08830e-04 1.62520e-03 -1.11620e-01 -5.25990e-01 -3.55260e-04 -2.91900e-02 -2.10230e-04 1.57750e-03 -1.12680e-01 -5.11310e-01 -4.00830e-04 -2.99830e-02 -2.09730e-04 1.53100e-03 -1.13450e-01 -4.92470e-01 -2.20450e-04 -2.85180e-02 4.86780e-09 1.39390e-09 -1.10020e-01 -4.82600e-01 -4.53180e-04 -3.13580e-02 5.11210e-09 1.53270e-09 -1.14220e-01 -4.68580e-01 -4.69650e-04 -3.19410e-02 5.09300e-09 1.54460e-09 -1.14230e-01 -4.54790e-01 -4.92320e-04 -3.24620e-02 5.06200e-09 1.55450e-09 -1.14020e-01 -4.41230e-01 -5.05630e-04 -3.29060e-02 5.02000e-09 1.56260e-09 -1.13590e-01 -4.27900e-01 -5.22280e-04 -3.32830e-02 4.96700e-09 1.56870e-09 -1.12960e-01 -4.14810e-01 -5.32730e-04 -3.35840e-02 4.90380e-09 1.57290e-09 -1.12150e-01 -4.01950e-01 -5.44640e-04 -3.38150e-02 4.83090e-09 1.57500e-09 -1.11160e-01 -3.89330e-01 -5.52180e-04 -3.39740e-02 4.74890e-09 1.57470e-09 -1.10000e-01 -3.76950e-01 -5.59970e-04 -3.40630e-02 4.65870e-09 1.57130e-09 -1.08700e-01 -3.68270e-01 -7.75170e-04 -3.64140e-02 4.79990e-09 1.70010e-09 -1.10790e-01 -3.52890e-01 -5.68580e-04 -3.40330e-02 4.45410e-09 1.55320e-09 -1.05670e-01 -3.41220e-01 -5.70090e-04 -3.39180e-02 4.33950e-09 1.53690e-09 -1.03970e-01 -3.29780e-01 -5.70760e-04 -3.37400e-02 4.21650e-09 1.51520e-09 -1.02170e-01 -3.18570e-01 -5.69330e-04 -3.34990e-02 4.08540e-09 1.48780e-09 -1.00260e-01 -3.07600e-01 -5.66890e-04 -3.31980e-02 3.94760e-09 1.45490e-09 -9.82600e-02 -2.96860e-01 -5.62690e-04 -3.28410e-02 3.80500e-09 1.41720e-09 -9.61780e-02 -2.89330e-01 -7.54970e-04 -3.46670e-02 3.88790e-09 1.51620e-09 -9.71720e-02 -2.76060e-01 -5.50680e-04 -3.19650e-02 1.24200e-04 -8.10280e-04 -9.17990e-02 -2.65990e-01 -5.42890e-04 -3.14530e-02 1.18070e-04 -7.80490e-04 -8.95190e-02 -2.56150e-01 -5.33830e-04 -3.08950e-02 1.11930e-04 -7.51420e-04 -8.71870e-02 -2.46530e-01 -5.23800e-04 -3.02940e-02 1.05790e-04 -7.23060e-04 -8.48120e-02 -2.37130e-01 -5.12680e-04 -2.96530e-02 9.96680e-05 -6.95400e-04 -8.23990e-02 -2.27940e-01 -5.00680e-04 -2.89760e-02 9.35700e-05 -6.68430e-04 -7.99560e-02 -2.16360e-01 -3.08920e-04 -2.62430e-02 2.69900e-09 9.60350e-10 -7.47800e-02 -2.10200e-01 -4.74060e-04 -2.75220e-02 2.78400e-09 1.04170e-09 -7.50030e-02 -2.01640e-01 -4.59590e-04 -2.67520e-02 2.72080e-09 1.00970e-09 -7.25040e-02 -1.93290e-01 -4.44450e-04 -2.59580e-02 2.66460e-09 9.80850e-10 -6.99980e-02 -1.85140e-01 -4.28660e-04 -2.51410e-02 2.61330e-09 9.54970e-10 -6.74900e-02 -1.77190e-01 -4.12330e-04 -2.43070e-02 2.56430e-09 9.31330e-10 -6.49840e-02 -1.69440e-01 -3.95470e-04 -2.34560e-02 2.51500e-09 9.08810e-10 -6.24850e-02 -1.61880e-01 -3.78170e-04 -2.25920e-02 2.46190e-09 8.85850e-10 -5.99980e-02 -1.54520e-01 -3.60460e-04 -2.17180e-02 2.40100e-09 8.60540e-10 -5.75270e-02 -1.48080e-01 -3.93220e-04 -2.13790e-02 1.21310e-05 -1.42170e-04 -5.57820e-02 -1.42530e-01 -4.73350e-04 -2.15280e-02 3.28430e-05 -4.20380e-04 -5.47030e-02 -1.33570e-01 -3.05480e-04 -1.90620e-02 2.13880e-09 7.55310e-10 -5.02460e-02 -1.26950e-01 -2.86710e-04 -1.81740e-02 2.01730e-09 7.07530e-10 -4.78760e-02 -1.20520e-01 -2.67800e-04 -1.72880e-02 1.87810e-09 6.53380e-10 -4.55390e-02 -1.14270e-01 -2.48790e-04 -1.64070e-02 1.72260e-09 5.93640e-10 -4.32390e-02 -1.06230e-01 -9.66250e-05 -1.42070e-02 1.40800e-09 4.39820e-10 -3.92440e-02 -1.07520e-01 -1.57090e-03 -1.80660e-02 -2.61380e-05 -3.04330e-04 -4.28830e-02 -1.03480e-01 -1.64900e-03 -1.83910e-02 -2.90900e-05 -2.93810e-04 -4.22180e-02 -9.95460e-02 -1.71990e-03 -1.86260e-02 -3.19950e-05 -2.83470e-04 -4.14770e-02 -8.56780e-02 -1.53920e-04 -1.21470e-02 8.03970e-10 2.42840e-10 -3.23810e-02 -7.86960e-02 -1.91400e-05 -1.02680e-02 -7.95410e-06 -2.34780e-04 -2.89330e-02 -7.54470e-02 -1.16850e-04 -1.05460e-02 -1.09630e-05 -2.25570e-04 -2.83820e-02 -7.00170e-02 -6.22700e-05 -9.45180e-03 -4.63720e-06 -7.21760e-05 -2.60310e-02 -6.58880e-02 -8.07440e-05 -9.02460e-03 1.14220e-10 -3.51590e-11 -2.46050e-02 -6.13590e-02 -6.31440e-05 -8.29710e-03 -2.25010e-11 -9.12170e-11 -2.28030e-02 -5.69940e-02 -4.58910e-05 -7.59340e-03 -1.39400e-10 -1.38740e-10 -2.10620e-02 -5.33050e-02 -6.06510e-05 -7.17230e-03 -7.43320e-06 -5.17090e-05 -1.97380e-02 -5.02450e-02 -1.03840e-04 -6.98740e-03 -2.50310e-05 -1.52130e-04 -1.87750e-02 -4.48810e-02 3.48880e-06 -5.63700e-03 -3.58100e-10 -2.23860e-10 -1.62120e-02 -4.11680e-02 1.90650e-05 -5.03980e-03 -3.87310e-10 -2.33900e-10 -1.47240e-02 -3.76160e-02 3.41650e-05 -4.47150e-03 -3.96990e-10 -2.36200e-10 -1.33020e-02 -3.29200e-02 1.25410e-04 -3.38960e-03 -4.02880e-10 -2.46320e-10 -1.11570e-02 -3.09940e-02 6.28920e-05 -3.42460e-03 -3.67290e-10 -2.21730e-10 -1.06610e-02 -2.79220e-02 7.65200e-05 -2.94740e-03 -3.34120e-10 -2.07200e-10 -9.44320e-03 -2.50100e-02 8.96840e-05 -2.50190e-03 -2.93290e-10 -1.89140e-10 -8.29480e-03 -2.22560e-02 1.02420e-04 -2.08840e-03 -2.48780e-10 -1.68880e-10 -7.21650e-03 -1.96620e-02 1.14800e-04 -1.70750e-03 -2.03830e-10 -1.47600e-10 -6.20900e-03 -1.72260e-02 1.26900e-04 -1.35970e-03 -1.60810e-10 -1.26390e-10 -5.27290e-03 -1.49490e-02 1.38840e-04 -1.04540e-03 -1.22610e-10 -1.06950e-10 -4.40870e-03 -1.28310e-02 1.50740e-04 -7.64910e-04 -9.19240e-11 -9.05480e-11 -3.61720e-03 -1.16950e-02 1.18770e-04 -7.11620e-04 -7.17620e-11 -7.80510e-11 -3.24480e-03 -9.07280e-03 1.74820e-04 -3.07660e-04 -5.11640e-11 -6.57050e-11 -2.25460e-03 -7.66770e-03 1.74660e-04 -1.74420e-04 -6.44880e-06 -5.80770e-06 -1.77060e-03 -5.32110e-03 2.30790e-04 1.02580e-04 -1.60270e-05 -1.16500e-05 -9.78230e-04 -4.45210e-03 2.17330e-04 1.30260e-04 -5.65520e-06 -3.59810e-06 -7.18010e-04 -3.49000e-03 2.13630e-04 1.70690e-04 -2.90830e-11 -4.32250e-11 -4.36550e-04 -2.50100e-03 2.11010e-04 1.90640e-04 -2.47720e-11 -3.89090e-11 -1.78320e-04 -1.79430e-03 1.93720e-04 1.73520e-04 -2.88390e-07 2.09720e-06 -1.76140e-05 -1.29470e-03 1.68840e-04 1.45450e-04 -9.36650e-07 6.64060e-06 8.24870e-05 -4.97580e-04 1.05330e-04 -1.39550e-05 -2.02210e-11 -4.60150e-11 1.01050e-04 -1.55810e-04 9.58800e-05 -4.38820e-05 -1.65630e-11 -5.67700e-11 4.26680e-05 -4.31060e-05 1.03640e-04 4.87170e-06 -7.90410e-12 -6.06450e-11 -1.01310e-05 -8.44900e-01 -5.08980e-01 -4.44170e-01 3.22660e-02 3.29100e-03 1.47320e-01 -9.06630e-01 -3.24410e-01 -2.00610e-01 2.62430e-02 2.53200e-03 7.57740e-02 -8.82530e-01 -1.00150e-01 -1.12290e-02 1.72540e-02 1.14320e-03 -7.20800e-03 -8.64510e-01 -5.62220e-02 -3.55630e-03 9.53860e-03 8.34580e-04 -2.54780e-02 -8.54070e-01 -3.30590e-02 -7.43880e-03 3.83970e-03 8.19630e-04 -2.94960e-02 -8.38530e-01 -1.84500e-02 -8.73880e-03 2.41430e-04 7.57580e-04 -3.49190e-02 -7.30090e-01 1.72430e-02 6.57540e-03 -3.67490e-03 -1.17420e-03 -2.36780e-02 -7.94670e-01 -5.53630e-03 -1.36120e-02 -2.26560e-03 1.97280e-03 -4.47020e-02 -7.78530e-01 -9.73180e-04 -1.27710e-02 -2.30210e-03 5.41110e-04 -5.54110e-02 -7.60890e-01 -2.41350e-04 -1.47780e-02 -2.44840e-03 -3.14140e-04 -6.35440e-02 -7.41420e-01 1.34340e-04 -1.62040e-02 -2.17960e-03 -4.88160e-04 -7.00590e-02 -7.22190e-01 7.95660e-04 -1.68580e-02 -1.86800e-03 -6.00410e-04 -7.60420e-02 -7.03850e-01 5.64280e-04 -1.81290e-02 -1.58570e-03 -6.74180e-04 -8.14590e-02 -6.88040e-01 8.87420e-04 -1.93420e-02 -1.37200e-03 -3.31500e-05 -8.77260e-02 -6.75060e-01 -7.07240e-05 -2.23600e-02 -1.26590e-03 1.28060e-03 -9.46890e-02 -6.51520e-01 2.51790e-04 -2.12010e-02 -1.00000e-03 -7.34690e-04 -9.47330e-02 -6.34940e-01 1.73970e-07 -2.23620e-02 -8.92990e-04 -7.30860e-04 -9.82500e-02 -6.18610e-01 -7.76120e-05 -2.33790e-02 -8.15800e-04 -7.20410e-04 -1.01360e-01 -6.02600e-01 -2.43850e-04 -2.44770e-02 -7.63790e-04 -7.08260e-04 -1.04090e-01 -5.86810e-01 -2.98280e-04 -2.54690e-02 -7.28440e-04 -6.93960e-04 -1.06450e-01 -5.71270e-01 -4.00370e-04 -2.64830e-02 -7.06060e-04 -6.79750e-04 -1.08450e-01 -5.51130e-01 -2.80640e-04 -2.54230e-02 -6.83600e-04 -6.63040e-04 -1.06120e-01 -5.40840e-01 -4.95910e-04 -2.83200e-02 -6.82730e-04 -6.50930e-04 -1.11500e-01 -5.25940e-01 -5.17080e-04 -2.91500e-02 -6.76960e-04 -6.36850e-04 -1.12560e-01 -5.11260e-01 -5.55470e-04 -2.99420e-02 -6.73230e-04 -6.23280e-04 -1.13340e-01 -4.92470e-01 -2.27140e-04 -2.85080e-02 -9.29780e-04 8.43030e-04 -1.09990e-01 -4.81150e-01 -4.65040e-04 -3.05750e-02 -7.55050e-04 -1.18220e-04 -1.12830e-01 -4.68560e-01 -6.05520e-04 -3.18980e-02 -6.65000e-04 -5.84220e-04 -1.14120e-01 -4.54770e-01 -6.22390e-04 -3.24180e-02 -6.62130e-04 -5.71800e-04 -1.13910e-01 -4.41220e-01 -6.30340e-04 -3.28620e-02 -6.58870e-04 -5.59600e-04 -1.13490e-01 -4.27900e-01 -6.41640e-04 -3.32380e-02 -6.55280e-04 -5.47680e-04 -1.12860e-01 -4.14810e-01 -6.47090e-04 -3.35390e-02 -6.51290e-04 -5.35980e-04 -1.12050e-01 -4.01960e-01 -6.54050e-04 -3.37700e-02 -6.46980e-04 -5.24520e-04 -1.11060e-01 -3.89350e-01 -6.56920e-04 -3.39290e-02 -6.42340e-04 -5.13280e-04 -1.09910e-01 -3.76970e-01 -6.60120e-04 -3.40180e-02 -6.37420e-04 -5.02270e-04 -1.08610e-01 -3.68300e-01 -8.72720e-04 -3.63690e-02 -6.37960e-04 -4.94180e-04 -1.10700e-01 -3.52920e-01 -6.60140e-04 -3.39880e-02 -6.26800e-04 -4.80880e-04 -1.05590e-01 -3.41250e-01 -6.57620e-04 -3.38730e-02 -6.21150e-04 -4.70490e-04 -1.03890e-01 -3.29820e-01 -6.54370e-04 -3.36950e-02 -6.15290e-04 -4.60300e-04 -1.02090e-01 -3.18620e-01 -6.49230e-04 -3.34540e-02 -6.09230e-04 -4.50290e-04 -1.00180e-01 -3.07650e-01 -6.43190e-04 -3.31540e-02 -6.02980e-04 -4.40470e-04 -9.81850e-02 -2.96910e-01 -6.35570e-04 -3.27970e-02 -5.96540e-04 -4.30830e-04 -9.61060e-02 -2.89380e-01 -8.25680e-04 -3.46230e-02 -5.96120e-04 -4.24390e-04 -9.71000e-02 -2.76110e-01 -6.17110e-04 -3.19220e-02 -5.83120e-04 -4.12020e-04 -9.17320e-02 -2.66050e-01 -6.06300e-04 -3.14100e-02 -5.76150e-04 -4.02840e-04 -8.94540e-02 -2.56210e-01 -5.94370e-04 -3.08520e-02 -5.69010e-04 -3.93810e-04 -8.71240e-02 -2.46590e-01 -5.81580e-04 -3.02520e-02 -5.61690e-04 -3.84910e-04 -8.47510e-02 -2.37190e-01 -5.67840e-04 -2.96110e-02 -5.54210e-04 -3.76140e-04 -8.23410e-02 -2.28000e-01 -5.53330e-04 -2.89340e-02 -5.46570e-04 -3.67490e-04 -7.99000e-02 -2.16420e-01 -3.58290e-04 -2.62020e-02 -5.32270e-04 -3.55640e-04 -7.47270e-02 -2.10260e-01 -5.22050e-04 -2.74810e-02 -5.30790e-04 -3.50530e-04 -7.49510e-02 -2.01710e-01 -5.05400e-04 -2.67120e-02 -5.22660e-04 -3.42220e-04 -7.24540e-02 -1.93360e-01 -4.88200e-04 -2.59180e-02 -5.14380e-04 -3.34000e-04 -6.99500e-02 -1.85210e-01 -4.70450e-04 -2.51030e-02 -5.05950e-04 -3.25870e-04 -6.74430e-02 -1.77260e-01 -4.52240e-04 -2.42680e-02 -4.97370e-04 -3.17840e-04 -6.49390e-02 -1.69500e-01 -4.33610e-04 -2.34180e-02 -4.88640e-04 -3.09890e-04 -6.24430e-02 -1.61950e-01 -4.14620e-04 -2.25550e-02 -4.79770e-04 -3.02030e-04 -5.99570e-02 -1.54590e-01 -3.95320e-04 -2.16820e-02 -4.70770e-04 -2.94240e-04 -5.74880e-02 -1.47410e-01 -3.75750e-04 -2.08010e-02 -4.61620e-04 -2.86530e-04 -5.50380e-02 -1.41170e-01 -4.16560e-04 -2.04350e-02 -4.34410e-04 -4.11670e-04 -5.32880e-02 -1.35820e-01 -5.14340e-04 -2.05380e-02 -3.92940e-04 -6.63850e-04 -5.21760e-02 -1.27020e-01 -3.15960e-04 -1.81400e-02 -4.33420e-04 -2.63800e-04 -4.78430e-02 -1.20590e-01 -2.95830e-04 -1.72550e-02 -4.23770e-04 -2.56360e-04 -4.55070e-02 -1.14340e-01 -2.75670e-04 -1.63740e-02 -4.14000e-04 -2.48980e-04 -4.32080e-02 -1.06240e-01 -9.57580e-05 -1.41910e-02 -4.31860e-04 6.56880e-05 -3.92360e-02 -1.07560e-01 -1.60390e-03 -1.80530e-02 -4.68640e-04 -2.48670e-04 -4.28760e-02 -1.00460e-01 -1.08350e-03 -1.63100e-02 -4.20030e-04 -2.89870e-04 -3.96450e-02 -9.28380e-02 -5.19390e-04 -1.40670e-02 -3.72340e-04 -3.78170e-04 -3.58270e-02 -8.57850e-02 -1.99000e-04 -1.21040e-02 -3.46050e-04 -4.58440e-04 -3.23400e-02 -7.99590e-02 -1.25220e-04 -1.09490e-02 -3.46190e-04 -2.83290e-04 -2.98530e-02 -7.55060e-02 -1.37330e-04 -1.05190e-02 -3.42560e-04 -1.98840e-04 -2.83610e-02 -7.06420e-02 -1.18430e-04 -9.74850e-03 -3.31960e-04 -1.91880e-04 -2.64450e-02 -6.59450e-02 -9.98510e-05 -8.99920e-03 -3.21270e-04 -1.84970e-04 -2.45860e-02 -6.14140e-02 -8.16270e-05 -8.27250e-03 -3.10490e-04 -1.78100e-04 -2.27850e-02 -5.70480e-02 -6.37910e-05 -7.56970e-03 -2.99630e-04 -1.71280e-04 -2.10450e-02 -5.28460e-02 -4.63710e-05 -6.89200e-03 -2.88680e-04 -1.64510e-04 -1.93660e-02 -5.02360e-02 -2.22980e-04 -7.21090e-03 -2.98390e-04 -1.91490e-04 -1.89770e-02 -4.90420e-02 -8.07700e-04 -8.96490e-03 -3.58710e-04 -3.09590e-04 -2.02160e-02 -4.12170e-02 3.12630e-06 -5.01960e-03 -2.55390e-04 -1.44440e-04 -1.47110e-02 -3.76640e-02 1.86320e-05 -4.45220e-03 -2.44140e-04 -1.37840e-04 -1.32900e-02 -3.29650e-02 1.10420e-04 -3.37180e-03 -2.25770e-04 -1.27630e-04 -1.11470e-02 -3.10380e-02 4.80700e-05 -3.40720e-03 -2.21420e-04 -1.24750e-04 -1.06510e-02 -2.79650e-02 6.20040e-05 -2.93090e-03 -2.09930e-04 -1.18240e-04 -9.43430e-03 -2.50510e-02 7.54370e-05 -2.48630e-03 -1.98330e-04 -1.11760e-04 -8.28690e-03 -2.22960e-02 8.84030e-05 -2.07380e-03 -1.86610e-04 -1.05280e-04 -7.20950e-03 -1.97000e-02 1.00960e-04 -1.69390e-03 -1.74730e-04 -9.87800e-05 -6.20300e-03 -1.72620e-02 1.13200e-04 -1.34700e-03 -1.62650e-04 -9.22250e-05 -5.26770e-03 -1.49840e-02 1.25220e-04 -1.03360e-03 -1.50280e-04 -8.55720e-05 -4.40440e-03 -1.31500e-02 1.26170e-04 -8.30740e-04 -1.33720e-04 -6.94300e-05 -3.74490e-03 -1.17030e-02 1.19760e-04 -7.04660e-04 -1.11140e-04 -4.49070e-05 -3.24440e-03 -9.10140e-03 1.61060e-04 -2.98460e-04 -1.10550e-04 -6.44190e-05 -2.25200e-03 -7.46020e-03 1.73010e-04 -1.23590e-04 -9.61040e-05 -5.67740e-05 -1.68280e-03 -5.34240e-03 2.16990e-04 1.09950e-04 -7.26060e-05 -4.45930e-05 -9.76280e-04 -4.66180e-03 1.94290e-04 1.15770e-04 -6.54560e-05 -4.06740e-05 -7.72600e-04 -3.50640e-03 2.00310e-04 1.77240e-04 -4.98670e-05 -3.26380e-05 -4.34230e-04 -2.51410e-03 1.98670e-04 1.96590e-04 -3.50510e-05 -2.51980e-05 -1.75950e-04 -1.68420e-03 1.83280e-04 1.69920e-04 -2.20070e-05 -1.89300e-05 1.30070e-07 -1.11180e-03 1.48440e-04 1.14350e-04 -1.19780e-05 -1.14680e-05 9.03810e-05 -5.04450e-04 8.82330e-05 -8.59400e-06 3.04410e-07 -8.56070e-07 1.03630e-04 -1.57580e-04 7.93020e-05 -3.92510e-05 7.80510e-06 -7.75290e-07 4.32650e-05 -4.20640e-05 8.69740e-05 1.06240e-05 1.19540e-05 -2.44340e-06 -1.08900e-05 -8.44650e-01 -5.05300e-01 -4.48310e-01 6.69440e-02 6.12720e-03 1.38020e-01 -9.03030e-01 -3.07290e-01 -1.96490e-01 5.31300e-02 3.99170e-03 6.83980e-02 -8.79380e-01 -8.35970e-02 -9.41150e-03 3.30990e-02 8.54800e-04 -1.10430e-02 -8.63020e-01 -4.43380e-02 -5.33750e-03 1.61290e-02 4.96240e-04 -2.69020e-02 -8.47920e-01 -2.44230e-02 -7.02880e-03 4.80150e-03 1.01170e-03 -3.00380e-02 -8.32190e-01 -1.43410e-02 -1.02080e-02 -8.60720e-04 1.09060e-03 -3.53070e-02 -7.26120e-01 1.39830e-02 2.17460e-03 -5.10480e-03 6.21690e-04 -2.39830e-02 -7.65690e-01 1.81930e-03 -1.00680e-02 -4.69090e-03 8.96020e-05 -4.32250e-02 -7.69190e-01 1.97620e-03 -1.04320e-02 -4.80870e-03 1.52330e-03 -5.32060e-02 -7.58560e-01 -4.58960e-04 -1.51030e-02 -4.07640e-03 1.34590e-03 -6.34380e-02 -7.39920e-01 -2.46580e-04 -1.66350e-02 -3.74270e-03 1.04200e-03 -6.99250e-02 -7.20810e-01 4.38430e-04 -1.70430e-02 -3.27840e-03 8.22160e-04 -7.58440e-02 -7.02930e-01 1.78210e-04 -1.83320e-02 -2.88110e-03 6.71930e-04 -8.12530e-02 -6.91040e-01 7.74750e-04 -2.00630e-02 -2.67350e-03 5.98250e-04 -9.01130e-02 -6.67280e-01 -4.32910e-04 -2.00920e-02 -1.86760e-03 -1.43940e-03 -9.03400e-02 -6.50560e-01 -4.78740e-04 -2.10830e-02 -1.61260e-03 -1.43600e-03 -9.42960e-02 -6.34180e-01 -6.72830e-04 -2.22190e-02 -1.43050e-03 -1.41790e-03 -9.78230e-02 -6.18010e-01 -7.15240e-04 -2.32350e-02 -1.30310e-03 -1.39370e-03 -1.00940e-01 -6.02110e-01 -8.37420e-04 -2.43220e-02 -1.21880e-03 -1.36500e-03 -1.03670e-01 -5.86400e-01 -8.60480e-04 -2.53120e-02 -1.16360e-03 -1.33540e-03 -1.06040e-01 -5.70930e-01 -9.29920e-04 -2.63200e-02 -1.13020e-03 -1.30520e-03 -1.08060e-01 -5.50850e-01 -7.73330e-04 -2.52520e-02 -1.09610e-03 -1.27100e-03 -1.05730e-01 -5.40580e-01 -9.74760e-04 -2.81520e-02 -1.09910e-03 -1.24670e-03 -1.11110e-01 -5.25710e-01 -9.74640e-04 -2.89810e-02 -1.09310e-03 -1.21850e-03 -1.12180e-01 -5.11070e-01 -9.92450e-04 -2.97710e-02 -1.09030e-03 -1.19100e-03 -1.12970e-01 -4.96640e-01 -9.88350e-04 -3.04830e-02 -1.08850e-03 -1.16430e-03 -1.13490e-01 -4.78160e-01 -7.36220e-04 -2.88850e-02 -1.07970e-03 -1.13370e-03 -1.09850e-01 -4.68440e-01 -9.89330e-04 -3.17240e-02 -1.08570e-03 -1.11290e-03 -1.13770e-01 -4.54680e-01 -9.89990e-04 -3.22440e-02 -1.08360e-03 -1.08800e-03 -1.13570e-01 -4.41150e-01 -9.82480e-04 -3.26870e-02 -1.08080e-03 -1.06370e-03 -1.13150e-01 -4.27850e-01 -9.78810e-04 -3.30640e-02 -1.07730e-03 -1.03990e-03 -1.12530e-01 -4.14780e-01 -9.69880e-04 -3.33650e-02 -1.07310e-03 -1.01670e-03 -1.11730e-01 -4.01950e-01 -9.62930e-04 -3.35960e-02 -1.06820e-03 -9.93890e-04 -1.10750e-01 -3.89360e-01 -9.52410e-04 -3.37550e-02 -1.06280e-03 -9.71590e-04 -1.09610e-01 -3.77000e-01 -9.42700e-04 -3.38450e-02 -1.05680e-03 -9.49770e-04 -1.08310e-01 -3.68330e-01 -1.14700e-03 -3.61980e-02 -1.06020e-03 -9.33920e-04 -1.10420e-01 -3.52980e-01 -9.18310e-04 -3.38180e-02 -1.04320e-03 -9.07470e-04 -1.05310e-01 -3.41330e-01 -9.04280e-04 -3.37040e-02 -1.03580e-03 -8.86970e-04 -1.03620e-01 -3.29900e-01 -8.89990e-04 -3.35270e-02 -1.02790e-03 -8.66880e-04 -1.01830e-01 -3.18720e-01 -8.74230e-04 -3.32870e-02 -1.01970e-03 -8.47190e-04 -9.99310e-02 -3.07760e-01 -8.58030e-04 -3.29890e-02 -1.01100e-03 -8.27880e-04 -9.79420e-02 -2.97030e-01 -8.40660e-04 -3.26330e-02 -1.00200e-03 -8.08940e-04 -9.58700e-02 -2.89510e-01 -1.02470e-03 -3.44610e-02 -1.00360e-03 -7.96440e-04 -9.68680e-02 -2.76250e-01 -8.03940e-04 -3.17620e-02 -9.82810e-04 -7.72070e-04 -9.15120e-02 -2.66200e-01 -7.84590e-04 -3.12520e-02 -9.72670e-04 -7.54130e-04 -8.92410e-02 -2.56370e-01 -7.64490e-04 -3.06960e-02 -9.62160e-04 -7.36480e-04 -8.69190e-02 -2.46760e-01 -7.43910e-04 -3.00980e-02 -9.51300e-04 -7.19120e-04 -8.45530e-02 -2.37360e-01 -7.22720e-04 -2.94600e-02 -9.40080e-04 -7.02030e-04 -8.21500e-02 -2.28180e-01 -7.01110e-04 -2.87850e-02 -9.28520e-04 -6.85200e-04 -7.97160e-02 -2.16530e-01 -4.07840e-04 -2.61240e-02 -1.14460e-03 -9.06090e-05 -7.46360e-02 -2.09570e-01 -5.67560e-04 -2.66990e-02 -9.78880e-04 -4.62200e-04 -7.39280e-02 -2.01900e-01 -6.33810e-04 -2.65700e-02 -8.91780e-04 -6.36150e-04 -7.22890e-02 -1.93550e-01 -6.10760e-04 -2.57780e-02 -8.78870e-04 -6.20250e-04 -6.97910e-02 -1.85400e-01 -5.87450e-04 -2.49650e-02 -8.65640e-04 -6.04550e-04 -6.72910e-02 -1.77450e-01 -5.63950e-04 -2.41330e-02 -8.52090e-04 -5.89040e-04 -6.47930e-02 -1.69700e-01 -5.40290e-04 -2.32860e-02 -8.38230e-04 -5.73720e-04 -6.23020e-02 -1.62150e-01 -5.16530e-04 -2.24250e-02 -8.24060e-04 -5.58580e-04 -5.98220e-02 -1.54790e-01 -4.92700e-04 -2.15550e-02 -8.09600e-04 -5.43610e-04 -5.73580e-02 -1.47610e-01 -4.68850e-04 -2.06770e-02 -7.94840e-04 -5.28800e-04 -5.49130e-02 -1.40630e-01 -4.45000e-04 -1.97940e-02 -7.79800e-04 -5.14150e-04 -5.24920e-02 -1.34580e-01 -4.89110e-04 -1.94010e-02 -7.20800e-04 -6.14290e-04 -5.07420e-02 -1.29410e-01 -5.97280e-04 -1.94500e-02 -6.22450e-04 -8.23960e-04 -4.96010e-02 -1.21440e-01 -4.03960e-04 -1.76310e-02 -7.79800e-04 -3.72880e-04 -4.60380e-02 -1.14440e-01 -3.00410e-04 -1.63080e-02 -8.38810e-04 -1.66220e-04 -4.31560e-02 -1.10350e-01 -4.13100e-04 -1.67600e-02 -8.29020e-04 -1.70010e-04 -4.26310e-02 -1.07640e-01 -1.63490e-03 -1.80150e-02 -9.07200e-04 -2.00710e-04 -4.28690e-02 -9.71050e-02 -5.01440e-04 -1.38990e-02 -7.05710e-04 -3.67930e-04 -3.66780e-02 -9.13010e-02 -2.59220e-04 -1.28440e-02 -6.49990e-04 -4.01980e-04 -3.43500e-02 -8.59260e-02 -2.37150e-04 -1.20210e-02 -6.32680e-04 -3.88530e-04 -3.22780e-02 -8.07210e-02 -2.15430e-04 -1.12150e-02 -6.15150e-04 -3.75190e-04 -3.02570e-02 -7.56860e-02 -1.94110e-04 -1.04280e-02 -5.97410e-04 -3.61960e-04 -2.82900e-02 -7.08190e-02 -1.73210e-04 -9.66040e-03 -5.79460e-04 -3.48840e-04 -2.63780e-02 -6.61190e-02 -1.52760e-04 -8.91410e-03 -5.61310e-04 -3.35830e-04 -2.45220e-02 -6.15840e-02 -1.32780e-04 -8.19040e-03 -5.42960e-04 -3.22930e-04 -2.27250e-02 -5.72150e-02 -1.13310e-04 -7.49060e-03 -5.24430e-04 -3.10140e-04 -2.09890e-02 -5.30090e-02 -9.43580e-05 -6.81590e-03 -5.05710e-04 -2.97440e-04 -1.93130e-02 -5.03340e-02 -3.37100e-04 -7.31600e-03 -5.25520e-04 -2.97500e-04 -1.90860e-02 -4.91380e-02 -8.51290e-04 -8.93700e-03 -5.83410e-04 -3.10360e-04 -2.02120e-02 -4.13680e-02 -4.08760e-05 -4.95280e-03 -4.48530e-04 -2.59990e-04 -1.46690e-02 -3.78100e-02 -2.42320e-05 -4.38860e-03 -4.29140e-04 -2.47700e-04 -1.32520e-02 -3.30340e-02 9.82420e-05 -3.33280e-03 -4.22100e-04 -1.56010e-04 -1.11300e-02 -3.07330e-02 4.14140e-05 -3.19070e-03 -3.92890e-04 -1.97530e-04 -1.03800e-02 -2.80990e-02 2.20000e-05 -2.87700e-03 -3.69930e-04 -2.11380e-04 -9.40530e-03 -2.51810e-02 3.61920e-05 -2.43570e-03 -3.49810e-04 -1.99420e-04 -8.26110e-03 -2.24210e-02 4.98060e-05 -2.02640e-03 -3.29450e-04 -1.87500e-04 -7.18690e-03 -1.98210e-02 6.28920e-05 -1.64980e-03 -3.08780e-04 -1.75580e-04 -6.18340e-03 -1.73790e-02 7.55070e-05 -1.30620e-03 -2.87730e-04 -1.63600e-04 -5.25120e-03 -1.53900e-02 7.94920e-05 -1.08580e-03 -2.72570e-04 -1.46240e-04 -4.53830e-03 -1.37990e-02 7.86700e-05 -9.53620e-04 -2.60600e-04 -1.24370e-04 -3.99910e-03 -1.10020e-02 1.11500e-04 -4.77360e-04 -2.20900e-04 -1.26450e-04 -2.88690e-03 -9.19440e-03 1.23170e-04 -2.69820e-04 -1.96760e-04 -1.13280e-04 -2.24480e-03 -7.54550e-03 1.34740e-04 -9.75560e-05 -1.71370e-04 -9.95290e-05 -1.67680e-03 -5.41400e-03 1.78440e-04 1.31940e-04 -1.28940e-04 -7.72310e-05 -9.71620e-04 -4.72840e-03 1.55890e-04 1.37180e-04 -1.16800e-04 -7.03830e-05 -7.67320e-04 -3.56220e-03 1.62950e-04 1.96480e-04 -8.85080e-05 -5.56130e-05 -4.28670e-04 -2.55890e-03 1.63900e-04 2.13820e-04 -6.11800e-05 -4.17140e-05 -1.70100e-04 -1.71880e-03 1.52820e-04 1.85320e-04 -3.71580e-05 -2.99070e-05 5.96880e-06 -1.03950e-03 1.21800e-04 1.08560e-04 -1.85430e-05 -2.11620e-05 9.76600e-05 -5.17050e-04 7.40040e-05 7.99450e-07 -5.25360e-06 -1.60460e-05 1.05970e-04 -1.63440e-04 6.59760e-05 -3.17510e-05 3.59950e-06 -1.56300e-05 4.28360e-05 -4.54090e-05 7.29640e-05 1.77700e-05 7.62710e-06 -1.80200e-05 -1.35490e-05 -8.28600e-01 -4.63150e-01 -4.22290e-01 1.11350e-01 7.76700e-03 1.18770e-01 -8.99050e-01 -2.72460e-01 -1.89660e-01 8.39790e-02 2.58350e-03 5.38020e-02 -8.80980e-01 -5.12480e-02 -8.80170e-03 4.08170e-02 -2.52620e-03 -1.72320e-02 -8.51260e-01 -2.39930e-02 -3.42340e-03 1.28870e-02 -8.58910e-04 -2.82020e-02 -8.34110e-01 -1.50600e-02 -9.77970e-03 1.67960e-03 7.27310e-04 -3.07220e-02 -8.16750e-01 -7.95830e-03 -1.04650e-02 -3.77720e-03 7.41710e-04 -3.61070e-02 -7.13710e-01 1.64040e-02 9.61980e-04 -5.84430e-03 2.80860e-04 -2.45380e-02 -7.54620e-01 2.50640e-03 -1.08950e-02 -6.27940e-03 -4.96020e-04 -4.32400e-02 -7.66500e-01 -2.36210e-03 -1.48280e-02 -5.70180e-03 -1.07700e-03 -5.60450e-02 -7.49280e-01 -1.34110e-03 -1.51950e-02 -4.87470e-03 -1.46390e-03 -6.27320e-02 -7.32380e-01 -1.40510e-03 -1.62770e-02 -4.04170e-03 -1.74110e-03 -6.90210e-02 -7.15400e-01 -1.09480e-03 -1.69300e-02 -3.24770e-03 -1.88250e-03 -7.48630e-02 -6.98710e-01 -1.31100e-03 -1.80200e-02 -2.60940e-03 -1.96600e-03 -8.02270e-02 -6.87740e-01 -9.76290e-04 -2.00530e-02 -2.23320e-03 -1.96600e-03 -8.90750e-02 -6.65670e-01 -1.42260e-03 -1.99980e-02 -1.71430e-03 -1.97820e-03 -8.95330e-02 -6.49360e-01 -1.40270e-03 -2.09690e-02 -1.43480e-03 -1.94630e-03 -9.35050e-02 -6.33280e-01 -1.52440e-03 -2.20820e-02 -1.24830e-03 -1.91010e-03 -9.70470e-02 -6.17330e-01 -1.50860e-03 -2.30880e-02 -1.12040e-03 -1.86450e-03 -1.00180e-01 -6.01580e-01 -1.57320e-03 -2.41590e-02 -1.04380e-03 -1.82050e-03 -1.02930e-01 -5.85990e-01 -1.55150e-03 -2.51410e-02 -9.96600e-04 -1.77420e-03 -1.05310e-01 -5.70600e-01 -1.57780e-03 -2.61390e-02 -9.74180e-04 -1.73070e-03 -1.07340e-01 -5.50620e-01 -1.36780e-03 -2.50500e-02 -9.50910e-04 -1.67990e-03 -1.05030e-01 -5.40380e-01 -1.55530e-03 -2.79570e-02 -9.64310e-04 -1.64600e-03 -1.10420e-01 -5.25560e-01 -1.52760e-03 -2.87800e-02 -9.68300e-04 -1.60550e-03 -1.11500e-01 -5.10970e-01 -1.51830e-03 -2.95640e-02 -9.75690e-04 -1.56680e-03 -1.12300e-01 -4.96580e-01 -1.49050e-03 -3.02720e-02 -9.83230e-04 -1.52880e-03 -1.12830e-01 -4.78160e-01 -1.20990e-03 -2.86660e-02 -9.83290e-04 -1.48540e-03 -1.09210e-01 -4.68460e-01 -1.44660e-03 -3.15040e-02 -9.98200e-04 -1.45640e-03 -1.13140e-01 -4.54730e-01 -1.42610e-03 -3.20200e-02 -1.00460e-03 -1.42160e-03 -1.12950e-01 -4.41240e-01 -1.39890e-03 -3.24610e-02 -1.00980e-03 -1.38750e-03 -1.12550e-01 -4.27970e-01 -1.37590e-03 -3.28340e-02 -1.01410e-03 -1.35430e-03 -1.11950e-01 -4.14940e-01 -1.34870e-03 -3.31330e-02 -1.01730e-03 -1.32180e-03 -1.11160e-01 -4.02130e-01 -1.32390e-03 -3.33630e-02 -1.01980e-03 -1.29020e-03 -1.10190e-01 -3.89570e-01 -1.29640e-03 -3.35200e-02 -1.02130e-03 -1.25930e-03 -1.09070e-01 -3.77230e-01 -1.27030e-03 -3.36090e-02 -1.02210e-03 -1.22910e-03 -1.07790e-01 -3.68580e-01 -1.46450e-03 -3.59630e-02 -1.03370e-03 -1.20750e-03 -1.09900e-01 -3.53260e-01 -1.21520e-03 -3.35800e-02 -1.02150e-03 -1.17070e-03 -1.04810e-01 -3.41630e-01 -1.18680e-03 -3.34660e-02 -1.02010e-03 -1.14250e-03 -1.03140e-01 -3.30230e-01 -1.15870e-03 -3.32890e-02 -1.01820e-03 -1.11500e-03 -1.01360e-01 -3.19060e-01 -1.12980e-03 -3.30500e-02 -1.01560e-03 -1.08800e-03 -9.94780e-02 -3.08110e-01 -1.10100e-03 -3.27520e-02 -1.01230e-03 -1.06160e-03 -9.75040e-02 -2.97400e-01 -1.07170e-03 -3.23970e-02 -1.00850e-03 -1.03570e-03 -9.54460e-02 -2.89890e-01 -1.24810e-03 -3.42260e-02 -1.01720e-03 -1.01900e-03 -9.64510e-02 -2.76650e-01 -1.01270e-03 -3.15280e-02 -9.99040e-04 -9.85590e-04 -9.11150e-02 -2.66610e-01 -9.83060e-04 -3.10200e-02 -9.93430e-04 -9.61250e-04 -8.88580e-02 -2.56790e-01 -9.53170e-04 -3.04660e-02 -9.87220e-04 -9.37350e-04 -8.65490e-02 -2.47180e-01 -9.23280e-04 -2.98690e-02 -9.80440e-04 -9.13880e-04 -8.41950e-02 -2.37790e-01 -8.93280e-04 -2.92320e-02 -9.73090e-04 -8.90830e-04 -8.18050e-02 -2.28620e-01 -8.63310e-04 -2.85590e-02 -9.65170e-04 -8.68170e-04 -7.93830e-02 -2.19650e-01 -8.33320e-04 -2.78530e-02 -9.56690e-04 -8.45880e-04 -7.69360e-02 -2.08090e-01 -5.61550e-04 -2.51780e-02 -1.36320e-03 -3.80570e-04 -7.19670e-02 -2.01420e-01 -6.94150e-04 -2.57190e-02 -1.07460e-03 -6.56670e-04 -7.11790e-02 -1.94000e-01 -7.43830e-04 -2.55620e-02 -9.27960e-04 -7.81080e-04 -6.95040e-02 -1.85850e-01 -7.14230e-04 -2.47520e-02 -9.17320e-04 -7.60120e-04 -6.70150e-02 -1.77910e-01 -6.84810e-04 -2.39230e-02 -9.06150e-04 -7.39460e-04 -6.45270e-02 -1.70160e-01 -6.55580e-04 -2.30780e-02 -8.94470e-04 -7.19080e-04 -6.20460e-02 -1.62600e-01 -6.26580e-04 -2.22210e-02 -8.82290e-04 -6.98970e-04 -5.95760e-02 -1.55230e-01 -5.97830e-04 -2.13530e-02 -8.69620e-04 -6.79130e-04 -5.71220e-02 -1.48060e-01 -5.69360e-04 -2.04780e-02 -8.56460e-04 -6.59530e-04 -5.46860e-02 -1.41070e-01 -5.41190e-04 -1.95990e-02 -8.42830e-04 -6.40180e-04 -5.22740e-02 -1.34270e-01 -5.13360e-04 -1.87170e-02 -8.28740e-04 -6.21070e-04 -4.98890e-02 -1.29750e-01 -6.32210e-04 -1.93090e-02 -8.29750e-04 -6.11900e-04 -4.94510e-02 -1.23040e-01 -5.62040e-04 -1.84200e-02 -1.09780e-03 -3.61760e-04 -4.71480e-02 -1.14960e-01 -4.32110e-04 -1.60820e-02 -7.83780e-04 -5.65050e-04 -4.29240e-02 -1.08880e-01 -4.05850e-04 -1.52150e-02 -7.67930e-04 -5.46800e-04 -4.06780e-02 -1.02980e-01 -3.80040e-04 -1.43570e-02 -7.51670e-04 -5.28750e-04 -3.84720e-02 -9.53470e-02 -2.25680e-04 -1.22920e-02 -7.19030e-04 -5.01110e-04 -3.47110e-02 -9.16990e-02 -3.29870e-04 -1.26770e-02 -7.17950e-04 -4.93230e-04 -3.41980e-02 -8.63160e-02 -3.05550e-04 -1.18590e-02 -7.00510e-04 -4.75750e-04 -3.21330e-02 -8.11040e-02 -2.81760e-04 -1.10580e-02 -6.82700e-04 -4.58460e-04 -3.01190e-02 -7.60600e-02 -2.58530e-04 -1.02740e-02 -6.64530e-04 -4.41350e-04 -2.81590e-02 -7.11850e-02 -2.35880e-04 -9.51110e-03 -6.46000e-04 -4.24420e-04 -2.62530e-02 -6.64760e-02 -2.13820e-04 -8.76920e-03 -6.27130e-04 -4.07670e-04 -2.44050e-02 -6.19330e-02 -1.92380e-04 -8.05000e-03 -6.07930e-04 -3.91090e-04 -2.26140e-02 -5.75550e-02 -1.71560e-04 -7.35480e-03 -5.88400e-04 -3.74680e-04 -2.08840e-02 -5.33400e-02 -1.51380e-04 -6.68480e-03 -5.68550e-04 -3.58450e-04 -1.92150e-02 -5.06690e-02 -3.22650e-04 -7.03270e-03 -6.11660e-04 -3.43670e-04 -1.88580e-02 -4.92580e-02 -8.90570e-04 -8.88820e-03 -8.05360e-04 -3.15580e-04 -2.02070e-02 -4.16720e-02 -9.48830e-05 -4.83640e-03 -5.07230e-04 -3.10770e-04 -1.45900e-02 -3.81050e-02 -7.74310e-05 -4.27730e-03 -4.86220e-04 -2.95220e-04 -1.31780e-02 -3.46980e-02 -6.06870e-05 -3.74800e-03 -4.64930e-04 -2.79840e-04 -1.18340e-02 -3.00510e-02 6.04800e-05 -2.77880e-03 -5.20470e-04 -2.30270e-04 -9.85220e-03 -2.63600e-02 3.95000e-04 -4.65870e-04 -2.16470e-04 -2.17650e-04 -6.59870e-03 -2.47470e-02 3.18030e-04 -5.65410e-04 -2.19980e-04 -2.10630e-04 -6.24830e-03 -2.21740e-02 2.81370e-04 -3.14620e-04 -2.09860e-04 -1.93660e-04 -5.35750e-03 -2.07130e-02 2.15060e-04 -3.57460e-04 -2.12800e-04 -1.87210e-04 -4.99220e-03 -1.79040e-02 1.73780e-05 -1.33620e-03 -3.56140e-04 -1.93630e-04 -5.38430e-03 -1.61500e-02 1.81130e-05 -1.20130e-03 -3.79440e-04 -1.85840e-04 -4.81130e-03 -1.31770e-02 4.87010e-05 -6.58050e-04 -2.81610e-04 -1.60570e-04 -3.58180e-03 -1.11990e-02 5.98340e-05 -4.21390e-04 -2.55750e-04 -1.45300e-04 -2.87110e-03 -9.37890e-03 7.06000e-05 -2.19250e-04 -2.28580e-04 -1.29560e-04 -2.23310e-03 -7.71630e-03 8.10680e-05 -5.21320e-05 -1.99810e-04 -1.13190e-04 -1.66850e-03 -5.56040e-03 1.23570e-04 1.69660e-04 -1.48810e-04 -8.56710e-05 -9.67080e-04 -4.86520e-03 1.00430e-04 1.73280e-04 -1.36740e-04 -7.83190e-05 -7.62240e-04 -3.67830e-03 1.08030e-04 2.28450e-04 -1.02920e-04 -6.02600e-05 -4.23480e-04 -2.65250e-03 1.11670e-04 2.41780e-04 -6.92450e-05 -4.27870e-05 -1.63930e-04 -1.78950e-03 1.07220e-04 2.10170e-04 -3.87090e-05 -2.74070e-05 1.31800e-05 -1.09040e-03 8.59360e-05 1.30620e-04 -1.64090e-05 -1.59490e-05 1.05600e-04 -5.49780e-04 4.47540e-05 1.81440e-05 -4.28910e-06 -8.38250e-06 1.14200e-04 -1.76380e-04 4.04730e-05 -1.77340e-05 1.44930e-06 -4.50030e-06 4.71130e-05 -4.87160e-05 4.88160e-05 3.26180e-05 4.17270e-06 -4.24110e-06 -1.41340e-05 -8.62650e-01 -4.16550e-01 -4.17230e-01 1.70040e-01 8.06970e-03 8.55940e-02 -9.17180e-01 -1.84300e-01 -1.63220e-01 9.39930e-02 -2.49300e-04 2.93160e-02 -8.43120e-01 -3.44000e-03 1.48450e-02 1.71440e-02 -4.49060e-03 -2.56750e-02 -8.11900e-01 -1.06420e-02 -3.88540e-03 2.42280e-03 -2.59590e-04 -3.10370e-02 -7.96870e-01 -4.91060e-03 -6.10450e-03 -3.64890e-03 7.45010e-04 -3.34520e-02 -7.86580e-01 -3.29330e-03 -8.90510e-03 -5.22390e-03 4.64590e-04 -3.71550e-02 -6.91170e-01 2.01980e-02 3.66890e-03 -6.24920e-03 7.00110e-04 -2.48170e-02 -7.36760e-01 4.03710e-03 -8.97370e-03 -4.41070e-03 -4.51970e-04 -4.25460e-02 -7.52680e-01 -2.08360e-03 -1.31900e-02 -3.72150e-03 -1.09830e-03 -5.48950e-02 -7.38920e-01 -1.42300e-03 -1.34950e-02 -2.78850e-03 -1.38100e-03 -6.13530e-02 -7.24660e-01 -1.73610e-03 -1.46810e-02 -2.01750e-03 -1.51700e-03 -6.75450e-02 -7.09560e-01 -1.44790e-03 -1.53030e-02 -1.36840e-03 -1.59480e-03 -7.33760e-02 -6.94260e-01 -1.66370e-03 -1.64460e-02 -8.90780e-04 -1.60620e-03 -7.87560e-02 -6.83870e-01 -1.27030e-03 -1.84600e-02 -6.73370e-04 -1.59360e-03 -8.76250e-02 -6.62860e-01 -1.65460e-03 -1.84460e-02 -2.92890e-04 -1.56180e-03 -8.81340e-02 -6.47030e-01 -1.57580e-03 -1.94260e-02 -1.31760e-04 -1.52300e-03 -9.21420e-02 -6.31300e-01 -1.63980e-03 -2.05570e-02 -3.72460e-05 -1.47800e-03 -9.57130e-02 -6.15590e-01 -1.58310e-03 -2.15760e-02 1.41740e-05 -1.43420e-03 -9.88750e-02 -6.00030e-01 -1.60710e-03 -2.26610e-02 3.28180e-05 -1.39050e-03 -1.01640e-01 -5.84580e-01 -1.56040e-03 -2.36590e-02 3.12670e-05 -1.34930e-03 -1.04040e-01 -5.69320e-01 -1.56080e-03 -2.46710e-02 1.58970e-05 -1.30960e-03 -1.06090e-01 -5.49500e-01 -1.32980e-03 -2.35960e-02 9.97920e-07 -1.26710e-03 -1.03820e-01 -5.39300e-01 -1.50680e-03 -2.65200e-02 -3.50400e-05 -1.23640e-03 -1.09210e-01 -5.24580e-01 -1.46950e-03 -2.73610e-02 -6.47930e-05 -1.20250e-03 -1.10310e-01 -5.10080e-01 -1.44930e-03 -2.81610e-02 -9.49620e-05 -1.16990e-03 -1.11130e-01 -4.95770e-01 -1.41460e-03 -2.88870e-02 -1.24810e-04 -1.13870e-03 -1.11690e-01 -4.77470e-01 -1.13070e-03 -2.73080e-02 -1.48540e-04 -1.10390e-03 -1.08110e-01 -4.67820e-01 -1.35770e-03 -3.01570e-02 -1.81270e-04 -1.07960e-03 -1.12050e-01 -4.54170e-01 -1.33130e-03 -3.06930e-02 -2.07530e-04 -1.05160e-03 -1.11880e-01 -4.40750e-01 -1.29990e-03 -3.11530e-02 -2.32540e-04 -1.02460e-03 -1.11510e-01 -4.27550e-01 -1.27230e-03 -3.15470e-02 -2.56150e-04 -9.98380e-04 -1.10930e-01 -4.14590e-01 -1.24160e-03 -3.18670e-02 -2.78570e-04 -9.73110e-04 -1.10170e-01 -4.01850e-01 -1.21340e-03 -3.21180e-02 -2.99720e-04 -9.48600e-04 -1.09230e-01 -3.89350e-01 -1.18330e-03 -3.22970e-02 -3.19770e-04 -9.24900e-04 -1.08130e-01 -3.77070e-01 -1.15460e-03 -3.24080e-02 -3.38660e-04 -9.01900e-04 -1.06870e-01 -3.68450e-01 -1.34390e-03 -3.47750e-02 -3.66060e-04 -8.85680e-04 -1.09000e-01 -3.53210e-01 -1.09610e-03 -3.24230e-02 -3.73300e-04 -8.58000e-04 -1.03950e-01 -3.41630e-01 -1.06670e-03 -3.23320e-02 -3.89100e-04 -8.37000e-04 -1.02310e-01 -3.30280e-01 -1.03790e-03 -3.21770e-02 -4.03890e-04 -8.16590e-04 -1.00550e-01 -3.19150e-01 -1.00880e-03 -3.19610e-02 -4.17720e-04 -7.96740e-04 -9.86900e-02 -3.08250e-01 -9.80070e-04 -3.16860e-02 -4.30580e-04 -7.77410e-04 -9.67400e-02 -2.97580e-01 -9.51230e-04 -3.13540e-02 -4.42500e-04 -7.58570e-04 -9.47060e-02 -2.90090e-01 -1.12500e-03 -3.31960e-02 -4.65290e-04 -7.47360e-04 -9.57220e-02 -2.76900e-01 -8.94180e-04 -3.05310e-02 -4.63560e-04 -7.22240e-04 -9.04210e-02 -2.66890e-01 -8.65940e-04 -3.00450e-02 -4.72720e-04 -7.04680e-04 -8.81850e-02 -2.57100e-01 -8.37790e-04 -2.95140e-02 -4.80980e-04 -6.87510e-04 -8.58980e-02 -2.47520e-01 -8.09910e-04 -2.89400e-02 -4.88370e-04 -6.70680e-04 -8.35660e-02 -2.38160e-01 -7.82180e-04 -2.83260e-02 -4.94880e-04 -6.54170e-04 -8.11960e-02 -2.29010e-01 -7.54730e-04 -2.76760e-02 -5.00540e-04 -6.37970e-04 -7.87950e-02 -2.20060e-01 -7.27490e-04 -2.69920e-02 -5.05370e-04 -6.22050e-04 -7.63680e-02 -2.11330e-01 -7.00530e-04 -2.62780e-02 -5.09360e-04 -6.06380e-04 -7.39220e-02 -2.00290e-01 -4.98360e-04 -2.36060e-02 -4.98670e-04 -5.82560e-04 -6.89030e-02 -1.94460e-01 -6.47430e-04 -2.47690e-02 -5.14940e-04 -5.75780e-04 -6.89930e-02 -1.86330e-01 -6.21320e-04 -2.39800e-02 -5.16560e-04 -5.60800e-04 -6.65210e-02 -1.78400e-01 -5.95540e-04 -2.31730e-02 -5.17410e-04 -5.46020e-04 -6.40510e-02 -1.70660e-01 -5.70090e-04 -2.23510e-02 -5.17510e-04 -5.31430e-04 -6.15880e-02 -1.63120e-01 -5.44990e-04 -2.15150e-02 -5.16890e-04 -5.17010e-04 -5.91340e-02 -1.55760e-01 -5.20250e-04 -2.06690e-02 -5.15550e-04 -5.02750e-04 -5.66960e-02 -1.48590e-01 -4.95890e-04 -1.98150e-02 -5.13510e-04 -4.88650e-04 -5.42770e-02 -1.41610e-01 -4.71900e-04 -1.89570e-02 -5.10780e-04 -4.74690e-04 -5.18800e-02 -1.34820e-01 -4.48320e-04 -1.80960e-02 -5.07390e-04 -4.60870e-04 -4.95100e-02 -1.30300e-01 -5.68480e-04 -1.86990e-02 -5.18900e-04 -4.56520e-04 -4.90790e-02 -1.21770e-01 -4.02410e-04 -1.63770e-02 -4.98680e-04 -4.33600e-04 -4.48610e-02 -1.15510e-01 -3.80100e-04 -1.55230e-02 -4.93390e-04 -4.20150e-04 -4.25890e-02 -1.09440e-01 -3.58250e-04 -1.46770e-02 -4.87500e-04 -4.06810e-04 -4.03560e-02 -1.03530e-01 -3.36850e-04 -1.38390e-02 -4.81020e-04 -3.93590e-04 -3.81640e-02 -9.58980e-02 -1.89620e-04 -1.18040e-02 -4.57790e-04 -3.70840e-04 -3.44230e-02 -9.22490e-02 -2.95480e-04 -1.21990e-02 -4.66370e-04 -3.67450e-04 -3.39160e-02 -8.68630e-02 -2.75530e-04 -1.14000e-02 -4.58230e-04 -3.54540e-04 -3.18640e-02 -8.16470e-02 -2.56080e-04 -1.06180e-02 -4.49570e-04 -3.41730e-04 -2.98620e-02 -7.66000e-02 -2.37150e-04 -9.85350e-03 -4.40390e-04 -3.29010e-04 -2.79140e-02 -7.17190e-02 -2.18740e-04 -9.10910e-03 -4.30730e-04 -3.16400e-04 -2.60210e-02 -6.70050e-02 -2.00860e-04 -8.38590e-03 -4.20580e-04 -3.03890e-04 -2.41840e-02 -6.24550e-02 -1.83530e-04 -7.68520e-03 -4.09970e-04 -2.91480e-04 -2.24050e-02 -5.80700e-02 -1.66750e-04 -7.00840e-03 -3.98910e-04 -2.79170e-04 -2.06870e-02 -5.38480e-02 -1.50530e-04 -6.35650e-03 -3.87410e-04 -2.66970e-04 -1.90290e-02 -5.12900e-02 -2.25580e-04 -6.44170e-03 -3.92720e-04 -2.64670e-04 -1.84320e-02 -4.58910e-02 -1.19790e-04 -5.13200e-03 -3.63180e-04 -2.42880e-04 -1.59030e-02 -4.21540e-02 -1.05300e-04 -4.56140e-03 -3.50470e-04 -2.31000e-04 -1.44370e-02 -3.85780e-02 -9.13870e-05 -4.01970e-03 -3.37370e-04 -2.19240e-04 -1.30370e-02 -3.51620e-02 -7.80730e-05 -3.50760e-03 -3.23910e-04 -2.07580e-04 -1.17040e-02 -3.19050e-02 -6.53570e-05 -3.02590e-03 -3.10080e-04 -1.96040e-04 -1.04390e-02 -2.66990e-02 4.35940e-04 -2.08390e-04 -2.01180e-04 -1.21490e-04 -6.45060e-03 -2.50840e-02 3.54970e-04 -3.19140e-04 -2.05680e-04 -1.22870e-04 -6.10740e-03 -2.25050e-02 3.10460e-04 -8.93870e-05 -1.94210e-04 -1.16670e-04 -5.22940e-03 -2.10410e-02 2.40340e-04 -1.43250e-04 -1.98360e-04 -1.18030e-04 -4.87120e-03 -1.88200e-02 -4.61980e-05 -1.43370e-03 -4.00580e-04 -1.99450e-04 -5.66230e-03 -1.56990e-02 -1.52350e-06 -8.04110e-04 -2.18920e-04 -1.28700e-04 -4.31060e-03 -1.35500e-02 7.14460e-06 -5.49040e-04 -2.01910e-04 -1.17510e-04 -3.53800e-03 -1.15580e-02 1.53240e-05 -3.27710e-04 -1.84070e-04 -1.06150e-04 -2.83740e-03 -9.72280e-03 2.30440e-05 -1.40450e-04 -1.65190e-04 -9.44960e-05 -2.20900e-03 -8.04290e-03 3.03500e-05 1.23240e-05 -1.45000e-04 -8.24140e-05 -1.65300e-03 -5.85570e-03 6.85190e-05 2.13750e-04 -1.02550e-04 -5.93270e-05 -9.62680e-04 -5.14670e-03 4.36380e-05 2.11330e-04 -9.97400e-05 -5.65210e-05 -7.59670e-04 -3.92900e-03 4.92350e-05 2.54780e-04 -7.45470e-05 -4.27510e-05 -4.24060e-04 -2.86500e-03 5.32120e-05 2.57940e-04 -4.84570e-05 -2.89500e-05 -1.64920e-04 -1.95620e-03 5.33610e-05 2.17850e-04 -2.35960e-05 -1.60070e-05 1.46690e-05 -1.20680e-03 4.58420e-05 1.34990e-04 -5.01850e-06 -5.65410e-06 1.11090e-04 -6.22250e-04 1.99990e-05 1.79690e-05 -2.91990e-07 1.20020e-06 1.25250e-04 -2.10970e-04 1.87250e-05 -2.83690e-05 -3.67470e-06 8.60500e-06 6.18500e-05 -6.61490e-05 2.81510e-05 1.58440e-05 -5.44680e-06 1.42570e-05 -3.47810e-06 -9.85070e-01 -3.84250e-01 -4.28090e-01 2.35620e-01 9.24800e-03 5.57990e-02 -9.47770e-01 -1.11770e-01 -1.38040e-01 8.27740e-02 2.34500e-04 5.62980e-03 -7.78370e-01 1.12320e-02 3.04410e-02 -1.16470e-02 -2.94900e-03 -3.72270e-02 -7.79500e-01 -1.34650e-02 -1.05800e-02 1.28090e-03 2.65540e-03 -3.77780e-02 -7.62440e-01 -1.50100e-03 2.23310e-04 -8.13990e-03 2.23570e-03 -3.71680e-02 -7.65850e-01 -5.00170e-03 -9.35030e-03 -3.35580e-03 2.34910e-03 -3.81590e-02 -6.75900e-01 1.69540e-02 3.37710e-03 -4.39970e-03 3.90880e-03 -2.44610e-02 -7.25270e-01 5.34380e-03 -5.36690e-03 -2.61760e-03 1.89110e-03 -4.15760e-02 -7.43900e-01 -2.01000e-03 -9.88920e-03 -2.22310e-03 7.40440e-04 -5.36220e-02 -7.33260e-01 -1.87700e-03 -1.10260e-02 -1.04580e-03 6.18670e-04 -5.99190e-02 -7.20390e-01 -1.76430e-03 -1.17220e-02 -7.37920e-04 4.49440e-04 -6.61580e-02 -7.06720e-01 -1.62220e-03 -1.26810e-02 -1.81550e-04 4.15620e-04 -7.20110e-02 -6.92110e-01 -1.63620e-03 -1.36840e-02 8.10930e-06 3.63020e-04 -7.74750e-02 -6.82170e-01 -1.47250e-03 -1.60220e-02 1.55950e-04 3.75040e-04 -8.63600e-02 -6.61660e-01 -1.56010e-03 -1.58190e-02 3.09750e-04 3.47600e-04 -8.69660e-02 -6.46100e-01 -1.48250e-03 -1.68840e-02 3.74750e-04 3.50930e-04 -9.10120e-02 -6.30530e-01 -1.49870e-03 -1.80320e-02 3.77960e-04 3.47100e-04 -9.46260e-02 -6.14950e-01 -1.43810e-03 -1.91050e-02 3.68940e-04 3.47440e-04 -9.78170e-02 -5.99480e-01 -1.43880e-03 -2.02200e-02 3.38320e-04 3.43380e-04 -1.00620e-01 -5.84120e-01 -1.38850e-03 -2.12600e-02 3.00110e-04 3.39460e-04 -1.03040e-01 -5.68920e-01 -1.37740e-03 -2.23060e-02 2.56910e-04 3.33030e-04 -1.05120e-01 -5.49190e-01 -1.14810e-03 -2.12810e-02 2.20750e-04 3.16650e-04 -1.02870e-01 -5.39030e-01 -1.31490e-03 -2.42280e-02 1.65000e-04 3.17050e-04 -1.08280e-01 -5.24370e-01 -1.27570e-03 -2.51060e-02 1.18800e-04 3.07430e-04 -1.09410e-01 -5.09920e-01 -1.25220e-03 -2.59430e-02 7.56990e-05 2.97130e-04 -1.10260e-01 -4.95670e-01 -1.21630e-03 -2.67060e-02 3.30020e-05 2.86050e-04 -1.10840e-01 -4.77450e-01 -9.33250e-04 -2.51760e-02 -7.49720e-07 2.65460e-04 -1.07290e-01 -4.67820e-01 -1.15660e-03 -2.80510e-02 -4.48200e-05 2.62630e-04 -1.11250e-01 -4.54220e-01 -1.12920e-03 -2.86240e-02 -8.02810e-05 2.50460e-04 -1.11110e-01 -4.40840e-01 -1.09740e-03 -2.91230e-02 -1.14510e-04 2.37880e-04 -1.10760e-01 -4.27690e-01 -1.06950e-03 -2.95560e-02 -1.46200e-04 2.25220e-04 -1.10200e-01 -4.14770e-01 -1.03900e-03 -2.99140e-02 -1.76560e-04 2.12290e-04 -1.09460e-01 -4.02070e-01 -1.01110e-03 -3.02040e-02 -2.04740e-04 1.99360e-04 -1.08550e-01 -3.89600e-01 -9.81640e-04 -3.04220e-02 -2.31550e-04 1.86270e-04 -1.07470e-01 -3.77360e-01 -9.53920e-04 -3.05720e-02 -2.56450e-04 1.73230e-04 -1.06240e-01 -3.68760e-01 -1.13960e-03 -3.29630e-02 -2.91920e-04 1.65170e-04 -1.08370e-01 -3.53570e-01 -8.98090e-04 -3.06660e-02 -3.01810e-04 1.47160e-04 -1.03360e-01 -3.42020e-01 -8.70410e-04 -3.06130e-02 -3.22290e-04 1.34220e-04 -1.01730e-01 -3.30690e-01 -8.43570e-04 -3.04980e-02 -3.41210e-04 1.21440e-04 -9.99960e-02 -3.19590e-01 -8.16650e-04 -3.03200e-02 -3.58820e-04 1.08770e-04 -9.81560e-02 -3.08710e-01 -7.90380e-04 -3.00840e-02 -3.74990e-04 9.63140e-05 -9.62240e-02 -2.98060e-01 -7.64190e-04 -2.97900e-02 -3.89890e-04 8.40430e-05 -9.42080e-02 -2.90580e-01 -9.36590e-04 -3.16550e-02 -4.17840e-04 7.41930e-05 -9.52320e-02 -2.77420e-01 -7.13070e-04 -2.90440e-02 -4.15810e-04 6.02520e-05 -8.99560e-02 -2.67420e-01 -6.88070e-04 -2.85960e-02 -4.26910e-04 4.87720e-05 -8.77360e-02 -2.57650e-01 -6.63330e-04 -2.81020e-02 -4.36860e-04 3.75810e-05 -8.54640e-02 -2.48080e-01 -6.39030e-04 -2.75660e-02 -4.45650e-04 2.67180e-05 -8.31460e-02 -2.38730e-01 -6.15020e-04 -2.69900e-02 -4.53330e-04 1.61820e-05 -8.07900e-02 -2.29590e-01 -5.91430e-04 -2.63760e-02 -4.59930e-04 6.00240e-06 -7.84020e-02 -2.20660e-01 -5.68170e-04 -2.57290e-02 -4.65490e-04 -3.81970e-06 -7.59880e-02 -2.11930e-01 -5.45320e-04 -2.50500e-02 -4.70040e-04 -1.32640e-05 -7.35540e-02 -2.00900e-01 -3.51370e-04 -2.24300e-02 -4.56970e-04 -2.11550e-05 -6.85530e-02 -1.95080e-01 -5.00720e-04 -2.36130e-02 -4.76240e-04 -3.09950e-05 -6.86480e-02 -1.86950e-01 -4.79000e-04 -2.28600e-02 -4.77950e-04 -3.92660e-05 -6.61870e-02 -1.79020e-01 -4.57680e-04 -2.20880e-02 -4.78790e-04 -4.71290e-05 -6.37280e-02 -1.71280e-01 -4.36750e-04 -2.13000e-02 -4.78770e-04 -5.45830e-05 -6.12740e-02 -1.63740e-01 -4.16220e-04 -2.04980e-02 -4.77940e-04 -6.16230e-05 -5.88300e-02 -1.56380e-01 -3.96100e-04 -1.96850e-02 -4.76320e-04 -6.82470e-05 -5.64010e-02 -1.49210e-01 -3.76380e-04 -1.88650e-02 -4.73930e-04 -7.44530e-05 -5.39900e-02 -1.42230e-01 -3.57080e-04 -1.80390e-02 -4.70820e-04 -8.02400e-05 -5.16020e-02 -1.35430e-01 -3.38190e-04 -1.72110e-02 -4.67000e-04 -8.56080e-05 -4.92400e-02 -1.30910e-01 -4.59610e-04 -1.78320e-02 -4.80660e-04 -9.46960e-05 -4.88130e-02 -1.22380e-01 -3.01670e-04 -1.55560e-02 -4.57360e-04 -9.50950e-05 -4.46070e-02 -1.16120e-01 -2.84050e-04 -1.47330e-02 -4.51590e-04 -9.92170e-05 -4.23430e-02 -1.10040e-01 -2.66860e-04 -1.39170e-02 -4.45220e-04 -1.02930e-04 -4.01170e-02 -1.04130e-01 -2.50100e-04 -1.31100e-02 -4.38280e-04 -1.06230e-04 -3.79320e-02 -9.64820e-02 -1.10550e-04 -1.11170e-02 -4.12120e-04 -1.03820e-04 -3.42020e-02 -9.28270e-02 -2.17880e-04 -1.15290e-02 -4.22770e-04 -1.11640e-04 -3.36980e-02 -8.74340e-02 -2.02440e-04 -1.07590e-02 -4.14250e-04 -1.13750e-04 -3.16530e-02 -8.22090e-02 -1.87440e-04 -1.00060e-02 -4.05260e-04 -1.15470e-04 -2.96580e-02 -7.71530e-02 -1.72890e-04 -9.26990e-03 -3.95800e-04 -1.16820e-04 -2.77170e-02 -7.22630e-02 -1.58780e-04 -8.55330e-03 -3.85910e-04 -1.17780e-04 -2.58300e-02 -6.75380e-02 -1.45130e-04 -7.85750e-03 -3.75610e-04 -1.18380e-04 -2.40000e-02 -6.29790e-02 -1.31930e-04 -7.18370e-03 -3.64910e-04 -1.18610e-04 -2.22280e-02 -5.85830e-02 -1.19200e-04 -6.53330e-03 -3.53840e-04 -1.18490e-04 -2.05160e-02 -5.43490e-02 -1.06920e-04 -5.90750e-03 -3.42410e-04 -1.18020e-04 -1.88660e-02 -5.17840e-02 -1.83540e-04 -6.00720e-03 -3.50000e-04 -1.24290e-04 -1.82720e-02 -4.63690e-02 -8.37510e-05 -4.73380e-03 -3.18580e-04 -1.16060e-04 -1.57530e-02 -4.26200e-02 -7.28670e-05 -4.18800e-03 -3.06210e-04 -1.14590e-04 -1.42940e-02 -3.90320e-02 -6.24470e-05 -3.67050e-03 -2.93560e-04 -1.12800e-04 -1.29020e-02 -3.56030e-02 -5.24940e-05 -3.18230e-03 -2.80650e-04 -1.10690e-04 -1.15760e-02 -3.23340e-02 -4.30100e-05 -2.72400e-03 -2.67500e-04 -1.08290e-04 -1.03180e-02 -2.71480e-02 4.87290e-04 1.47940e-04 -1.92050e-04 -1.15950e-05 -6.26930e-03 -2.55250e-02 4.02360e-04 2.10020e-05 -1.96920e-04 -2.27940e-05 -5.93290e-03 -2.29330e-02 3.50070e-04 2.22090e-04 -1.83200e-04 -2.94060e-05 -5.06770e-03 -2.14600e-02 2.76190e-04 1.52420e-04 -1.88010e-04 -3.98780e-05 -4.71650e-03 -1.83670e-02 -2.55990e-06 -9.01290e-04 -1.98190e-04 -9.17740e-05 -5.07460e-03 -1.60480e-02 4.16660e-06 -6.33500e-04 -1.83540e-04 -8.75320e-05 -4.23900e-03 -1.38850e-02 1.04500e-05 -3.98730e-04 -1.68540e-04 -8.29250e-05 -3.47540e-03 -1.18790e-02 1.63120e-05 -1.97200e-04 -1.53070e-04 -7.78990e-05 -2.78390e-03 -1.00280e-02 2.17300e-05 -2.92340e-05 -1.37030e-04 -7.23890e-05 -2.16460e-03 -8.33180e-03 2.67320e-05 1.04840e-04 -1.20200e-04 -6.62980e-05 -1.61760e-03 -6.11780e-03 6.12640e-05 2.80020e-04 -8.10650e-05 -5.00610e-05 -9.39620e-04 -5.39630e-03 3.51490e-05 2.68310e-04 -8.34350e-05 -5.20080e-05 -7.40120e-04 -4.15280e-03 3.80850e-05 2.94820e-04 -6.32580e-05 -4.37260e-05 -4.10380e-04 -3.05570e-03 3.98410e-05 2.82070e-04 -4.19090e-05 -3.46730e-05 -1.54750e-04 -2.10470e-03 3.81560e-05 2.26030e-04 -2.12440e-05 -2.55370e-05 2.46230e-05 -1.30150e-03 3.25880e-05 1.29840e-04 -3.82160e-06 -1.65810e-05 1.24130e-04 -6.65270e-04 1.22400e-05 -1.44840e-06 -2.46540e-06 -1.10190e-05 1.41780e-04 -2.22060e-04 1.09280e-05 -6.37190e-05 -1.23370e-05 -1.10520e-06 8.01660e-05 -6.91830e-05 2.12290e-05 -2.66700e-05 -1.78750e-05 9.16900e-06 1.22480e-05 -1.16280e+00 -4.15480e-01 -4.33050e-01 -2.46640e-01 -2.34940e-02 1.44810e-01 -1.07080e+00 -1.05160e-01 -9.20650e-02 -8.98380e-02 -1.28660e-03 1.44070e-02 -8.48340e-01 1.71630e-02 3.78780e-02 3.00160e-03 6.05030e-03 -5.50570e-02 -8.88680e-01 -1.88430e-02 -7.42760e-03 -4.28240e-03 -1.88880e-03 -3.61480e-02 -8.67080e-01 3.56430e-03 1.05190e-02 8.05000e-03 1.07800e-03 -4.80670e-02 -8.73590e-01 1.74990e-02 2.04710e-02 7.88620e-03 -3.11230e-04 -4.77670e-02 -8.66400e-01 1.58740e-03 2.22120e-03 5.41330e-03 1.07010e-03 -5.89890e-02 -8.61960e-01 -1.14980e-03 -2.37160e-03 2.67960e-03 4.58240e-04 -6.48140e-02 -8.46730e-01 1.21210e-03 -2.23250e-03 2.89750e-03 1.10910e-03 -7.43100e-02 -8.34430e-01 1.57650e-04 -4.81980e-03 1.47620e-03 7.75980e-04 -8.10100e-02 -8.17430e-01 1.03580e-03 -5.94500e-03 1.31770e-03 1.03330e-03 -8.89680e-02 -8.01650e-01 5.48680e-04 -7.97350e-03 6.27850e-04 8.36870e-04 -9.51100e-02 -7.83740e-01 8.98230e-04 -9.54900e-03 5.03260e-04 9.35200e-04 -1.01580e-01 -7.66500e-01 6.44660e-04 -1.14080e-02 2.05070e-04 8.18640e-04 -1.06800e-01 -7.48310e-01 7.94160e-04 -1.31290e-02 1.63280e-04 8.56190e-04 -1.11970e-01 -7.37060e-01 -7.08090e-05 -1.68440e-02 6.44650e-05 7.80260e-04 -1.19860e-01 -7.12490e-01 7.21510e-04 -1.66430e-02 7.44650e-05 8.02570e-04 -1.20280e-01 -6.94770e-01 6.39430e-04 -1.83500e-02 6.27640e-05 7.62580e-04 -1.23640e-01 -6.70970e-01 7.46560e-04 -1.85220e-02 7.12100e-05 7.75080e-04 -1.22830e-01 -6.59470e-01 6.22730e-04 -2.16330e-02 1.26360e-04 7.44860e-04 -1.29240e-01 -6.42040e-01 6.38220e-04 -2.32010e-02 1.72210e-04 7.47000e-04 -1.31470e-01 -6.24920e-01 6.06530e-04 -2.46890e-02 2.09160e-04 7.32340e-04 -1.33230e-01 -6.07940e-01 6.12470e-04 -2.61200e-02 2.53880e-04 7.32450e-04 -1.34700e-01 -5.91240e-01 5.90670e-04 -2.74640e-02 2.92150e-04 7.22750e-04 -1.35780e-01 -5.74740e-01 5.90890e-04 -2.87360e-02 3.32660e-04 7.21630e-04 -1.36570e-01 -5.58510e-01 5.74480e-04 -2.99150e-02 3.68370e-04 7.14650e-04 -1.37030e-01 -5.37430e-01 7.96610e-04 -2.89640e-02 3.94490e-04 7.18230e-04 -1.33300e-01 -5.26780e-01 5.57580e-04 -3.20160e-02 4.36180e-04 7.07230e-04 -1.37130e-01 -5.11290e-01 5.51810e-04 -3.29310e-02 4.67430e-04 7.04750e-04 -1.36780e-01 -4.96070e-01 5.39880e-04 -3.37480e-02 4.95890e-04 7.00090e-04 -1.36180e-01 -4.81100e-01 5.32540e-04 -3.44750e-02 5.23200e-04 6.97210e-04 -1.35370e-01 -4.66400e-01 5.21410e-04 -3.51050e-02 5.48260e-04 6.92970e-04 -1.34330e-01 -4.51960e-01 5.13030e-04 -3.56440e-02 5.72090e-04 6.89770e-04 -1.33100e-01 -4.42140e-01 2.67870e-04 -3.83260e-02 6.06330e-04 6.83870e-04 -1.35410e-01 -4.23870e-01 4.93240e-04 -3.64410e-02 6.14740e-04 6.82180e-04 -1.30080e-01 -4.10230e-01 4.82720e-04 -3.67040e-02 6.33800e-04 6.78040e-04 -1.28330e-01 -3.96840e-01 4.73180e-04 -3.68790e-02 6.51610e-04 6.74190e-04 -1.26420e-01 -3.83730e-01 4.62740e-04 -3.69680e-02 6.67940e-04 6.69860e-04 -1.24380e-01 -3.70870e-01 4.52890e-04 -3.69740e-02 6.83040e-04 6.65620e-04 -1.22220e-01 -3.58270e-01 4.42490e-04 -3.68990e-02 6.96780e-04 6.60980e-04 -1.19940e-01 -3.49690e-01 2.23460e-04 -3.89800e-02 7.25180e-04 6.58270e-04 -1.20970e-01 -3.33860e-01 4.22050e-04 -3.65190e-02 7.20580e-04 6.51230e-04 -1.15070e-01 -3.22030e-01 4.11880e-04 -3.62210e-02 7.30680e-04 6.46030e-04 -1.12510e-01 -3.10460e-01 4.01500e-04 -3.58540e-02 7.39560e-04 6.40490e-04 -1.09870e-01 -2.99140e-01 3.91260e-04 -3.54240e-02 7.47320e-04 6.34740e-04 -1.07160e-01 -2.88060e-01 3.80900e-04 -3.49320e-02 7.53940e-04 6.28660e-04 -1.04400e-01 -2.77230e-01 3.70640e-04 -3.43830e-02 7.59470e-04 6.22330e-04 -1.01580e-01 -2.66650e-01 3.60330e-04 -3.37810e-02 7.63920e-04 6.15670e-04 -9.87250e-02 -2.56300e-01 3.50090e-04 -3.31290e-02 7.67320e-04 6.08730e-04 -9.58330e-02 -2.46200e-01 3.39840e-04 -3.24310e-02 7.69690e-04 6.01460e-04 -9.29140e-02 -2.33250e-01 5.08110e-04 -2.96940e-02 7.52140e-04 5.87500e-04 -8.71430e-02 -2.26680e-01 3.19490e-04 -3.09110e-02 7.71460e-04 5.86010e-04 -8.70180e-02 -2.17270e-01 3.09410e-04 -3.00970e-02 7.70900e-04 5.77830e-04 -8.40550e-02 -2.08090e-01 2.99370e-04 -2.92510e-02 7.69410e-04 5.69330e-04 -8.10900e-02 -1.99130e-01 2.89410e-04 -2.83770e-02 7.67020e-04 5.60530e-04 -7.81270e-02 -1.90390e-01 2.79510e-04 -2.74790e-02 7.63730e-04 5.51430e-04 -7.51730e-02 -1.81880e-01 2.69710e-04 -2.65600e-02 7.59590e-04 5.42030e-04 -7.22320e-02 -1.76270e-01 1.04530e-04 -2.73360e-02 7.75080e-04 5.41100e-04 -7.16830e-02 -1.65490e-01 2.50380e-04 -2.46720e-02 7.48790e-04 5.22360e-04 -6.64100e-02 -1.57610e-01 2.40870e-04 -2.37100e-02 7.42180e-04 5.12110e-04 -6.35370e-02 -1.49950e-01 2.31470e-04 -2.27400e-02 7.34790e-04 5.01590e-04 -6.06960e-02 -1.42490e-01 2.22200e-04 -2.17650e-02 7.26650e-04 4.90810e-04 -5.78900e-02 -1.35240e-01 2.13060e-04 -2.07880e-02 7.17760e-04 4.79780e-04 -5.51230e-02 -1.25790e-01 3.39060e-04 -1.83850e-02 6.86600e-04 4.58230e-04 -5.04240e-02 -1.21340e-01 1.95190e-04 -1.88380e-02 6.97850e-04 4.57010e-04 -4.97190e-02 -1.14690e-01 1.86480e-04 -1.78710e-02 6.86860e-04 4.45290e-04 -4.70880e-02 -1.08240e-01 1.77930e-04 -1.69120e-02 6.75200e-04 4.33370e-04 -4.45090e-02 -1.01990e-01 1.69540e-04 -1.59640e-02 6.62900e-04 4.21250e-04 -4.19850e-02 -9.59290e-02 1.61320e-04 -1.50290e-02 6.49970e-04 4.08950e-04 -3.95170e-02 -9.00630e-02 1.53270e-04 -1.41090e-02 6.36430e-04 3.96480e-04 -3.71090e-02 -8.43880e-02 1.45420e-04 -1.32060e-02 6.22300e-04 3.83850e-04 -3.47630e-02 -7.89040e-02 1.37750e-04 -1.23230e-02 6.07590e-04 3.71080e-04 -3.24810e-02 -7.36100e-02 1.30290e-04 -1.14600e-02 5.92320e-04 3.58170e-04 -3.02650e-02 -6.85030e-02 1.23020e-04 -1.06190e-02 5.76510e-04 3.45150e-04 -2.81160e-02 -6.35840e-02 1.15960e-04 -9.80290e-03 5.60170e-04 3.32020e-04 -2.60370e-02 -6.06400e-02 1.65720e-05 -9.83630e-03 5.66540e-04 3.30820e-04 -2.52320e-02 -5.43030e-02 1.02510e-04 -8.24850e-03 5.25980e-04 3.05500e-04 -2.20950e-02 -4.99400e-02 9.61140e-05 -7.51290e-03 5.08160e-04 2.92130e-04 -2.02340e-02 -4.57610e-02 8.99530e-05 -6.80670e-03 4.89870e-04 2.78720e-04 -1.84490e-02 -4.17650e-02 8.40330e-05 -6.13100e-03 4.71140e-04 2.65270e-04 -1.67410e-02 -3.64440e-02 1.52730e-04 -4.89750e-03 4.28190e-04 2.39480e-04 -1.42070e-02 -3.43220e-02 7.29400e-05 -4.87480e-03 4.32390e-04 2.38300e-04 -1.35580e-02 -3.08730e-02 6.77760e-05 -4.29590e-03 4.12390e-04 2.24800e-04 -1.20860e-02 -2.76060e-02 6.28770e-05 -3.75090e-03 3.91990e-04 2.11310e-04 -1.06940e-02 -2.45200e-02 5.82570e-05 -3.24040e-03 3.71170e-04 1.97820e-04 -9.38350e-03 -2.16160e-02 5.39290e-05 -2.76500e-03 3.49930e-04 1.84340e-04 -8.15490e-03 -1.88920e-02 4.99060e-05 -2.32510e-03 3.28240e-04 1.70870e-04 -7.00880e-03 -1.63480e-02 4.61890e-05 -1.92110e-03 3.06050e-04 1.57370e-04 -5.94550e-03 -1.39840e-02 4.28090e-05 -1.55340e-03 2.83270e-04 1.43810e-04 -4.96550e-03 -1.27360e-02 -1.53950e-06 -1.44730e-03 2.85210e-04 1.42830e-04 -4.48370e-03 -9.79410e-03 3.70970e-05 -9.28060e-04 2.35430e-04 1.16260e-04 -3.25600e-03 -7.96630e-03 3.47590e-05 -6.71080e-04 2.09940e-04 1.02070e-04 -2.52690e-03 -6.31560e-03 3.27530e-05 -4.51810e-04 1.83040e-04 8.74370e-05 -1.88190e-03 -4.84150e-03 3.09450e-05 -2.71170e-04 1.54390e-04 7.22130e-05 -1.32170e-03 -2.96580e-03 5.19170e-05 -6.85910e-05 9.60780e-05 4.29750e-05 -6.70650e-04 -2.42720e-03 2.70110e-05 -3.23990e-05 9.11310e-05 3.98960e-05 -4.64050e-04 -1.49680e-03 2.34900e-05 2.00300e-05 5.76880e-05 2.35210e-05 -1.75920e-04 -7.68410e-04 1.65890e-05 2.44040e-05 2.64870e-05 8.51760e-06 6.39810e-06 -2.70070e-04 1.15410e-06 -1.62200e-05 7.06850e-06 -2.05580e-06 7.32200e-05 -2.39630e-05 -1.49840e-05 -3.98140e-05 4.34980e-06 -1.17580e-05 4.14490e-05 2.41680e-05 -2.50250e-05 -1.73330e-05 9.54690e-06 -1.90200e-05 -2.66960e-07 -1.03980e+00 -4.52150e-01 -4.17910e-01 -1.82890e-01 -1.96060e-02 1.80150e-01 -1.03460e+00 -1.72860e-01 -1.06580e-01 -1.05030e-01 -6.82590e-04 3.70330e-02 -9.07320e-01 9.83380e-03 2.81500e-02 -2.79180e-02 8.81870e-03 -5.00720e-02 -9.22360e-01 -1.64210e-02 -2.34240e-03 -6.85400e-03 1.54020e-03 -3.27540e-02 -9.03690e-01 3.28350e-03 4.77030e-03 2.74150e-03 1.78480e-03 -4.62850e-02 -8.94460e-01 8.50470e-03 8.71450e-03 5.97900e-03 1.06570e-03 -4.64490e-02 -8.84840e-01 3.48000e-03 -1.61230e-03 5.93950e-03 1.68390e-03 -5.95540e-02 -8.72560e-01 2.28190e-03 -3.79300e-03 5.27980e-03 1.68340e-03 -6.60210e-02 -8.55490e-01 3.68700e-03 -5.18120e-03 4.55270e-03 1.91730e-03 -7.53740e-02 -8.39530e-01 3.10950e-03 -6.77340e-03 3.60060e-03 1.89570e-03 -8.21830e-02 -8.21480e-01 3.48540e-03 -8.45420e-03 2.85160e-03 1.93820e-03 -8.99590e-02 -8.04040e-01 3.08920e-03 -1.00500e-02 2.17830e-03 1.88100e-03 -9.60750e-02 -7.85630e-01 3.16570e-03 -1.18160e-02 1.70080e-03 1.85470e-03 -1.02420e-01 -7.67670e-01 2.88270e-03 -1.34720e-02 1.32940e-03 1.79370e-03 -1.07600e-01 -7.49270e-01 2.87480e-03 -1.52470e-02 1.08910e-03 1.75290e-03 -1.12700e-01 -7.37750e-01 2.13340e-03 -1.87210e-02 9.99700e-04 1.70580e-03 -1.20600e-01 -7.13040e-01 2.64340e-03 -1.86570e-02 8.28510e-04 1.66360e-03 -1.20940e-01 -6.95190e-01 2.50020e-03 -2.03000e-02 7.74210e-04 1.62310e-03 -1.24270e-01 -6.71290e-01 2.56060e-03 -2.04050e-02 7.33290e-04 1.59160e-03 -1.23450e-01 -6.59760e-01 2.35350e-03 -2.35200e-02 7.54310e-04 1.55860e-03 -1.29840e-01 -6.42290e-01 2.30970e-03 -2.50610e-02 7.67960e-04 1.53120e-03 -1.32040e-01 -6.25120e-01 2.22420e-03 -2.65120e-02 7.86920e-04 1.50370e-03 -1.33800e-01 -6.08100e-01 2.17730e-03 -2.79140e-02 8.10810e-04 1.47910e-03 -1.35250e-01 -5.91360e-01 2.10470e-03 -2.92220e-02 8.34800e-04 1.45440e-03 -1.36310e-01 -5.74810e-01 2.05570e-03 -3.04630e-02 8.59380e-04 1.43130e-03 -1.37090e-01 -5.58550e-01 1.99100e-03 -3.16090e-02 8.82220e-04 1.40820e-03 -1.37530e-01 -5.37410e-01 2.15490e-03 -3.06140e-02 8.95410e-04 1.38570e-03 -1.33780e-01 -5.26730e-01 1.88120e-03 -3.36440e-02 9.23870e-04 1.36390e-03 -1.37590e-01 -5.11210e-01 1.83060e-03 -3.45260e-02 9.42280e-04 1.34240e-03 -1.37230e-01 -4.95950e-01 1.77470e-03 -3.53100e-02 9.58790e-04 1.32090e-03 -1.36610e-01 -4.80950e-01 1.72450e-03 -3.60040e-02 9.73950e-04 1.29980e-03 -1.35780e-01 -4.66220e-01 1.67150e-03 -3.66010e-02 9.87480e-04 1.27890e-03 -1.34730e-01 -4.51740e-01 1.62220e-03 -3.71070e-02 9.99790e-04 1.25830e-03 -1.33480e-01 -4.41910e-01 1.35050e-03 -3.97650e-02 1.02370e-03 1.24130e-03 -1.35780e-01 -4.23600e-01 1.52360e-03 -3.78390e-02 1.02050e-03 1.21760e-03 -1.30430e-01 -4.09940e-01 1.47510e-03 -3.80690e-02 1.02910e-03 1.19750e-03 -1.28660e-01 -3.96530e-01 1.42860e-03 -3.82120e-02 1.03660e-03 1.17760e-03 -1.26750e-01 -3.83390e-01 1.38210e-03 -3.82680e-02 1.04300e-03 1.15780e-03 -1.24690e-01 -3.70510e-01 1.33720e-03 -3.82420e-02 1.04840e-03 1.13820e-03 -1.22520e-01 -3.57900e-01 1.29260e-03 -3.81360e-02 1.05280e-03 1.11860e-03 -1.20220e-01 -3.49300e-01 1.05070e-03 -4.01950e-02 1.07210e-03 1.10540e-03 -1.21250e-01 -3.33450e-01 1.20650e-03 -3.76940e-02 1.05870e-03 1.07970e-03 -1.15330e-01 -3.21610e-01 1.16480e-03 -3.73640e-02 1.06020e-03 1.06040e-03 -1.12760e-01 -3.10020e-01 1.12380e-03 -3.69670e-02 1.06080e-03 1.04100e-03 -1.10110e-01 -2.98690e-01 1.08370e-03 -3.65070e-02 1.06040e-03 1.02170e-03 -1.07390e-01 -2.87600e-01 1.04440e-03 -3.59850e-02 1.05910e-03 1.00240e-03 -1.04620e-01 -2.76760e-01 1.00590e-03 -3.54070e-02 1.05700e-03 9.83150e-04 -1.01800e-01 -2.66170e-01 9.68240e-04 -3.47750e-02 1.05390e-03 9.63840e-04 -9.89330e-02 -2.55820e-01 9.31400e-04 -3.40940e-02 1.05000e-03 9.44520e-04 -9.60330e-02 -2.45700e-01 8.95310e-04 -3.33670e-02 1.04530e-03 9.25170e-04 -9.31060e-02 -2.32740e-01 1.03050e-03 -3.05920e-02 1.02120e-03 8.96290e-04 -8.73240e-02 -2.26180e-01 8.25530e-04 -3.17910e-02 1.03330e-03 8.86370e-04 -8.71980e-02 -2.16770e-01 7.91810e-04 -3.09490e-02 1.02610e-03 8.66920e-04 -8.42280e-02 -2.07580e-01 7.58850e-04 -3.00760e-02 1.01810e-03 8.47430e-04 -8.12560e-02 -1.98620e-01 7.26660e-04 -2.91750e-02 1.00930e-03 8.27900e-04 -7.82880e-02 -1.89880e-01 6.95220e-04 -2.82510e-02 9.99810e-04 8.08330e-04 -7.53280e-02 -1.81360e-01 6.64530e-04 -2.73050e-02 9.89540e-04 7.88720e-04 -7.23830e-02 -1.75760e-01 4.85590e-04 -2.80660e-02 9.98410e-04 7.80200e-04 -7.18320e-02 -1.64980e-01 6.05390e-04 -2.53670e-02 9.66820e-04 7.49390e-04 -6.65510e-02 -1.57100e-01 5.76920e-04 -2.43790e-02 9.54400e-04 7.29680e-04 -6.36740e-02 -1.49440e-01 5.49190e-04 -2.33850e-02 9.41290e-04 7.09950e-04 -6.08280e-02 -1.41980e-01 5.22180e-04 -2.23850e-02 9.27500e-04 6.90190e-04 -5.80180e-02 -1.34740e-01 4.95900e-04 -2.13840e-02 9.13060e-04 6.70410e-04 -5.52470e-02 -1.25300e-01 6.00030e-04 -1.89480e-02 8.77120e-04 6.38540e-04 -5.05410e-02 -1.20850e-01 4.45490e-04 -1.93880e-02 8.82250e-04 6.30840e-04 -4.98350e-02 -1.14210e-01 4.21350e-04 -1.83970e-02 8.65910e-04 6.11050e-04 -4.72010e-02 -1.07760e-01 3.97930e-04 -1.74160e-02 8.48970e-04 5.91270e-04 -4.46190e-02 -1.01510e-01 3.75210e-04 -1.64460e-02 8.31440e-04 5.71520e-04 -4.20910e-02 -9.54600e-02 3.53190e-04 -1.54890e-02 8.13320e-04 5.51780e-04 -3.96200e-02 -8.96000e-02 3.31870e-04 -1.45480e-02 7.94650e-04 5.32080e-04 -3.72090e-02 -8.39330e-02 3.11250e-04 -1.36240e-02 7.75420e-04 5.12430e-04 -3.48590e-02 -7.84570e-02 2.91330e-04 -1.27190e-02 7.55650e-04 4.92830e-04 -3.25730e-02 -7.31700e-02 2.72090e-04 -1.18360e-02 7.35350e-04 4.73280e-04 -3.03540e-02 -6.80710e-02 2.53550e-04 -1.09760e-02 7.14540e-04 4.53810e-04 -2.82020e-02 -6.31600e-02 2.35700e-04 -1.01400e-02 6.93240e-04 4.34420e-04 -2.61190e-02 -6.02200e-02 1.29310e-04 -1.01620e-02 6.93890e-04 4.28060e-04 -2.53130e-02 -5.38970e-02 2.02050e-04 -8.54690e-03 6.49170e-04 3.95910e-04 -2.21700e-02 -4.95430e-02 1.86250e-04 -7.79270e-03 6.26440e-04 3.76820e-04 -2.03050e-02 -4.53730e-02 1.71140e-04 -7.06830e-03 6.03260e-04 3.57850e-04 -1.85160e-02 -4.13870e-02 1.56710e-04 -6.37470e-03 5.79640e-04 3.39000e-04 -1.68040e-02 -3.60800e-02 2.14730e-04 -5.11600e-03 5.32570e-04 3.07360e-04 -1.42630e-02 -3.39630e-02 1.29900e-04 -5.08360e-03 5.31120e-04 3.01720e-04 -1.36120e-02 -3.05240e-02 1.17530e-04 -4.48790e-03 5.06230e-04 2.83300e-04 -1.21360e-02 -2.72670e-02 1.05860e-04 -3.92640e-03 4.80910e-04 2.65030e-04 -1.07390e-02 -2.41910e-02 9.48970e-05 -3.39970e-03 4.55140e-04 2.46890e-04 -9.42370e-03 -2.12960e-02 8.46570e-05 -2.90840e-03 4.28880e-04 2.28880e-04 -8.19000e-03 -1.85820e-02 7.51670e-05 -2.45300e-03 4.02080e-04 2.10970e-04 -7.03850e-03 -1.60490e-02 6.64410e-05 -2.03380e-03 3.74630e-04 1.93100e-04 -5.96970e-03 -1.36960e-02 5.85370e-05 -1.65140e-03 3.46390e-04 1.75200e-04 -4.98400e-03 -1.24520e-02 1.14210e-05 -1.53740e-03 3.42180e-04 1.70230e-04 -4.49980e-03 -9.52790e-03 4.53520e-05 -9.97680e-04 2.86620e-04 1.38880e-04 -3.26290e-03 -7.71280e-03 4.01590e-05 -7.27220e-04 2.54460e-04 1.20160e-04 -2.52830e-03 -6.07670e-03 3.60050e-05 -4.94980e-04 2.20280e-04 1.00830e-04 -1.87820e-03 -4.62030e-03 3.27450e-05 -3.02020e-04 1.83730e-04 8.07950e-05 -1.31400e-03 -2.77910e-03 5.30990e-05 -8.20650e-05 1.16630e-04 4.62730e-05 -6.58840e-04 -2.25720e-03 2.79760e-05 -4.06420e-05 1.03920e-04 3.92390e-05 -4.53200e-04 -1.36440e-03 2.44830e-05 2.22810e-05 6.34180e-05 1.93510e-05 -1.67110e-04 -6.83030e-04 1.49430e-05 3.51140e-05 2.84440e-05 2.76350e-06 1.09580e-05 -2.31960e-04 -7.72700e-06 2.23440e-06 7.05400e-06 -8.76400e-06 7.38100e-05 -1.76320e-05 -3.54310e-05 -1.71890e-05 1.77820e-06 -1.64350e-05 3.90240e-05 2.17520e-05 -5.57850e-05 6.10770e-06 4.51670e-06 -2.04510e-05 -2.69540e-06 -1.02400e+00 -5.06510e-01 -4.21700e-01 -1.24490e-01 -1.64190e-02 2.19040e-01 -1.01640e+00 -2.53380e-01 -1.21120e-01 -9.64450e-02 -3.67230e-03 5.93350e-02 -9.30380e-01 -2.69750e-02 1.28350e-02 -5.23010e-02 5.71870e-03 -4.88250e-02 -9.56850e-01 -3.00210e-02 -2.56740e-03 -1.85000e-02 2.70100e-03 -3.38270e-02 -9.41060e-01 -3.81410e-03 1.63770e-03 -3.63590e-03 1.12790e-03 -4.62000e-02 -9.20590e-01 7.10680e-03 7.64780e-03 7.29280e-03 1.07030e-03 -4.68490e-02 -9.08990e-01 4.23220e-03 -3.13740e-03 6.26620e-03 1.03890e-03 -6.05820e-02 -8.90560e-01 4.46960e-03 -5.00080e-03 6.93280e-03 1.34780e-03 -6.72960e-02 -8.69060e-01 6.99640e-03 -6.30800e-03 6.58850e-03 1.56150e-03 -7.67130e-02 -8.49480e-01 6.65980e-03 -7.85520e-03 5.84380e-03 1.71450e-03 -8.34370e-02 -8.28830e-01 7.34240e-03 -9.44080e-03 5.00710e-03 1.79080e-03 -9.11740e-02 -8.09500e-01 6.81740e-03 -1.10280e-02 4.23330e-03 1.81570e-03 -9.71500e-02 -7.89720e-01 6.89020e-03 -1.27360e-02 3.58160e-03 1.81310e-03 -1.03450e-01 -7.70840e-01 6.40860e-03 -1.43840e-02 3.07170e-03 1.78740e-03 -1.08520e-01 -7.51770e-01 6.30680e-03 -1.61270e-02 2.68750e-03 1.75870e-03 -1.13580e-01 -7.40000e-01 5.36910e-03 -1.96560e-02 2.49620e-03 1.71940e-03 -1.21420e-01 -7.14790e-01 5.79100e-03 -1.95110e-02 2.22450e-03 1.69160e-03 -1.21750e-01 -6.96720e-01 5.50470e-03 -2.11450e-02 2.10090e-03 1.65930e-03 -1.25050e-01 -6.72390e-01 4.21740e-03 -2.13540e-02 1.16670e-03 3.28970e-03 -1.24020e-01 -6.58930e-01 4.86490e-03 -2.37490e-02 1.69640e-03 2.15290e-03 -1.29240e-01 -6.43450e-01 5.01150e-03 -2.58760e-02 1.94850e-03 1.58260e-03 -1.32790e-01 -6.26190e-01 4.82880e-03 -2.73170e-02 1.93600e-03 1.56000e-03 -1.34530e-01 -6.09090e-01 4.70010e-03 -2.87090e-02 1.93000e-03 1.53960e-03 -1.35970e-01 -5.92280e-01 4.54160e-03 -3.00080e-02 1.92860e-03 1.51910e-03 -1.37030e-01 -5.75670e-01 4.41560e-03 -3.12390e-02 1.92800e-03 1.49980e-03 -1.37790e-01 -5.59340e-01 4.27200e-03 -3.23740e-02 1.92790e-03 1.48040e-03 -1.38230e-01 -5.38100e-01 4.33420e-03 -3.13740e-02 1.91330e-03 1.46180e-03 -1.34460e-01 -5.27400e-01 4.01500e-03 -3.43880e-02 1.92400e-03 1.44230e-03 -1.38260e-01 -5.11800e-01 3.89430e-03 -3.52590e-02 1.91990e-03 1.42330e-03 -1.37880e-01 -4.96490e-01 3.76840e-03 -3.60320e-02 1.91460e-03 1.40430e-03 -1.37260e-01 -4.81430e-01 3.65110e-03 -3.67140e-02 1.90770e-03 1.38530e-03 -1.36410e-01 -4.66640e-01 3.53160e-03 -3.73000e-02 1.89970e-03 1.36620e-03 -1.35340e-01 -4.52120e-01 3.41820e-03 -3.77930e-02 1.89040e-03 1.34720e-03 -1.34080e-01 -4.42250e-01 3.10480e-03 -4.04400e-02 1.89650e-03 1.33090e-03 -1.36370e-01 -4.23880e-01 3.19520e-03 -3.85010e-02 1.86880e-03 1.30910e-03 -1.31000e-01 -4.10160e-01 3.08680e-03 -3.87180e-02 1.85660e-03 1.29000e-03 -1.29210e-01 -3.96710e-01 2.98200e-03 -3.88490e-02 1.84360e-03 1.27090e-03 -1.27280e-01 -3.83530e-01 2.87860e-03 -3.88930e-02 1.82990e-03 1.25170e-03 -1.25210e-01 -3.70610e-01 2.77840e-03 -3.88540e-02 1.81530e-03 1.23260e-03 -1.23020e-01 -3.57960e-01 2.67990e-03 -3.87350e-02 1.80010e-03 1.21340e-03 -1.20710e-01 -3.46790e-01 2.70630e-03 -3.92680e-02 1.97450e-03 9.38730e-04 -1.19480e-01 -3.37020e-01 2.85330e-03 -4.04430e-02 2.33390e-03 4.18830e-04 -1.19300e-01 -3.21560e-01 2.39900e-03 -3.79250e-02 1.75040e-03 1.15570e-03 -1.13200e-01 -3.09950e-01 2.30960e-03 -3.75150e-02 1.73250e-03 1.13630e-03 -1.10540e-01 -2.98590e-01 2.22260e-03 -3.70420e-02 1.71410e-03 1.11690e-03 -1.07810e-01 -2.87470e-01 2.13760e-03 -3.65070e-02 1.69500e-03 1.09740e-03 -1.05020e-01 -2.76610e-01 2.05480e-03 -3.59160e-02 1.67530e-03 1.07780e-03 -1.02180e-01 -2.65990e-01 1.97400e-03 -3.52720e-02 1.65500e-03 1.05820e-03 -9.93050e-02 -2.55620e-01 1.89530e-03 -3.45780e-02 1.63420e-03 1.03840e-03 -9.63920e-02 -2.45490e-01 1.81850e-03 -3.38390e-02 1.61280e-03 1.01860e-03 -9.34520e-02 -2.32500e-01 1.90030e-03 -3.10470e-02 1.57080e-03 9.90190e-04 -8.76500e-02 -2.25930e-01 1.67080e-03 -3.22370e-02 1.56840e-03 9.78720e-04 -8.75170e-02 -2.16500e-01 1.59990e-03 -3.13830e-02 1.54530e-03 9.58650e-04 -8.45350e-02 -2.07300e-01 1.53080e-03 -3.04970e-02 1.52180e-03 9.38490e-04 -8.15510e-02 -1.98320e-01 1.46360e-03 -2.95840e-02 1.49770e-03 9.18250e-04 -7.85710e-02 -1.89570e-01 1.39830e-03 -2.86470e-02 1.47320e-03 8.97930e-04 -7.56000e-02 -1.81040e-01 1.33470e-03 -2.76900e-02 1.44810e-03 8.77530e-04 -7.26430e-02 -1.75430e-01 1.13510e-03 -2.84430e-02 1.44350e-03 8.67080e-04 -7.20870e-02 -1.64630e-01 1.21280e-03 -2.57270e-02 1.39660e-03 8.36520e-04 -6.67890e-02 -1.56750e-01 1.15440e-03 -2.47280e-02 1.37020e-03 8.15910e-04 -6.39020e-02 -1.49080e-01 1.09780e-03 -2.37220e-02 1.34330e-03 7.95240e-04 -6.10460e-02 -1.41620e-01 1.04280e-03 -2.27110e-02 1.31590e-03 7.74520e-04 -5.82250e-02 -1.34370e-01 9.89500e-04 -2.16980e-02 1.28820e-03 7.53740e-04 -5.54440e-02 -1.24930e-01 1.05820e-03 -1.92460e-02 1.23860e-03 7.21990e-04 -5.07230e-02 -1.20470e-01 8.87740e-04 -1.96790e-02 1.23140e-03 7.12070e-04 -5.00140e-02 -1.13830e-01 8.39260e-04 -1.86770e-02 1.20240e-03 6.91180e-04 -4.73700e-02 -1.07380e-01 7.92350e-04 -1.76850e-02 1.17300e-03 6.70260e-04 -4.47790e-02 -1.01130e-01 7.46990e-04 -1.67040e-02 1.14320e-03 6.49330e-04 -4.22420e-02 -9.50770e-02 7.03160e-04 -1.57360e-02 1.11310e-03 6.28390e-04 -3.97620e-02 -8.92170e-02 6.60860e-04 -1.47840e-02 1.08260e-03 6.07440e-04 -3.73430e-02 -8.35500e-02 6.20050e-04 -1.38490e-02 1.05180e-03 5.86490e-04 -3.49850e-02 -7.80750e-02 5.80730e-04 -1.29340e-02 1.02060e-03 5.65560e-04 -3.26910e-02 -7.27890e-02 5.42880e-04 -1.20400e-02 9.89010e-04 5.44640e-04 -3.04630e-02 -6.76930e-02 5.06480e-04 -1.11690e-02 9.57150e-04 5.23750e-04 -2.83030e-02 -6.27850e-02 4.71530e-04 -1.03230e-02 9.24960e-04 5.02890e-04 -2.62130e-02 -5.98440e-02 3.54630e-04 -1.03390e-02 9.14760e-04 4.93870e-04 -2.54030e-02 -5.35280e-02 4.05890e-04 -8.70940e-03 8.59660e-04 4.61300e-04 -2.22480e-02 -4.91770e-02 3.75190e-04 -7.94510e-03 8.26570e-04 4.40580e-04 -2.03760e-02 -4.50120e-02 3.45880e-04 -7.21060e-03 7.93190e-04 4.19930e-04 -1.85800e-02 -4.10300e-02 3.17960e-04 -6.50710e-03 7.59520e-04 3.99350e-04 -1.68600e-02 -3.57320e-02 3.58630e-04 -5.23350e-03 7.02950e-04 3.66970e-04 -1.43080e-02 -3.36160e-02 2.66260e-04 -5.19630e-03 6.91350e-04 3.58400e-04 -1.36540e-02 -3.01820e-02 2.42490e-04 -4.59090e-03 6.56820e-04 3.38040e-04 -1.21700e-02 -2.69310e-02 2.20110e-04 -4.01970e-03 6.21980e-04 3.17730e-04 -1.07660e-02 -2.38610e-02 1.99160e-04 -3.48340e-03 5.86780e-04 2.97480e-04 -9.44370e-03 -2.09720e-02 1.79650e-04 -2.98270e-03 5.51160e-04 2.77230e-04 -8.20290e-03 -1.82650e-02 1.61650e-04 -2.51780e-03 5.15010e-04 2.56940e-04 -7.04450e-03 -1.57390e-02 1.45210e-04 -2.08950e-03 4.78180e-04 2.36530e-04 -5.96890e-03 -1.33930e-02 1.30430e-04 -1.69790e-03 4.40460e-04 2.15880e-04 -4.97660e-03 -1.21520e-02 7.93640e-05 -1.58010e-03 4.26180e-04 2.07250e-04 -4.49000e-03 -9.24420e-03 1.06220e-04 -1.02690e-03 3.61080e-04 1.73270e-04 -3.24400e-03 -7.44180e-03 9.69690e-05 -7.48470e-04 3.18660e-04 1.50940e-04 -2.50490e-03 -5.82170e-03 8.96990e-05 -5.08820e-04 2.73900e-04 1.27720e-04 -1.85180e-03 -4.38590e-03 8.40380e-05 -3.09260e-04 2.26650e-04 1.03610e-04 -1.28640e-03 -2.58740e-03 1.00930e-04 -8.00560e-05 1.49760e-04 6.56860e-05 -6.32120e-04 -2.08380e-03 7.37330e-05 -3.75760e-05 1.27490e-04 5.47690e-05 -4.30500e-04 -1.23200e-03 6.36650e-05 2.89290e-05 8.05390e-05 3.27460e-05 -1.50090e-04 -5.94750e-04 3.94890e-05 4.21590e-05 4.21790e-05 1.51310e-05 2.14320e-05 -1.82810e-04 -4.48090e-06 8.85100e-06 1.68500e-05 2.78860e-06 7.69790e-05 1.14550e-06 -5.50330e-05 -1.02130e-05 4.57090e-06 -4.00030e-06 3.65710e-05 2.93750e-05 -9.08880e-05 1.40520e-05 1.43230e-06 -5.84320e-06 -4.47080e-06 -1.06130e+00 -5.59190e-01 -4.51820e-01 -7.56000e-02 -1.16830e-02 2.42020e-01 -1.02850e+00 -2.87960e-01 -1.24600e-01 -6.12130e-02 -4.61510e-03 7.09840e-02 -9.19420e-01 -5.40300e-02 1.43520e-02 -4.08570e-02 6.15960e-04 -4.67050e-02 -9.61890e-01 -4.93470e-02 -4.39540e-03 -2.02840e-02 3.69890e-04 -3.42390e-02 -9.51590e-01 -1.27780e-02 3.75780e-03 -6.58270e-03 1.12830e-04 -4.72820e-02 -9.34630e-01 6.95110e-03 1.16500e-02 2.62260e-03 -5.58940e-05 -4.79320e-02 -9.21780e-01 2.69930e-03 -2.24210e-03 3.96030e-03 1.93910e-04 -6.12970e-02 -9.02050e-01 4.32740e-03 -4.88910e-03 5.20560e-03 4.49780e-04 -6.77790e-02 -8.77840e-01 8.50640e-03 -5.92870e-03 5.37990e-03 7.53890e-04 -7.74760e-02 -8.56500e-01 8.63930e-03 -7.74720e-03 5.01790e-03 9.32700e-04 -8.40570e-02 -8.33930e-01 9.83560e-03 -9.26890e-03 4.46030e-03 1.07090e-03 -9.18710e-02 -8.13360e-01 9.36120e-03 -1.09520e-02 3.88210e-03 1.13630e-03 -9.77270e-02 -7.92460e-01 9.51510e-03 -1.26480e-02 3.36010e-03 1.17310e-03 -1.04020e-01 -7.72860e-01 8.94160e-03 -1.43310e-02 2.93180e-03 1.18010e-03 -1.09010e-01 -7.53190e-01 8.78240e-03 -1.60750e-02 2.59640e-03 1.17590e-03 -1.14060e-01 -7.41230e-01 7.70070e-03 -1.96670e-02 2.44830e-03 1.16150e-03 -1.21840e-01 -7.15550e-01 8.06140e-03 -1.94760e-02 2.16890e-03 1.14800e-03 -1.22160e-01 -6.97300e-01 7.66850e-03 -2.11160e-02 2.04540e-03 1.13230e-03 -1.25430e-01 -6.79120e-01 7.44640e-03 -2.27640e-02 1.96210e-03 1.11720e-03 -1.28470e-01 -6.55090e-01 6.78360e-03 -2.23800e-02 1.53730e-03 2.74220e-03 -1.26990e-01 -6.41700e-01 6.72270e-03 -2.52850e-02 1.75070e-03 1.63110e-03 -1.31800e-01 -6.26420e-01 6.66770e-03 -2.73090e-02 1.85100e-03 1.07900e-03 -1.34870e-01 -6.09270e-01 6.47210e-03 -2.87070e-02 1.83640e-03 1.06790e-03 -1.36310e-01 -5.92430e-01 6.24640e-03 -3.00090e-02 1.82620e-03 1.05740e-03 -1.37360e-01 -5.75780e-01 6.05920e-03 -3.12460e-02 1.81780e-03 1.04710e-03 -1.38120e-01 -5.54240e-01 6.62670e-03 -3.03540e-02 2.12650e-03 -3.29400e-04 -1.34700e-01 -5.41600e-01 5.90980e-03 -3.27740e-02 1.90790e-03 5.76440e-04 -1.37420e-01 -5.27430e-01 5.48370e-03 -3.44080e-02 1.79290e-03 1.01660e-03 -1.38570e-01 -5.11810e-01 5.30910e-03 -3.52830e-02 1.78290e-03 1.00620e-03 -1.38190e-01 -4.96470e-01 5.13010e-03 -3.60590e-02 1.77190e-03 9.95770e-04 -1.37550e-01 -4.81390e-01 4.96180e-03 -3.67450e-02 1.75980e-03 9.85110e-04 -1.36700e-01 -4.66580e-01 4.79220e-03 -3.73330e-02 1.74680e-03 9.74350e-04 -1.35620e-01 -4.52030e-01 4.63060e-03 -3.78300e-02 1.73280e-03 9.63400e-04 -1.34350e-01 -4.39230e-01 4.54350e-03 -3.89870e-02 1.81640e-03 5.99730e-04 -1.34170e-01 -4.28060e-01 4.54180e-03 -4.08110e-02 1.99630e-03 -1.03750e-04 -1.35050e-01 -4.10020e-01 4.16230e-03 -3.87630e-02 1.68670e-03 9.29820e-04 -1.29470e-01 -3.96550e-01 4.01480e-03 -3.88950e-02 1.67010e-03 9.18370e-04 -1.27530e-01 -3.83350e-01 3.86990e-03 -3.89410e-02 1.65290e-03 9.06800e-04 -1.25450e-01 -3.70420e-01 3.72950e-03 -3.89050e-02 1.63520e-03 8.95100e-04 -1.23250e-01 -3.57750e-01 3.59200e-03 -3.87870e-02 1.61710e-03 8.83290e-04 -1.20930e-01 -3.45350e-01 3.45870e-03 -3.85920e-02 1.59850e-03 8.71340e-04 -1.18510e-01 -3.36910e-01 3.16320e-03 -4.05540e-02 1.59490e-03 8.62690e-04 -1.19380e-01 -3.21330e-01 3.20190e-03 -3.79820e-02 1.56010e-03 8.47080e-04 -1.13400e-01 -3.09700e-01 3.07850e-03 -3.75730e-02 1.54030e-03 8.34760e-04 -1.10730e-01 -2.98330e-01 2.95860e-03 -3.71010e-02 1.52010e-03 8.22300e-04 -1.07990e-01 -2.87210e-01 2.84180e-03 -3.65670e-02 1.49950e-03 8.09710e-04 -1.05200e-01 -2.76340e-01 2.72830e-03 -3.59770e-02 1.47850e-03 7.96980e-04 -1.02350e-01 -2.65720e-01 2.61780e-03 -3.53340e-02 1.45720e-03 7.84120e-04 -9.94660e-02 -2.55340e-01 2.51050e-03 -3.46400e-02 1.43550e-03 7.71120e-04 -9.65460e-02 -2.45200e-01 2.40620e-03 -3.39020e-02 1.41350e-03 7.58000e-04 -9.36000e-02 -2.32210e-01 2.45100e-03 -3.11110e-02 1.37500e-03 7.39180e-04 -8.77870e-02 -2.25630e-01 2.20630e-03 -3.23010e-02 1.36850e-03 7.31340e-04 -8.76530e-02 -2.16200e-01 2.11070e-03 -3.14470e-02 1.34550e-03 7.17810e-04 -8.46650e-02 -2.07000e-01 2.01780e-03 -3.05620e-02 1.32220e-03 7.04160e-04 -8.16750e-02 -1.98020e-01 1.92770e-03 -2.96490e-02 1.29860e-03 6.90380e-04 -7.86900e-02 -1.89270e-01 1.84020e-03 -2.87120e-02 1.27470e-03 6.76490e-04 -7.57130e-02 -1.80740e-01 1.75540e-03 -2.77550e-02 1.25060e-03 6.62470e-04 -7.27500e-02 -1.75130e-01 1.54340e-03 -2.85070e-02 1.24260e-03 6.55110e-04 -7.21930e-02 -1.64340e-01 1.59340e-03 -2.57920e-02 1.20140e-03 6.34100e-04 -6.68870e-02 -1.56460e-01 1.51610e-03 -2.47930e-02 1.17640e-03 6.19750e-04 -6.39940e-02 -1.48790e-01 1.44130e-03 -2.37860e-02 1.15120e-03 6.05300e-04 -6.11340e-02 -1.41330e-01 1.36890e-03 -2.27740e-02 1.12570e-03 5.90750e-04 -5.83090e-02 -1.34080e-01 1.29890e-03 -2.17610e-02 1.10000e-03 5.76110e-04 -5.55230e-02 -1.24710e-01 1.24260e-03 -1.93020e-02 9.96990e-04 8.54950e-04 -5.07750e-02 -1.19430e-01 1.16890e-03 -1.92750e-02 1.02350e-03 6.42860e-04 -4.94370e-02 -1.13550e-01 1.10250e-03 -1.87390e-02 1.02140e-03 5.31690e-04 -4.74360e-02 -1.07100e-01 1.04140e-03 -1.77450e-02 9.94770e-04 5.16740e-04 -4.48410e-02 -1.00860e-01 9.82530e-04 -1.67630e-02 9.67930e-04 5.01710e-04 -4.23000e-02 -9.48090e-02 9.25770e-04 -1.57940e-02 9.40880e-04 4.86630e-04 -3.98170e-02 -8.89540e-02 8.71100e-04 -1.48410e-02 9.13640e-04 4.71490e-04 -3.73940e-02 -8.32920e-02 8.18480e-04 -1.39060e-02 8.86210e-04 4.56300e-04 -3.50320e-02 -7.78210e-02 7.67880e-04 -1.29890e-02 8.58590e-04 4.41070e-04 -3.27350e-02 -7.25410e-02 7.19280e-04 -1.20940e-02 8.30780e-04 4.25800e-04 -3.05030e-02 -6.74500e-02 6.72640e-04 -1.12220e-02 8.02810e-04 4.10500e-04 -2.83400e-02 -6.25470e-02 6.27930e-04 -1.03740e-02 7.74660e-04 3.95170e-04 -2.62470e-02 -5.96080e-02 5.05520e-04 -1.03910e-02 7.63460e-04 3.88170e-04 -2.54360e-02 -5.33010e-02 5.44230e-04 -8.75780e-03 7.17870e-04 3.64450e-04 -2.22750e-02 -4.89570e-02 5.05180e-04 -7.99180e-03 6.89250e-04 3.49070e-04 -2.04000e-02 -4.47960e-02 4.67980e-04 -7.25560e-03 6.60470e-04 3.33690e-04 -1.86000e-02 -4.08200e-02 4.32600e-04 -6.55010e-03 6.31540e-04 3.18300e-04 -1.68770e-02 -3.55320e-02 4.63390e-04 -5.27280e-03 5.85200e-04 2.94420e-04 -1.43200e-02 -3.34170e-02 3.67280e-04 -5.23530e-03 5.73210e-04 2.87520e-04 -1.36650e-02 -2.99900e-02 3.37340e-04 -4.62770e-03 5.43800e-04 2.72120e-04 -1.21780e-02 -2.67440e-02 3.09220e-04 -4.05430e-03 5.14190e-04 2.56710e-04 -1.07720e-02 -2.36800e-02 2.82970e-04 -3.51560e-03 4.84330e-04 2.41250e-04 -9.44600e-03 -2.07970e-02 2.58610e-04 -3.01250e-03 4.54180e-04 2.25730e-04 -8.20230e-03 -1.80960e-02 2.36250e-04 -2.54520e-03 4.23620e-04 2.10080e-04 -7.04100e-03 -1.55760e-02 2.15950e-04 -2.11440e-03 3.92510e-04 1.94230e-04 -5.96280e-03 -1.32370e-02 1.97870e-04 -1.72040e-03 3.60670e-04 1.78080e-04 -4.96820e-03 -1.20000e-02 1.45200e-04 -1.60240e-03 3.46650e-04 1.70670e-04 -4.48150e-03 -9.10580e-03 1.68840e-04 -1.04510e-03 2.93770e-04 1.44360e-04 -3.23260e-03 -7.31430e-03 1.58030e-04 -7.64850e-04 2.58150e-04 1.26530e-04 -2.49320e-03 -5.70750e-03 1.49600e-04 -5.23760e-04 2.20820e-04 1.07960e-04 -1.84100e-03 -4.28790e-03 1.42820e-04 -3.23070e-04 1.81930e-04 8.87780e-05 -1.27770e-03 -2.51880e-03 1.56400e-04 -9.16390e-05 1.21790e-04 5.97210e-05 -6.26710e-04 -2.02450e-03 1.26860e-04 -4.96550e-05 1.03270e-04 5.08700e-05 -4.28480e-04 -1.19200e-03 1.09250e-04 1.75520e-05 6.79420e-05 3.43890e-05 -1.51200e-04 -5.69970e-04 7.32150e-05 3.14460e-05 3.91690e-05 2.11670e-05 1.80230e-05 -1.69450e-04 1.61350e-05 1.48030e-08 1.81790e-05 1.19500e-05 7.24400e-05 5.48950e-06 -4.62240e-05 -1.71050e-05 4.69770e-06 7.43950e-06 3.42330e-05 3.08650e-05 -8.76940e-05 6.96880e-06 -8.12790e-07 6.87200e-06 -4.10960e-06 -1.07340e+00 -5.69010e-01 -4.49500e-01 -3.64740e-02 -6.03760e-03 2.53340e-01 -1.03730e+00 -3.06890e-01 -1.27050e-01 -3.01900e-02 -2.74300e-03 7.69860e-02 -9.19810e-01 -7.00500e-02 1.28950e-02 -2.11970e-02 -1.19740e-04 -4.55310e-02 -9.60680e-01 -6.18930e-02 -3.53490e-03 -1.17610e-02 -2.95730e-04 -3.38250e-02 -9.55740e-01 -2.16430e-02 3.02470e-03 -4.85160e-03 -1.76120e-04 -4.76830e-02 -9.42880e-01 -2.44600e-03 6.08900e-03 1.24450e-03 1.69420e-03 -4.75250e-02 -9.26960e-01 -1.27710e-03 -5.00840e-03 2.10180e-03 6.94830e-04 -6.00550e-02 -9.08230e-01 3.61410e-03 -4.52390e-03 2.62440e-03 1.40630e-04 -6.80830e-02 -8.83490e-01 8.47520e-03 -6.13650e-03 2.87680e-03 2.98650e-04 -7.77880e-02 -8.60810e-01 9.50260e-03 -7.62970e-03 2.76940e-03 4.24850e-04 -8.44230e-02 -8.37470e-01 1.08920e-02 -9.40250e-03 2.51850e-03 5.08480e-04 -9.22120e-02 -8.15940e-01 1.07130e-02 -1.09520e-02 2.22230e-03 5.59820e-04 -9.80670e-02 -7.94470e-01 1.08660e-02 -1.27550e-02 1.94770e-03 5.88610e-04 -1.04330e-01 -7.74320e-01 1.03470e-02 -1.43830e-02 1.71090e-03 5.99810e-04 -1.09290e-01 -7.54300e-01 1.01280e-02 -1.61710e-02 1.52390e-03 6.03330e-04 -1.14310e-01 -7.42140e-01 9.09430e-03 -1.96840e-02 1.42190e-03 5.94990e-04 -1.22100e-01 -7.16180e-01 9.31390e-03 -1.95670e-02 1.27640e-03 5.94810e-04 -1.22370e-01 -6.97780e-01 8.87380e-03 -2.11970e-02 1.20220e-03 5.87680e-04 -1.25630e-01 -6.79510e-01 8.59360e-03 -2.28530e-02 1.15130e-03 5.81610e-04 -1.28660e-01 -6.61670e-01 8.23420e-03 -2.44090e-02 1.11690e-03 5.74930e-04 -1.31130e-01 -6.38000e-01 7.71970e-03 -2.42420e-02 9.60010e-04 2.24990e-03 -1.29340e-01 -6.24670e-01 7.65790e-03 -2.67430e-02 1.03300e-03 1.11770e-03 -1.33730e-01 -6.09470e-01 7.43900e-03 -2.87930e-02 1.06810e-03 5.58910e-04 -1.36480e-01 -5.92600e-01 7.17510e-03 -3.00950e-02 1.06020e-03 5.53900e-04 -1.37530e-01 -5.75930e-01 6.95090e-03 -3.13330e-02 1.05350e-03 5.49280e-04 -1.38290e-01 -5.54270e-01 6.91710e-03 -3.04110e-02 1.04120e-03 5.45830e-04 -1.34780e-01 -5.43400e-01 6.49690e-03 -3.35320e-02 1.04120e-03 5.39820e-04 -1.38860e-01 -5.27520e-01 6.27430e-03 -3.44930e-02 1.03460e-03 5.34960e-04 -1.38720e-01 -5.11890e-01 6.06830e-03 -3.53680e-02 1.02760e-03 5.30120e-04 -1.38340e-01 -4.96530e-01 5.85900e-03 -3.61440e-02 1.02000e-03 5.25090e-04 -1.37700e-01 -4.81430e-01 5.66140e-03 -3.68300e-02 1.01180e-03 5.20020e-04 -1.36840e-01 -4.66610e-01 5.46340e-03 -3.74170e-02 1.00320e-03 5.14790e-04 -1.35760e-01 -4.52050e-01 5.27430e-03 -3.79130e-02 9.94080e-04 5.09500e-04 -1.34490e-01 -4.37760e-01 5.08690e-03 -3.83140e-02 9.84570e-04 5.04080e-04 -1.33020e-01 -4.25180e-01 4.91230e-03 -3.93780e-02 1.01050e-03 1.33190e-04 -1.32640e-01 -4.14230e-01 4.73950e-03 -4.11140e-02 1.07100e-03 -5.90050e-04 -1.33300e-01 -3.96520e-01 4.55740e-03 -3.89760e-02 9.53970e-04 4.87320e-04 -1.27650e-01 -3.83310e-01 4.38930e-03 -3.90210e-02 9.43200e-04 4.81550e-04 -1.25560e-01 -3.70370e-01 4.22660e-03 -3.89830e-02 9.32170e-04 4.75710e-04 -1.23360e-01 -3.57690e-01 4.06760e-03 -3.88640e-02 9.20920e-04 4.69780e-04 -1.21040e-01 -3.45280e-01 3.91350e-03 -3.86680e-02 9.09440e-04 4.63770e-04 -1.18610e-01 -3.34360e-01 3.75480e-03 -3.91450e-02 9.22900e-04 1.69990e-04 -1.17230e-01 -3.24860e-01 3.59330e-03 -4.02820e-02 9.58860e-04 -4.00860e-04 -1.16860e-01 -3.09610e-01 3.47550e-03 -3.76460e-02 8.73810e-04 4.45220e-04 -1.10820e-01 -2.98230e-01 3.33780e-03 -3.71730e-02 8.61560e-04 4.38870e-04 -1.08080e-01 -2.87100e-01 3.20390e-03 -3.66380e-02 8.49130e-04 4.32440e-04 -1.05280e-01 -2.76230e-01 3.07390e-03 -3.60470e-02 8.36520e-04 4.25920e-04 -1.02430e-01 -2.65600e-01 2.94770e-03 -3.54020e-02 8.23740e-04 4.19310e-04 -9.95420e-02 -2.55220e-01 2.82520e-03 -3.47080e-02 8.10800e-04 4.12630e-04 -9.66190e-02 -2.41910e-01 2.94050e-03 -3.19330e-02 8.15510e-04 -2.38500e-04 -9.07770e-02 -2.34140e-01 2.66800e-03 -3.25180e-02 7.89270e-04 1.86910e-04 -8.97570e-02 -2.25500e-01 2.47900e-03 -3.23650e-02 7.71050e-04 3.92060e-04 -8.77160e-02 -2.16070e-01 2.37050e-03 -3.15090e-02 7.57500e-04 3.85050e-04 -8.47250e-02 -2.06860e-01 2.26540e-03 -3.06230e-02 7.43810e-04 3.77960e-04 -8.17320e-02 -1.97890e-01 2.16340e-03 -2.97090e-02 7.29970e-04 3.70790e-04 -7.87440e-02 -1.89130e-01 2.06470e-03 -2.87710e-02 7.16010e-04 3.63540e-04 -7.57640e-02 -1.80600e-01 1.96910e-03 -2.78120e-02 7.01920e-04 3.56230e-04 -7.27990e-02 -1.73180e-01 1.85540e-03 -2.74140e-02 6.87490e-04 1.97450e-04 -7.06540e-02 -1.66810e-01 1.72520e-03 -2.75350e-02 6.69230e-04 -1.06450e-04 -6.92660e-02 -1.56320e-01 1.70020e-03 -2.48460e-02 6.58890e-04 3.33860e-04 -6.40360e-02 -1.48650e-01 1.61640e-03 -2.38380e-02 6.44320e-04 3.26280e-04 -6.11730e-02 -1.41190e-01 1.53540e-03 -2.28250e-02 6.29630e-04 3.18640e-04 -5.83460e-02 -1.33940e-01 1.45720e-03 -2.18110e-02 6.14830e-04 3.10940e-04 -5.55580e-02 -1.26890e-01 1.38160e-03 -2.07970e-02 5.99930e-04 3.03180e-04 -5.28130e-02 -1.17710e-01 1.41710e-03 -1.83960e-02 5.75880e-04 2.91430e-04 -4.81930e-02 -1.13410e-01 1.23840e-03 -1.87840e-02 5.69820e-04 2.87520e-04 -4.74650e-02 -1.06970e-01 1.17060e-03 -1.77900e-02 5.54630e-04 2.79610e-04 -4.48680e-02 -1.00720e-01 1.10530e-03 -1.68060e-02 5.39340e-04 2.71670e-04 -4.23260e-02 -9.46770e-02 1.04250e-03 -1.58360e-02 5.23960e-04 2.63680e-04 -3.98410e-02 -8.88240e-02 9.82000e-04 -1.48820e-02 5.08490e-04 2.55660e-04 -3.74150e-02 -8.31640e-02 9.23890e-04 -1.39450e-02 4.92940e-04 2.47600e-04 -3.50520e-02 -7.56840e-02 9.89830e-04 -1.19930e-02 4.19320e-04 1.98140e-05 -3.12950e-02 -7.23910e-02 8.46010e-04 -1.21340e-02 4.10580e-04 2.46360e-05 -3.05270e-02 -6.73030e-02 7.93350e-04 -1.12600e-02 3.93580e-04 2.99820e-05 -2.83610e-02 -6.24030e-02 7.42960e-04 -1.04110e-02 3.76720e-04 3.48670e-05 -2.62660e-02 -5.94640e-02 6.17290e-04 -1.04270e-02 3.68130e-04 3.89690e-05 -2.54550e-02 -5.31870e-02 6.22330e-04 -8.78850e-03 3.98010e-04 1.98700e-04 -2.22860e-02 -4.88450e-02 5.79590e-04 -8.02100e-03 3.81940e-04 1.90480e-04 -2.04100e-02 -4.46880e-02 5.38900e-04 -7.28320e-03 3.65810e-04 1.82250e-04 -1.86090e-02 -4.07140e-02 5.00260e-04 -6.57620e-03 3.49610e-04 1.74010e-04 -1.68840e-02 -3.54310e-02 5.26790e-04 -5.29620e-03 3.24130e-04 1.61330e-04 -1.43240e-02 -3.33170e-02 4.29050e-04 -5.25830e-03 3.16990e-04 1.57500e-04 -1.36690e-02 -2.98920e-02 3.96480e-04 -4.64910e-03 3.00570e-04 1.49230e-04 -1.21810e-02 -2.66490e-02 3.65940e-04 -4.07410e-03 2.84050e-04 1.40930e-04 -1.07730e-02 -2.35880e-02 3.37490e-04 -3.53390e-03 2.67400e-04 1.32600e-04 -9.44610e-03 -2.07080e-02 3.11170e-04 -3.02910e-03 2.50590e-04 1.24210e-04 -8.20110e-03 -1.80100e-02 2.87080e-04 -2.56030e-03 2.33560e-04 1.15740e-04 -7.03860e-03 -1.54930e-02 2.65320e-04 -2.12800e-03 2.16220e-04 1.07130e-04 -5.95940e-03 -1.31590e-02 2.46070e-04 -1.73260e-03 1.98470e-04 9.83340e-05 -4.96400e-03 -1.19220e-02 1.92890e-04 -1.61450e-03 1.90230e-04 9.41340e-05 -4.47760e-03 -9.02210e-03 2.33080e-04 -1.05430e-03 1.23260e-04 5.22700e-05 -3.22830e-03 -8.00870e-03 1.91030e-04 -9.43650e-04 1.15260e-04 5.14520e-05 -2.81440e-03 -5.65350e-03 1.95600e-04 -5.32020e-04 1.20770e-04 5.99880e-05 -1.83810e-03 -3.61940e-03 2.28060e-04 -2.25860e-04 6.71190e-05 3.82810e-05 -1.05050e-03 -3.01710e-03 1.95970e-04 -1.71540e-04 5.91430e-05 3.63070e-05 -8.07980e-04 -1.99500e-03 1.82100e-04 -5.68960e-05 4.43100e-05 3.16680e-05 -4.32870e-04 -1.52870e-03 1.56540e-04 7.17450e-07 3.69030e-05 2.95120e-05 -2.38280e-04 -5.59920e-04 1.02410e-04 2.55570e-05 2.30310e-05 1.38520e-05 1.38880e-05 -1.65090e-04 3.93900e-05 -4.97050e-06 1.11090e-05 9.16960e-06 6.90070e-05 6.18700e-06 -2.63610e-05 -2.10520e-05 2.67050e-06 6.91420e-06 3.31570e-05 3.04750e-05 -6.80210e-05 2.85660e-06 -1.14620e-06 6.59260e-06 -3.37670e-06 -1.08640e+00 -5.85850e-01 -4.62890e-01 4.83260e-09 5.52290e-10 2.57000e-01 -1.04250e+00 -3.12270e-01 -1.27330e-01 3.05210e-09 -1.58160e-10 7.87340e-02 -9.18510e-01 -7.45860e-02 1.37100e-02 8.05420e-10 -4.84720e-10 -4.49410e-02 -9.61230e-01 -6.69260e-02 -4.39660e-03 2.74160e-10 -2.32400e-10 -3.36830e-02 -9.55540e-01 -2.41760e-02 4.02860e-03 3.56870e-10 -4.03510e-11 -4.77360e-02 -9.52800e-01 -1.65540e-02 -2.47410e-03 7.61160e-10 8.90210e-11 -4.98270e-02 -9.23900e-01 -5.73510e-03 -9.66550e-03 3.78450e-04 1.84460e-03 -5.68070e-02 -9.06790e-01 5.58540e-03 -2.43980e-03 3.14640e-04 6.98040e-04 -6.73120e-02 -8.85060e-01 8.60900e-03 -5.84930e-03 2.14170e-09 3.76680e-10 -7.79350e-02 -8.62460e-01 9.53310e-03 -7.78660e-03 2.60350e-09 4.59240e-10 -8.44990e-02 -8.38550e-01 1.13110e-02 -9.28140e-03 3.05460e-09 5.52850e-10 -9.23550e-02 -8.16950e-01 1.10420e-02 -1.10280e-02 3.49410e-09 6.39680e-10 -9.81570e-02 -7.95130e-01 1.13450e-02 -1.27120e-02 3.91450e-09 7.34800e-10 -1.04450e-01 -7.74890e-01 1.07580e-02 -1.44230e-02 4.30910e-09 8.23930e-10 -1.09380e-01 -7.57020e-01 1.07460e-02 -1.64300e-02 4.03120e-05 6.59880e-04 -1.15680e-01 -7.42530e-01 9.40470e-03 -1.98060e-02 1.17520e-04 1.97210e-03 -1.22150e-01 -7.16410e-01 9.73070e-03 -1.95730e-02 5.28280e-09 1.09130e-09 -1.22450e-01 -6.97980e-01 9.25710e-03 -2.12170e-02 5.52660e-09 1.17150e-09 -1.25700e-01 -6.79660e-01 8.97020e-03 -2.28650e-02 5.72830e-09 1.24900e-09 -1.28730e-01 -6.61800e-01 8.58680e-03 -2.44270e-02 5.88980e-09 1.31900e-09 -1.31190e-01 -6.44090e-01 8.31990e-03 -2.59650e-02 6.01330e-09 1.38460e-09 -1.33380e-01 -6.20920e-01 8.26130e-03 -2.54750e-02 -5.55820e-05 1.65150e-03 -1.31200e-01 -6.09550e-01 7.75170e-03 -2.88100e-02 -6.21470e-05 1.61850e-03 -1.36540e-01 -5.92680e-01 7.47320e-03 -3.01130e-02 -6.30420e-05 1.57340e-03 -1.37590e-01 -5.76000e-01 7.23790e-03 -3.13510e-02 -6.43930e-05 1.52840e-03 -1.38350e-01 -5.54330e-01 7.19040e-03 -3.04280e-02 5.94570e-09 1.50500e-09 -1.34830e-01 -5.43450e-01 6.76090e-03 -3.35510e-02 6.17780e-09 1.65290e-09 -1.38920e-01 -5.27570e-01 6.52710e-03 -3.45130e-02 6.13930e-09 1.67980e-09 -1.38780e-01 -5.11930e-01 6.31110e-03 -3.53880e-02 6.08680e-09 1.70270e-09 -1.38390e-01 -4.96570e-01 6.09160e-03 -3.61640e-02 6.02180e-09 1.72160e-09 -1.37750e-01 -4.81470e-01 5.88450e-03 -3.68500e-02 5.94510e-09 1.73690e-09 -1.36890e-01 -4.66640e-01 5.67710e-03 -3.74380e-02 5.85800e-09 1.74860e-09 -1.35810e-01 -4.52070e-01 5.47910e-03 -3.79340e-02 5.76180e-09 1.75720e-09 -1.34540e-01 -4.37780e-01 5.28280e-03 -3.83350e-02 5.65730e-09 1.76220e-09 -1.33070e-01 -4.23760e-01 5.09410e-03 -3.86450e-02 5.54540e-09 1.76360e-09 -1.31430e-01 -4.14220e-01 4.74340e-03 -4.11220e-02 5.67410e-09 1.89420e-09 -1.33310e-01 -3.96520e-01 4.72910e-03 -3.89960e-02 5.30160e-09 1.75310e-09 -1.27690e-01 -3.83310e-01 4.55340e-03 -3.90420e-02 5.16930e-09 1.74040e-09 -1.25610e-01 -3.70370e-01 4.38350e-03 -3.90040e-02 5.02960e-09 1.72210e-09 -1.23400e-01 -3.57690e-01 4.21750e-03 -3.88850e-02 4.88280e-09 1.69830e-09 -1.21080e-01 -3.45270e-01 4.05660e-03 -3.86890e-02 4.72990e-09 1.66940e-09 -1.18650e-01 -3.33120e-01 3.89990e-03 -3.84180e-02 4.57280e-09 1.63610e-09 -1.16130e-01 -3.24850e-01 3.59540e-03 -4.02920e-02 4.64700e-09 1.73780e-09 -1.16860e-01 -3.09590e-01 3.60010e-03 -3.76670e-02 1.05250e-05 -8.31420e-04 -1.10850e-01 -2.98210e-01 3.45660e-03 -3.71930e-02 6.36170e-06 -8.02190e-04 -1.08110e-01 -2.87080e-01 3.31720e-03 -3.66580e-02 2.17680e-06 -7.73630e-04 -1.05310e-01 -2.76210e-01 3.18210e-03 -3.60660e-02 -1.99270e-06 -7.45720e-04 -1.02460e-01 -2.65580e-01 3.05080e-03 -3.54220e-02 -6.14820e-06 -7.18450e-04 -9.95710e-02 -2.55190e-01 2.92350e-03 -3.47270e-02 -1.02610e-05 -6.91810e-04 -9.66470e-02 -2.41900e-01 2.94120e-03 -3.19440e-02 3.33090e-09 1.21800e-09 -9.07830e-02 -2.35140e-01 2.68020e-03 -3.32040e-02 3.40570e-09 1.30090e-09 -9.07250e-02 -2.25470e-01 2.56400e-03 -3.23830e-02 3.32450e-09 1.27060e-09 -8.77400e-02 -2.16040e-01 2.45150e-03 -3.15280e-02 3.25000e-09 1.24280e-09 -8.47480e-02 -2.06830e-01 2.34250e-03 -3.06410e-02 3.18010e-09 1.21700e-09 -8.17540e-02 -1.97850e-01 2.23690e-03 -2.97270e-02 3.11210e-09 1.19270e-09 -7.87650e-02 -1.89100e-01 2.13460e-03 -2.87880e-02 3.04310e-09 1.16850e-09 -7.57840e-02 -1.80570e-01 2.03560e-03 -2.78290e-02 2.96950e-09 1.14270e-09 -7.28180e-02 -1.72250e-01 1.93980e-03 -2.68530e-02 2.88740e-09 1.11330e-09 -6.98710e-02 -1.65040e-01 1.80650e-03 -2.64240e-02 -1.55560e-05 -1.50170e-04 -6.77220e-02 -1.58870e-01 1.63780e-03 -2.64980e-02 -4.98910e-05 -4.44380e-04 -6.63080e-02 -1.48610e-01 1.67110e-03 -2.38540e-02 2.55660e-09 9.88080e-10 -6.11880e-02 -1.41150e-01 1.58740e-03 -2.28410e-02 2.41080e-09 9.31280e-10 -5.83600e-02 -1.33900e-01 1.50670e-03 -2.18260e-02 2.24650e-09 8.67190e-10 -5.55720e-02 -1.26860e-01 1.42880e-03 -2.08120e-02 2.06520e-09 7.96650e-10 -5.28270e-02 -1.17680e-01 1.46120e-03 -1.84100e-02 1.71220e-09 6.26320e-10 -4.82050e-02 -1.11080e-01 1.38610e-03 -1.74570e-02 -6.34940e-05 -3.19330e-04 -4.56210e-02 -1.06930e-01 1.21130e-03 -1.78040e-02 -6.58410e-05 -3.08550e-04 -4.48790e-02 -1.02880e-01 1.04440e-03 -1.80600e-02 -6.81410e-05 -2.97960e-04 -4.40600e-02 -9.46410e-02 1.07950e-03 -1.58490e-02 1.00890e-09 3.83960e-10 -3.98500e-02 -8.67010e-02 1.11160e-03 -1.37550e-02 -6.91290e-05 -2.54910e-04 -3.58310e-02 -8.31280e-02 9.57540e-04 -1.39570e-02 -7.09850e-05 -2.45400e-04 -3.50610e-02 -7.69990e-02 9.29810e-04 -1.26930e-02 -2.42610e-05 -7.86910e-05 -3.22730e-02 -7.23830e-02 8.45210e-04 -1.21420e-02 2.14890e-10 5.47730e-11 -3.05280e-02 -6.72940e-02 7.92540e-04 -1.12680e-02 5.51850e-11 -1.29810e-11 -2.83620e-02 -6.23940e-02 7.42140e-04 -1.04180e-02 -8.30350e-11 -7.14050e-11 -2.62670e-02 -5.82730e-02 6.68140e-04 -9.87460e-03 -2.38740e-05 -5.72580e-05 -2.46470e-02 -5.48740e-02 5.73390e-04 -9.58980e-03 -7.40350e-05 -1.68700e-04 -2.34440e-02 -4.88130e-02 6.04180e-04 -8.03030e-03 -3.53550e-10 -1.83860e-10 -2.04140e-02 -4.46560e-02 5.62500e-04 -7.29200e-03 -3.94770e-10 -2.00860e-10 -1.86130e-02 -4.06840e-02 5.22930e-04 -6.58460e-03 -4.13290e-10 -2.08820e-10 -1.68880e-02 -3.54020e-02 5.48260e-04 -5.30360e-03 -4.26850e-10 -2.24920e-10 -1.43260e-02 -3.32870e-02 4.50050e-04 -5.26580e-03 -3.91770e-10 -2.01740e-10 -1.36720e-02 -2.98630e-02 4.16740e-04 -4.65610e-03 -3.58690e-10 -1.89050e-10 -1.21830e-02 -2.66210e-02 3.85530e-04 -4.08060e-03 -3.16010e-10 -1.71870e-10 -1.07740e-02 -2.35610e-02 3.56470e-04 -3.53990e-03 -2.68370e-10 -1.51830e-10 -9.44680e-03 -2.06820e-02 3.29610e-04 -3.03460e-03 -2.19450e-10 -1.30170e-10 -8.20140e-03 -1.79850e-02 3.05070e-04 -2.56540e-03 -1.72220e-10 -1.08490e-10 -7.03850e-03 -1.54690e-02 2.82940e-04 -2.13260e-03 -1.30090e-10 -8.87990e-11 -5.95900e-03 -1.31360e-02 2.63400e-04 -1.73680e-03 -9.55750e-11 -7.20300e-11 -4.96330e-03 -1.19000e-02 2.10100e-04 -1.61870e-03 -7.30060e-11 -5.93070e-11 -4.47710e-03 -9.01740e-03 2.32590e-04 -1.05850e-03 -4.88760e-11 -4.81810e-11 -3.22720e-03 -7.49120e-03 2.11090e-04 -8.33990e-04 -1.22400e-05 -7.29580e-06 -2.59690e-03 -4.94530e-03 2.40060e-04 -3.97540e-04 -3.11180e-05 -1.52230e-05 -1.56230e-03 -4.02610e-03 2.12560e-04 -2.98860e-04 -1.05510e-05 -4.74700e-06 -1.20120e-03 -3.01450e-03 1.96200e-04 -1.74370e-04 -1.94310e-11 -2.80270e-11 -8.07390e-04 -1.99300e-03 1.82460e-04 -5.93070e-05 -1.38060e-11 -2.38920e-11 -4.32460e-04 -1.28980e-03 1.57680e-04 5.17760e-06 -2.19820e-06 2.11770e-06 -1.83750e-04 -8.14290e-04 1.28630e-04 4.78470e-05 -6.30650e-06 6.85410e-06 -1.88910e-05 -1.64310e-04 4.91490e-05 -6.68210e-06 -1.74370e-11 -3.02420e-11 6.78120e-05 6.16020e-06 -1.71310e-05 -2.22620e-05 -2.43820e-11 -4.03080e-11 3.28980e-05 3.02640e-05 -5.86240e-05 1.43990e-06 -2.73530e-11 -4.09150e-11 -3.00070e-06 -1.07340e+00 -5.69010e-01 -4.49500e-01 3.64740e-02 6.03760e-03 2.53340e-01 -1.03730e+00 -3.06890e-01 -1.27050e-01 3.01900e-02 2.74300e-03 7.69860e-02 -9.19810e-01 -7.00500e-02 1.28950e-02 2.11970e-02 1.19740e-04 -4.55310e-02 -9.60680e-01 -6.18930e-02 -3.53490e-03 1.17610e-02 2.95730e-04 -3.38250e-02 -9.55740e-01 -2.16430e-02 3.02470e-03 4.85160e-03 1.76120e-04 -4.76830e-02 -9.50660e-01 -1.41160e-02 -1.89220e-03 5.41140e-04 1.86080e-04 -4.98120e-02 -9.29030e-01 -2.00610e-04 -2.63710e-03 -1.65950e-03 4.33590e-05 -6.15180e-02 -8.97990e-01 1.05690e-02 1.60860e-03 -2.45290e-03 1.78120e-03 -6.53800e-02 -8.80540e-01 8.54960e-03 -6.13970e-03 -2.54950e-03 4.09430e-04 -7.66060e-02 -8.60810e-01 9.50260e-03 -7.62970e-03 -2.76940e-03 -4.24850e-04 -8.44230e-02 -8.37470e-01 1.08920e-02 -9.40250e-03 -2.51850e-03 -5.08480e-04 -9.22120e-02 -8.15940e-01 1.07130e-02 -1.09520e-02 -2.22230e-03 -5.59820e-04 -9.80670e-02 -7.94470e-01 1.08660e-02 -1.27550e-02 -1.94770e-03 -5.88610e-04 -1.04330e-01 -7.76960e-01 1.02800e-02 -1.50110e-02 -1.69880e-03 7.42680e-05 -1.10500e-01 -7.61550e-01 1.09920e-02 -1.70320e-02 -1.50740e-03 1.40670e-03 -1.18150e-01 -7.35170e-01 9.60540e-03 -1.78270e-02 -1.38060e-03 -5.99550e-04 -1.18410e-01 -7.16180e-01 9.31390e-03 -1.95670e-02 -1.27630e-03 -5.94810e-04 -1.22370e-01 -6.97780e-01 8.87380e-03 -2.11970e-02 -1.20220e-03 -5.87670e-04 -1.25630e-01 -6.79510e-01 8.59360e-03 -2.28530e-02 -1.15130e-03 -5.81600e-04 -1.28660e-01 -6.61670e-01 8.23420e-03 -2.44090e-02 -1.11690e-03 -5.74930e-04 -1.31130e-01 -6.43980e-01 7.97780e-03 -2.59500e-02 -1.09400e-03 -5.69430e-04 -1.33320e-01 -6.20840e-01 7.93140e-03 -2.54660e-02 -1.07040e-03 -5.65700e-04 -1.31140e-01 -6.09470e-01 7.43900e-03 -2.87930e-02 -1.06810e-03 -5.58900e-04 -1.36480e-01 -5.92600e-01 7.17510e-03 -3.00950e-02 -1.06020e-03 -5.53890e-04 -1.37530e-01 -5.75930e-01 6.95090e-03 -3.13330e-02 -1.05350e-03 -5.49270e-04 -1.38290e-01 -5.54330e-01 7.18290e-03 -3.04240e-02 -1.16850e-03 9.05890e-04 -1.34820e-01 -5.41700e-01 6.63400e-03 -3.28550e-02 -1.08200e-03 -6.16620e-05 -1.37560e-01 -5.27520e-01 6.27430e-03 -3.44930e-02 -1.03460e-03 -5.34960e-04 -1.38720e-01 -5.11890e-01 6.06830e-03 -3.53680e-02 -1.02750e-03 -5.30110e-04 -1.38340e-01 -4.96530e-01 5.85900e-03 -3.61440e-02 -1.02000e-03 -5.25080e-04 -1.37700e-01 -4.81430e-01 5.66140e-03 -3.68300e-02 -1.01180e-03 -5.20010e-04 -1.36840e-01 -4.66610e-01 5.46340e-03 -3.74170e-02 -1.00320e-03 -5.14790e-04 -1.35760e-01 -4.52050e-01 5.27430e-03 -3.79130e-02 -9.94070e-04 -5.09500e-04 -1.34490e-01 -4.37760e-01 5.08690e-03 -3.83140e-02 -9.84560e-04 -5.04080e-04 -1.33020e-01 -4.23740e-01 4.90650e-03 -3.86250e-02 -9.74680e-04 -4.98590e-04 -1.31390e-01 -4.14210e-01 4.56110e-03 -4.11020e-02 -9.72480e-04 -4.93670e-04 -1.33270e-01 -3.96520e-01 4.55740e-03 -3.89760e-02 -9.53960e-04 -4.87320e-04 -1.27650e-01 -3.83310e-01 4.38930e-03 -3.90210e-02 -9.43190e-04 -4.81550e-04 -1.25560e-01 -3.70370e-01 4.22660e-03 -3.89830e-02 -9.32160e-04 -4.75710e-04 -1.23360e-01 -3.57690e-01 4.06760e-03 -3.88640e-02 -9.20910e-04 -4.69780e-04 -1.21040e-01 -3.45280e-01 3.91350e-03 -3.86680e-02 -9.09430e-04 -4.63760e-04 -1.18610e-01 -3.33130e-01 3.76320e-03 -3.83980e-02 -8.97760e-04 -4.57670e-04 -1.16100e-01 -3.24860e-01 3.46250e-03 -4.02720e-02 -8.94400e-04 -4.53290e-04 -1.16830e-01 -3.09610e-01 3.47550e-03 -3.76460e-02 -8.73810e-04 -4.45220e-04 -1.10820e-01 -2.98230e-01 3.33780e-03 -3.71730e-02 -8.61550e-04 -4.38870e-04 -1.08080e-01 -2.87100e-01 3.20390e-03 -3.66380e-02 -8.49120e-04 -4.32430e-04 -1.05280e-01 -2.76230e-01 3.07390e-03 -3.60470e-02 -8.36510e-04 -4.25920e-04 -1.02430e-01 -2.65600e-01 2.94770e-03 -3.54020e-02 -8.23740e-04 -4.19310e-04 -9.95420e-02 -2.55220e-01 2.82520e-03 -3.47080e-02 -8.10800e-04 -4.12620e-04 -9.66190e-02 -2.41930e-01 2.84930e-03 -3.19250e-02 -7.88920e-04 -4.03150e-04 -9.07570e-02 -2.35170e-01 2.59090e-03 -3.31850e-02 -7.84440e-04 -3.99000e-04 -9.06990e-02 -2.25500e-01 2.47900e-03 -3.23650e-02 -7.71040e-04 -3.92060e-04 -8.77160e-02 -2.16070e-01 2.37050e-03 -3.15090e-02 -7.57490e-04 -3.85050e-04 -8.47250e-02 -2.06860e-01 2.26540e-03 -3.06230e-02 -7.43800e-04 -3.77950e-04 -8.17320e-02 -1.97890e-01 2.16340e-03 -2.97090e-02 -7.29970e-04 -3.70780e-04 -7.87440e-02 -1.89130e-01 2.06470e-03 -2.87710e-02 -7.16000e-04 -3.63540e-04 -7.57640e-02 -1.80600e-01 1.96910e-03 -2.78120e-02 -7.01910e-04 -3.56220e-04 -7.27990e-02 -1.72290e-01 1.87650e-03 -2.68360e-02 -6.87690e-04 -3.48840e-04 -6.98530e-02 -1.64200e-01 1.78690e-03 -2.58470e-02 -6.73350e-04 -3.41380e-04 -6.69300e-02 -1.57190e-01 1.64100e-03 -2.53890e-02 -6.67660e-04 -4.74110e-04 -6.47830e-02 -1.51210e-01 1.44190e-03 -2.54200e-02 -6.74120e-04 -7.41280e-04 -6.33480e-02 -1.41190e-01 1.53540e-03 -2.28250e-02 -6.29620e-04 -3.18630e-04 -5.83460e-02 -1.33940e-01 1.45720e-03 -2.18110e-02 -6.14830e-04 -3.10930e-04 -5.55580e-02 -1.26890e-01 1.38160e-03 -2.07970e-02 -5.99920e-04 -3.03180e-04 -5.28130e-02 -1.17690e-01 1.46180e-03 -1.84010e-02 -5.42110e-04 3.33060e-05 -4.82030e-02 -1.11120e-01 1.34420e-03 -1.74430e-02 -5.60760e-04 -2.83520e-04 -4.56100e-02 -1.06970e-01 1.17060e-03 -1.77900e-02 -5.54620e-04 -2.79610e-04 -4.48680e-02 -1.01460e-01 1.05890e-03 -1.72180e-02 -5.56170e-04 -3.64740e-04 -4.28980e-02 -9.47040e-02 1.00480e-03 -1.58320e-02 -5.68050e-04 -5.28860e-04 -3.98330e-02 -8.81370e-02 1.00150e-03 -1.45010e-02 -5.21020e-04 -3.39400e-04 -3.68820e-02 -8.31640e-02 9.23890e-04 -1.39450e-02 -4.92940e-04 -2.47600e-04 -3.50520e-02 -7.76960e-02 8.68090e-04 -1.30270e-02 -4.77310e-04 -2.39510e-04 -3.27530e-02 -7.24180e-02 8.14550e-04 -1.21310e-02 -4.61600e-04 -2.31390e-04 -3.05210e-02 -6.73290e-02 7.63250e-04 -1.12570e-02 -4.45810e-04 -2.23250e-04 -2.83560e-02 -6.24280e-02 7.14130e-04 -1.04080e-02 -4.29950e-04 -2.15080e-04 -2.62610e-02 -5.77150e-02 6.67170e-04 -9.58450e-03 -4.14010e-04 -2.06900e-04 -2.42370e-02 -5.37690e-02 5.88630e-04 -9.05140e-03 -4.18910e-04 -2.50450e-04 -2.26690e-02 -5.05340e-02 4.81640e-04 -8.76200e-03 -4.47250e-04 -3.42930e-04 -2.14970e-02 -4.46880e-02 5.38900e-04 -7.28320e-03 -3.65810e-04 -1.82250e-04 -1.86090e-02 -4.07140e-02 5.00260e-04 -6.57620e-03 -3.49610e-04 -1.74010e-04 -1.68840e-02 -3.54310e-02 5.26790e-04 -5.29620e-03 -3.24130e-04 -1.61330e-04 -1.43240e-02 -3.33170e-02 4.29050e-04 -5.25830e-03 -3.16990e-04 -1.57500e-04 -1.36690e-02 -2.98920e-02 3.96480e-04 -4.64910e-03 -3.00570e-04 -1.49230e-04 -1.21810e-02 -2.66490e-02 3.65940e-04 -4.07410e-03 -2.84050e-04 -1.40930e-04 -1.07730e-02 -2.35880e-02 3.37490e-04 -3.53390e-03 -2.67400e-04 -1.32600e-04 -9.44610e-03 -2.07080e-02 3.11170e-04 -3.02910e-03 -2.50590e-04 -1.24210e-04 -8.20110e-03 -1.80100e-02 2.87080e-04 -2.56030e-03 -2.33560e-04 -1.15740e-04 -7.03860e-03 -1.54930e-02 2.65320e-04 -2.12800e-03 -2.16220e-04 -1.07130e-04 -5.95930e-03 -1.34820e-02 2.38880e-04 -1.82440e-03 -1.87790e-04 -8.70700e-05 -5.12250e-03 -1.19050e-02 2.10750e-04 -1.61400e-03 -1.46730e-04 -5.67820e-05 -4.47810e-03 -9.03710e-03 2.15570e-04 -1.05490e-03 -1.61200e-04 -7.99000e-05 -3.22790e-03 -7.25230e-03 2.04380e-04 -7.73780e-04 -1.41410e-04 -7.01340e-05 -2.48920e-03 -4.95870e-03 2.23340e-04 -3.94660e-04 -1.09900e-04 -5.47570e-05 -1.56250e-03 -4.24290e-03 1.88150e-04 -3.30850e-04 -9.94460e-05 -4.95780e-05 -1.27650e-03 -3.02360e-03 1.80210e-04 -1.71460e-04 -7.79460e-05 -3.92020e-05 -8.06350e-04 -1.99930e-03 1.67610e-04 -5.65450e-05 -5.72250e-05 -2.93780e-05 -4.30970e-04 -1.17510e-03 1.44860e-04 1.10900e-05 -3.85580e-05 -2.07330e-05 -1.54860e-04 -6.45770e-04 1.03820e-04 3.40590e-05 -2.53630e-05 -1.09970e-05 4.18170e-06 -1.65080e-04 3.01140e-05 -4.52470e-06 -9.96250e-06 3.24180e-06 7.05540e-05 6.81660e-06 -3.51430e-05 -2.08910e-05 1.07430e-06 6.56230e-06 3.41410e-05 3.14340e-05 -7.70120e-05 3.11960e-06 6.09970e-06 7.08800e-06 -2.74820e-06 -1.06130e+00 -5.59190e-01 -4.51820e-01 7.56000e-02 1.16830e-02 2.42020e-01 -1.02850e+00 -2.87960e-01 -1.24600e-01 6.12130e-02 4.61510e-03 7.09840e-02 -9.19420e-01 -5.40300e-02 1.43520e-02 4.08570e-02 -6.15960e-04 -4.67050e-02 -9.61890e-01 -4.93470e-02 -4.39540e-03 2.02840e-02 -3.69890e-04 -3.42390e-02 -9.51590e-01 -1.27780e-02 3.75780e-03 6.58270e-03 -1.12830e-04 -4.72820e-02 -9.45010e-01 -9.48640e-03 -2.72720e-03 -4.67500e-04 1.23660e-04 -4.95950e-02 -9.21780e-01 2.69930e-03 -2.24210e-03 -3.96030e-03 -1.93910e-04 -6.12970e-02 -8.91390e-01 1.11730e-02 1.61750e-03 -5.45330e-03 -5.62030e-04 -6.52430e-02 -8.70970e-01 8.28290e-03 -7.10480e-03 -5.35530e-03 1.24370e-03 -7.38270e-02 -8.58520e-01 9.19230e-03 -7.82200e-03 -4.58800e-03 1.27630e-03 -8.42230e-02 -8.36040e-01 1.03800e-02 -9.77160e-03 -4.31690e-03 1.04500e-03 -9.20580e-02 -8.14610e-01 1.02100e-02 -1.10330e-02 -3.84820e-03 9.52520e-04 -9.78880e-02 -7.93630e-01 1.03100e-02 -1.29060e-02 -3.47940e-03 8.39840e-04 -1.04180e-01 -7.80920e-01 9.20540e-03 -1.62360e-02 -3.27870e-03 8.07760e-04 -1.12680e-01 -7.53190e-01 8.78240e-03 -1.60750e-02 -2.59640e-03 -1.17590e-03 -1.14060e-01 -7.34360e-01 8.28660e-03 -1.77540e-02 -2.34790e-03 -1.16310e-03 -1.18170e-01 -7.15550e-01 8.06140e-03 -1.94760e-02 -2.16890e-03 -1.14800e-03 -1.22160e-01 -6.97300e-01 7.66850e-03 -2.11160e-02 -2.04540e-03 -1.13230e-03 -1.25430e-01 -6.79120e-01 7.44640e-03 -2.27640e-02 -1.96210e-03 -1.11720e-03 -1.28470e-01 -6.61360e-01 7.13410e-03 -2.43250e-02 -1.90790e-03 -1.10340e-03 -1.30940e-01 -6.43720e-01 6.92660e-03 -2.58630e-02 -1.87310e-03 -1.09060e-03 -1.33140e-01 -6.20630e-01 6.94330e-03 -2.53730e-02 -1.83440e-03 -1.08160e-03 -1.30970e-01 -6.09270e-01 6.47210e-03 -2.87070e-02 -1.83640e-03 -1.06790e-03 -1.36310e-01 -5.92430e-01 6.24640e-03 -3.00090e-02 -1.82620e-03 -1.05740e-03 -1.37360e-01 -5.75780e-01 6.05920e-03 -3.12460e-02 -1.81780e-03 -1.04710e-03 -1.38120e-01 -5.59420e-01 5.85460e-03 -3.23850e-02 -1.81000e-03 -1.03700e-03 -1.38550e-01 -5.38150e-01 5.83430e-03 -3.14000e-02 -1.79060e-03 -1.02850e-03 -1.34770e-01 -5.27430e-01 5.48370e-03 -3.44080e-02 -1.79290e-03 -1.01660e-03 -1.38570e-01 -5.11810e-01 5.30910e-03 -3.52830e-02 -1.78290e-03 -1.00620e-03 -1.38190e-01 -4.96470e-01 5.13010e-03 -3.60590e-02 -1.77180e-03 -9.95770e-04 -1.37550e-01 -4.81390e-01 4.96180e-03 -3.67450e-02 -1.75980e-03 -9.85110e-04 -1.36700e-01 -4.66580e-01 4.79220e-03 -3.73330e-02 -1.74670e-03 -9.74350e-04 -1.35620e-01 -4.52030e-01 4.63060e-03 -3.78300e-02 -1.73280e-03 -9.63400e-04 -1.34350e-01 -4.37760e-01 4.46970e-03 -3.82310e-02 -1.71810e-03 -9.52350e-04 -1.32890e-01 -4.23750e-01 4.31510e-03 -3.85430e-02 -1.70270e-03 -9.41140e-04 -1.31260e-01 -4.14220e-01 3.98500e-03 -4.10220e-02 -1.70110e-03 -9.31430e-04 -1.33140e-01 -3.96550e-01 4.01480e-03 -3.88950e-02 -1.67010e-03 -9.18360e-04 -1.27530e-01 -3.83350e-01 3.86990e-03 -3.89410e-02 -1.65290e-03 -9.06800e-04 -1.25450e-01 -3.70420e-01 3.72950e-03 -3.89050e-02 -1.63520e-03 -8.95100e-04 -1.23250e-01 -3.57750e-01 3.59200e-03 -3.87870e-02 -1.61710e-03 -8.83280e-04 -1.20930e-01 -3.45350e-01 3.45870e-03 -3.85920e-02 -1.59850e-03 -8.71340e-04 -1.18510e-01 -3.33210e-01 3.32840e-03 -3.83220e-02 -1.57950e-03 -8.59270e-04 -1.16000e-01 -3.24950e-01 3.03960e-03 -4.01980e-02 -1.57560e-03 -8.50760e-04 -1.16730e-01 -3.09700e-01 3.07850e-03 -3.75730e-02 -1.54030e-03 -8.34750e-04 -1.10730e-01 -2.98330e-01 2.95860e-03 -3.71010e-02 -1.52010e-03 -8.22290e-04 -1.07990e-01 -2.87210e-01 2.84180e-03 -3.65670e-02 -1.49950e-03 -8.09700e-04 -1.05200e-01 -2.76340e-01 2.72830e-03 -3.59770e-02 -1.47850e-03 -7.96980e-04 -1.02350e-01 -2.65720e-01 2.61780e-03 -3.53340e-02 -1.45720e-03 -7.84120e-04 -9.94660e-02 -2.55340e-01 2.51050e-03 -3.46400e-02 -1.43550e-03 -7.71120e-04 -9.65460e-02 -2.41990e-01 2.75560e-03 -3.18710e-02 -1.55400e-03 -1.66990e-04 -9.07290e-02 -2.34250e-01 2.41980e-03 -3.24550e-02 -1.43660e-03 -5.50230e-04 -8.96980e-02 -2.25630e-01 2.20630e-03 -3.23010e-02 -1.36850e-03 -7.31340e-04 -8.76530e-02 -2.16200e-01 2.11070e-03 -3.14470e-02 -1.34550e-03 -7.17810e-04 -8.46650e-02 -2.07000e-01 2.01780e-03 -3.05620e-02 -1.32220e-03 -7.04160e-04 -8.16750e-02 -1.98020e-01 1.92770e-03 -2.96490e-02 -1.29860e-03 -6.90380e-04 -7.86900e-02 -1.89270e-01 1.84020e-03 -2.87120e-02 -1.27470e-03 -6.76480e-04 -7.57130e-02 -1.80740e-01 1.75540e-03 -2.77550e-02 -1.25060e-03 -6.62470e-04 -7.27500e-02 -1.72430e-01 1.67310e-03 -2.67800e-02 -1.22610e-03 -6.48340e-04 -6.98070e-02 -1.64340e-01 1.59340e-03 -2.57920e-02 -1.20140e-03 -6.34100e-04 -6.68870e-02 -1.56460e-01 1.51610e-03 -2.47930e-02 -1.17640e-03 -6.19750e-04 -6.39940e-02 -1.49660e-01 1.36100e-03 -2.43120e-02 -1.13060e-03 -7.25490e-04 -6.18550e-02 -1.43890e-01 1.13180e-03 -2.43060e-02 -1.06840e-03 -9.46230e-04 -6.04050e-02 -1.34870e-01 1.29590e-03 -2.22600e-02 -1.12760e-03 -4.72580e-04 -5.62140e-02 -1.26960e-01 1.33580e-03 -2.07560e-02 -1.13500e-03 -2.54240e-04 -5.28010e-02 -1.22450e-01 1.15590e-03 -2.11380e-02 -1.12060e-03 -2.57750e-04 -5.20230e-02 -1.11190e-01 1.30390e-03 -1.74040e-02 -1.05380e-03 -2.55290e-04 -4.56000e-02 -1.06330e-01 1.10730e-03 -1.73170e-02 -1.00420e-03 -4.25990e-04 -4.42510e-02 -1.00860e-01 9.82530e-04 -1.67630e-02 -9.67920e-04 -5.01710e-04 -4.23000e-02 -9.48090e-02 9.25770e-04 -1.57940e-02 -9.40880e-04 -4.86630e-04 -3.98170e-02 -8.89540e-02 8.71100e-04 -1.48410e-02 -9.13640e-04 -4.71490e-04 -3.73940e-02 -8.32920e-02 8.18480e-04 -1.39060e-02 -8.86210e-04 -4.56300e-04 -3.50320e-02 -7.78210e-02 7.67880e-04 -1.29890e-02 -8.58580e-04 -4.41070e-04 -3.27350e-02 -7.25410e-02 7.19280e-04 -1.20940e-02 -8.30780e-04 -4.25800e-04 -3.05030e-02 -6.74500e-02 6.72640e-04 -1.12220e-02 -8.02810e-04 -4.10500e-04 -2.83400e-02 -6.25470e-02 6.27930e-04 -1.03740e-02 -7.74660e-04 -3.95170e-04 -2.62470e-02 -5.78310e-02 5.85140e-04 -9.55230e-03 -7.46350e-04 -3.79820e-04 -2.42250e-02 -5.33010e-02 5.44230e-04 -8.75780e-03 -7.17870e-04 -3.64450e-04 -2.22750e-02 -5.06230e-02 4.31620e-04 -8.73420e-03 -7.06410e-04 -3.57490e-04 -2.14900e-02 -4.47960e-02 4.67980e-04 -7.25560e-03 -6.60470e-04 -3.33690e-04 -1.86000e-02 -4.08200e-02 4.32600e-04 -6.55010e-03 -6.31540e-04 -3.18300e-04 -1.68770e-02 -3.54780e-02 5.07550e-04 -5.27340e-03 -5.78680e-04 -2.10970e-04 -1.43240e-02 -3.29200e-02 4.02300e-04 -5.04930e-03 -5.64220e-04 -2.57490e-04 -1.33820e-02 -2.99900e-02 3.37340e-04 -4.62770e-03 -5.43800e-04 -2.72120e-04 -1.21780e-02 -2.67440e-02 3.09220e-04 -4.05430e-03 -5.14190e-04 -2.56710e-04 -1.07720e-02 -2.36800e-02 2.82970e-04 -3.51560e-03 -4.84340e-04 -2.41250e-04 -9.44600e-03 -2.07970e-02 2.58610e-04 -3.01250e-03 -4.54180e-04 -2.25730e-04 -8.20230e-03 -1.80960e-02 2.36250e-04 -2.54520e-03 -4.23620e-04 -2.10080e-04 -7.04100e-03 -1.59140e-02 2.12800e-04 -2.21740e-03 -3.93420e-04 -1.87190e-04 -6.13790e-03 -1.41820e-02 1.91220e-04 -1.99280e-03 -3.61100e-04 -1.58030e-04 -5.44260e-03 -1.10800e-02 1.82120e-04 -1.36390e-03 -3.27850e-04 -1.61500e-04 -4.05790e-03 -9.10580e-03 1.68840e-04 -1.04510e-03 -2.93770e-04 -1.44360e-04 -3.23260e-03 -7.31430e-03 1.58030e-04 -7.64850e-04 -2.58150e-04 -1.26530e-04 -2.49320e-03 -5.00790e-03 1.77640e-04 -3.87380e-04 -2.00380e-04 -9.80600e-05 -1.56550e-03 -4.28790e-03 1.42820e-04 -3.23070e-04 -1.81930e-04 -8.87780e-05 -1.27770e-03 -3.05860e-03 1.36390e-04 -1.64110e-04 -1.42190e-04 -6.94430e-05 -8.05600e-04 -2.02450e-03 1.26860e-04 -4.96550e-05 -1.03270e-04 -5.08700e-05 -4.28480e-04 -1.19200e-03 1.09250e-04 1.75510e-05 -6.79420e-05 -3.43890e-05 -1.51200e-04 -5.69970e-04 7.32140e-05 3.14450e-05 -3.91690e-05 -2.11680e-05 1.80230e-05 -1.69450e-04 1.61350e-05 1.44580e-08 -1.81790e-05 -1.19500e-05 7.24400e-05 5.48870e-06 -4.62250e-05 -1.71060e-05 -4.69780e-06 -7.43960e-06 3.42330e-05 3.08630e-05 -8.76960e-05 6.96730e-06 8.12700e-07 -6.87210e-06 -4.10970e-06 -1.02400e+00 -5.06510e-01 -4.21700e-01 1.24490e-01 1.64190e-02 2.19040e-01 -1.01640e+00 -2.53380e-01 -1.21120e-01 9.64450e-02 3.67230e-03 5.93350e-02 -9.30380e-01 -2.69750e-02 1.28350e-02 5.23010e-02 -5.71870e-03 -4.88250e-02 -9.56850e-01 -3.00210e-02 -2.56740e-03 1.85000e-02 -2.70100e-03 -3.38270e-02 -9.41060e-01 -3.81410e-03 1.63770e-03 3.63590e-03 -1.12790e-03 -4.62000e-02 -9.30210e-01 -3.60330e-03 -2.59400e-03 -3.54660e-03 -8.99950e-04 -4.94100e-02 -9.08990e-01 4.23220e-03 -3.13740e-03 -6.26620e-03 -1.03890e-03 -6.05820e-02 -8.81310e-01 9.11810e-03 -4.30900e-05 -7.86910e-03 -1.54630e-03 -6.43740e-02 -8.69060e-01 6.99640e-03 -6.30800e-03 -6.58850e-03 -1.56150e-03 -7.67130e-02 -8.49480e-01 6.65980e-03 -7.85520e-03 -5.84370e-03 -1.71450e-03 -8.34370e-02 -8.28830e-01 7.34240e-03 -9.44080e-03 -5.00700e-03 -1.79080e-03 -9.11740e-02 -8.09500e-01 6.81740e-03 -1.10280e-02 -4.23330e-03 -1.81570e-03 -9.71500e-02 -7.89720e-01 6.89020e-03 -1.27360e-02 -3.58160e-03 -1.81310e-03 -1.03450e-01 -7.77970e-01 5.60160e-03 -1.63700e-02 -3.19950e-03 -1.77570e-03 -1.12050e-01 -7.51770e-01 6.30680e-03 -1.61270e-02 -2.68750e-03 -1.75870e-03 -1.13580e-01 -7.33300e-01 5.92890e-03 -1.77940e-02 -2.41460e-03 -1.72280e-03 -1.17750e-01 -7.14790e-01 5.79100e-03 -1.95110e-02 -2.22440e-03 -1.69160e-03 -1.21750e-01 -6.96720e-01 5.50470e-03 -2.11450e-02 -2.10090e-03 -1.65930e-03 -1.25050e-01 -6.78690e-01 5.36670e-03 -2.27880e-02 -2.02130e-03 -1.63230e-03 -1.28100e-01 -6.61020e-01 5.14420e-03 -2.43440e-02 -1.97520e-03 -1.60560e-03 -1.30590e-01 -6.43450e-01 5.01150e-03 -2.58760e-02 -1.94850e-03 -1.58260e-03 -1.32790e-01 -6.20430e-01 5.12140e-03 -2.53830e-02 -1.92150e-03 -1.56210e-03 -1.30620e-01 -6.09090e-01 4.70010e-03 -2.87090e-02 -1.93000e-03 -1.53960e-03 -1.35970e-01 -5.92280e-01 4.54160e-03 -3.00080e-02 -1.92860e-03 -1.51910e-03 -1.37030e-01 -5.75670e-01 4.41560e-03 -3.12390e-02 -1.92800e-03 -1.49980e-03 -1.37790e-01 -5.59340e-01 4.27200e-03 -3.23740e-02 -1.92790e-03 -1.48040e-03 -1.38230e-01 -5.38100e-01 4.33420e-03 -3.13740e-02 -1.91330e-03 -1.46180e-03 -1.34460e-01 -5.27400e-01 4.01500e-03 -3.43880e-02 -1.92400e-03 -1.44230e-03 -1.38260e-01 -5.11800e-01 3.89430e-03 -3.52590e-02 -1.91990e-03 -1.42330e-03 -1.37880e-01 -4.96490e-01 3.76840e-03 -3.60320e-02 -1.91460e-03 -1.40430e-03 -1.37260e-01 -4.81430e-01 3.65110e-03 -3.67140e-02 -1.90770e-03 -1.38530e-03 -1.36410e-01 -4.66640e-01 3.53160e-03 -3.73000e-02 -1.89970e-03 -1.36620e-03 -1.35340e-01 -4.52120e-01 3.41820e-03 -3.77930e-02 -1.89040e-03 -1.34720e-03 -1.34080e-01 -4.37860e-01 3.30440e-03 -3.81920e-02 -1.88010e-03 -1.32810e-03 -1.32620e-01 -4.23880e-01 3.19520e-03 -3.85010e-02 -1.86880e-03 -1.30900e-03 -1.31000e-01 -4.14360e-01 2.89270e-03 -4.09820e-02 -1.87370e-03 -1.29360e-03 -1.32890e-01 -3.96710e-01 2.98200e-03 -3.88490e-02 -1.84360e-03 -1.27090e-03 -1.27280e-01 -3.83530e-01 2.87860e-03 -3.88930e-02 -1.82980e-03 -1.25170e-03 -1.25210e-01 -3.70610e-01 2.77840e-03 -3.88540e-02 -1.81530e-03 -1.23260e-03 -1.23020e-01 -3.57960e-01 2.67990e-03 -3.87350e-02 -1.80010e-03 -1.21340e-03 -1.20710e-01 -3.45570e-01 2.58410e-03 -3.85380e-02 -1.78420e-03 -1.19420e-03 -1.18300e-01 -3.33440e-01 2.49030e-03 -3.82670e-02 -1.76760e-03 -1.17500e-03 -1.15790e-01 -3.25180e-01 2.22300e-03 -4.01440e-02 -1.76920e-03 -1.16190e-03 -1.16530e-01 -3.09950e-01 2.30960e-03 -3.75150e-02 -1.73250e-03 -1.13630e-03 -1.10540e-01 -2.98590e-01 2.22260e-03 -3.70420e-02 -1.71400e-03 -1.11690e-03 -1.07810e-01 -2.87470e-01 2.13760e-03 -3.65070e-02 -1.69500e-03 -1.09740e-03 -1.05020e-01 -2.76610e-01 2.05480e-03 -3.59160e-02 -1.67530e-03 -1.07780e-03 -1.02180e-01 -2.65990e-01 1.97400e-03 -3.52720e-02 -1.65500e-03 -1.05820e-03 -9.93050e-02 -2.55620e-01 1.89530e-03 -3.45780e-02 -1.63420e-03 -1.03840e-03 -9.63920e-02 -2.45490e-01 1.81850e-03 -3.38390e-02 -1.61280e-03 -1.01860e-03 -9.34520e-02 -2.32360e-01 2.25770e-03 -3.10130e-02 -1.98290e-03 -4.88890e-04 -8.77350e-02 -2.24870e-01 1.84030e-03 -3.15680e-02 -1.69700e-03 -8.11110e-04 -8.66200e-02 -2.16500e-01 1.59990e-03 -3.13830e-02 -1.54530e-03 -9.58650e-04 -8.45350e-02 -2.07300e-01 1.53080e-03 -3.04970e-02 -1.52180e-03 -9.38490e-04 -8.15510e-02 -1.98320e-01 1.46360e-03 -2.95840e-02 -1.49770e-03 -9.18250e-04 -7.85710e-02 -1.89570e-01 1.39830e-03 -2.86470e-02 -1.47320e-03 -8.97930e-04 -7.56000e-02 -1.81040e-01 1.33470e-03 -2.76900e-02 -1.44810e-03 -8.77530e-04 -7.26430e-02 -1.72730e-01 1.27290e-03 -2.67160e-02 -1.42260e-03 -8.57060e-04 -6.97040e-02 -1.64630e-01 1.21280e-03 -2.57270e-02 -1.39660e-03 -8.36520e-04 -6.67890e-02 -1.56750e-01 1.15440e-03 -2.47280e-02 -1.37020e-03 -8.15910e-04 -6.39020e-02 -1.49080e-01 1.09780e-03 -2.37220e-02 -1.34330e-03 -7.95240e-04 -6.10460e-02 -1.44110e-01 9.16510e-04 -2.42500e-02 -1.33720e-03 -7.85180e-04 -6.03420e-02 -1.36670e-01 1.07460e-03 -2.31740e-02 -1.57390e-03 -4.91450e-04 -5.75460e-02 -1.27320e-01 9.37810e-04 -2.06860e-02 -1.26000e-03 -7.32920e-04 -5.27060e-02 -1.20470e-01 8.87740e-04 -1.96790e-02 -1.23140e-03 -7.12060e-04 -5.00140e-02 -1.13830e-01 8.39260e-04 -1.86770e-02 -1.20240e-03 -6.91170e-04 -4.73700e-02 -1.05140e-01 9.03790e-04 -1.63950e-02 -1.15130e-03 -6.59000e-04 -4.29940e-02 -1.01130e-01 7.46990e-04 -1.67040e-02 -1.14320e-03 -6.49330e-04 -4.22420e-02 -9.50770e-02 7.03160e-04 -1.57360e-02 -1.11310e-03 -6.28380e-04 -3.97620e-02 -8.92170e-02 6.60860e-04 -1.47840e-02 -1.08260e-03 -6.07440e-04 -3.73430e-02 -8.35500e-02 6.20050e-04 -1.38490e-02 -1.05180e-03 -5.86490e-04 -3.49850e-02 -7.80750e-02 5.80730e-04 -1.29340e-02 -1.02060e-03 -5.65560e-04 -3.26910e-02 -7.27890e-02 5.42880e-04 -1.20400e-02 -9.89010e-04 -5.44640e-04 -3.04630e-02 -6.76930e-02 5.06480e-04 -1.11690e-02 -9.57150e-04 -5.23750e-04 -2.83030e-02 -6.27850e-02 4.71530e-04 -1.03230e-02 -9.24960e-04 -5.02890e-04 -2.62130e-02 -5.80630e-02 4.38000e-04 -9.50230e-03 -8.92460e-04 -4.82070e-04 -2.41940e-02 -5.40660e-02 4.08600e-04 -8.97210e-03 -9.06700e-04 -4.39210e-04 -2.26360e-02 -5.07370e-02 3.85600e-04 -8.68570e-03 -9.62560e-04 -3.76400e-04 -2.14810e-02 -4.50120e-02 3.45880e-04 -7.21060e-03 -7.93190e-04 -4.19930e-04 -1.85800e-02 -4.10300e-02 3.17960e-04 -6.50710e-03 -7.59520e-04 -3.99350e-04 -1.68600e-02 -3.72310e-02 2.91420e-04 -5.83530e-03 -7.25580e-04 -3.78840e-04 -1.52170e-02 -3.20790e-02 3.93450e-04 -4.63910e-03 -7.49140e-04 -3.10830e-04 -1.28090e-02 -2.96900e-02 2.83580e-04 -4.41990e-03 -6.74470e-04 -3.22600e-04 -1.19080e-02 -2.69310e-02 2.20110e-04 -4.01970e-03 -6.21980e-04 -3.17730e-04 -1.07660e-02 -2.38610e-02 1.99160e-04 -3.48340e-03 -5.86780e-04 -2.97480e-04 -9.44370e-03 -2.09720e-02 1.79650e-04 -2.98270e-03 -5.51160e-04 -2.77230e-04 -8.20290e-03 -1.86130e-02 1.60860e-04 -2.63350e-03 -5.38910e-04 -2.59260e-04 -7.23640e-03 -1.67150e-02 1.45700e-04 -2.39860e-03 -5.45760e-04 -2.44050e-04 -6.49270e-03 -1.33930e-02 1.30430e-04 -1.69790e-03 -4.40460e-04 -2.15880e-04 -4.97660e-03 -1.12280e-02 1.17380e-04 -1.34360e-03 -4.01540e-04 -1.94860e-04 -4.06810e-03 -9.24420e-03 1.06220e-04 -1.02690e-03 -3.61080e-04 -1.73270e-04 -3.24400e-03 -7.44180e-03 9.69690e-05 -7.48470e-04 -3.18660e-04 -1.50940e-04 -2.50490e-03 -5.11380e-03 1.18410e-04 -3.74110e-04 -2.47030e-04 -1.14450e-04 -1.57680e-03 -4.38590e-03 8.40380e-05 -3.09260e-04 -2.26650e-04 -1.03610e-04 -1.28640e-03 -3.13800e-03 7.94830e-05 -1.51150e-04 -1.77330e-04 -7.89840e-05 -8.11230e-04 -2.08380e-03 7.37330e-05 -3.75760e-05 -1.27490e-04 -5.47690e-05 -4.30500e-04 -1.23200e-03 6.36650e-05 2.89290e-05 -8.05390e-05 -3.27460e-05 -1.50090e-04 -5.94750e-04 3.94880e-05 4.21580e-05 -4.21790e-05 -1.51310e-05 2.14320e-05 -1.82810e-04 -4.48070e-06 8.85110e-06 -1.68500e-05 -2.78860e-06 7.69790e-05 1.14410e-06 -5.50340e-05 -1.02140e-05 -4.57100e-06 4.00020e-06 3.65710e-05 2.93710e-05 -9.08910e-05 1.40480e-05 -1.43270e-06 5.84300e-06 -4.47130e-06 -1.03980e+00 -4.52150e-01 -4.17910e-01 1.82890e-01 1.96060e-02 1.80150e-01 -1.03460e+00 -1.72860e-01 -1.06580e-01 1.05030e-01 6.82590e-04 3.70330e-02 -9.07320e-01 9.83380e-03 2.81500e-02 2.79180e-02 -8.81870e-03 -5.00720e-02 -9.22360e-01 -1.64210e-02 -2.34240e-03 6.85400e-03 -1.54020e-03 -3.27540e-02 -9.03690e-01 3.28350e-03 4.77030e-03 -2.74150e-03 -1.78480e-03 -4.62850e-02 -9.00370e-01 -1.52650e-03 -1.44710e-03 -5.09830e-03 -1.12480e-03 -4.85840e-02 -8.84840e-01 3.48000e-03 -1.61230e-03 -5.93940e-03 -1.68390e-03 -5.95540e-02 -8.66030e-01 6.03960e-03 5.39360e-04 -5.13460e-03 -1.72430e-03 -6.31480e-02 -8.55490e-01 3.68700e-03 -5.18120e-03 -4.55260e-03 -1.91730e-03 -7.53740e-02 -8.39530e-01 3.10950e-03 -6.77340e-03 -3.60060e-03 -1.89570e-03 -8.21830e-02 -8.21480e-01 3.48540e-03 -8.45420e-03 -2.85160e-03 -1.93820e-03 -8.99590e-02 -8.04040e-01 3.08920e-03 -1.00500e-02 -2.17830e-03 -1.88100e-03 -9.60750e-02 -7.85630e-01 3.16570e-03 -1.18160e-02 -1.70080e-03 -1.85470e-03 -1.02420e-01 -7.74410e-01 2.15420e-03 -1.53290e-02 -1.47540e-03 -1.79970e-03 -1.11120e-01 -7.49270e-01 2.87480e-03 -1.52470e-02 -1.08910e-03 -1.75290e-03 -1.12700e-01 -7.31240e-01 2.67490e-03 -1.69220e-02 -9.22100e-04 -1.70150e-03 -1.16930e-01 -7.13040e-01 2.64340e-03 -1.86570e-02 -8.28500e-04 -1.66360e-03 -1.20940e-01 -6.95180e-01 2.50020e-03 -2.03000e-02 -7.74200e-04 -1.62310e-03 -1.24270e-01 -6.77320e-01 2.46070e-03 -2.19550e-02 -7.55720e-04 -1.59110e-03 -1.27330e-01 -6.59760e-01 2.35350e-03 -2.35200e-02 -7.54300e-04 -1.55860e-03 -1.29840e-01 -6.42290e-01 2.30970e-03 -2.50610e-02 -7.67950e-04 -1.53120e-03 -1.32040e-01 -6.19400e-01 2.53780e-03 -2.45830e-02 -7.77310e-04 -1.50450e-03 -1.29890e-01 -6.08100e-01 2.17730e-03 -2.79140e-02 -8.10800e-04 -1.47910e-03 -1.35250e-01 -5.91360e-01 2.10470e-03 -2.92220e-02 -8.34790e-04 -1.45440e-03 -1.36310e-01 -5.74810e-01 2.05570e-03 -3.04630e-02 -8.59360e-04 -1.43130e-03 -1.37090e-01 -5.58550e-01 1.99100e-03 -3.16090e-02 -8.82210e-04 -1.40820e-03 -1.37530e-01 -5.37410e-01 2.15490e-03 -3.06140e-02 -8.95400e-04 -1.38570e-03 -1.33780e-01 -5.26730e-01 1.88120e-03 -3.36440e-02 -9.23850e-04 -1.36390e-03 -1.37590e-01 -5.11210e-01 1.83060e-03 -3.45260e-02 -9.42270e-04 -1.34240e-03 -1.37230e-01 -4.95950e-01 1.77470e-03 -3.53100e-02 -9.58770e-04 -1.32090e-03 -1.36610e-01 -4.80950e-01 1.72450e-03 -3.60040e-02 -9.73940e-04 -1.29980e-03 -1.35780e-01 -4.66220e-01 1.67150e-03 -3.66010e-02 -9.87470e-04 -1.27890e-03 -1.34730e-01 -4.51740e-01 1.62220e-03 -3.71070e-02 -9.99770e-04 -1.25830e-03 -1.33480e-01 -4.37540e-01 1.57160e-03 -3.75180e-02 -1.01070e-03 -1.23780e-03 -1.32040e-01 -4.23600e-01 1.52360e-03 -3.78390e-02 -1.02050e-03 -1.21760e-03 -1.30430e-01 -4.14120e-01 1.26050e-03 -4.03310e-02 -1.04300e-03 -1.20180e-03 -1.32330e-01 -3.96530e-01 1.42860e-03 -3.82120e-02 -1.03660e-03 -1.17760e-03 -1.26750e-01 -3.83390e-01 1.38210e-03 -3.82680e-02 -1.04300e-03 -1.15780e-03 -1.24690e-01 -3.70510e-01 1.33720e-03 -3.82420e-02 -1.04840e-03 -1.13820e-03 -1.22520e-01 -3.57900e-01 1.29260e-03 -3.81360e-02 -1.05280e-03 -1.11860e-03 -1.20220e-01 -3.45540e-01 1.24930e-03 -3.79520e-02 -1.05620e-03 -1.09910e-03 -1.17830e-01 -3.33450e-01 1.20650e-03 -3.76940e-02 -1.05870e-03 -1.07970e-03 -1.15330e-01 -3.25210e-01 9.71470e-04 -3.95810e-02 -1.07660e-03 -1.06740e-03 -1.16080e-01 -3.10020e-01 1.12380e-03 -3.69670e-02 -1.06070e-03 -1.04100e-03 -1.10110e-01 -2.98690e-01 1.08370e-03 -3.65070e-02 -1.06040e-03 -1.02170e-03 -1.07390e-01 -2.87600e-01 1.04440e-03 -3.59850e-02 -1.05910e-03 -1.00240e-03 -1.04620e-01 -2.76760e-01 1.00590e-03 -3.54070e-02 -1.05700e-03 -9.83140e-04 -1.01800e-01 -2.66170e-01 9.68240e-04 -3.47750e-02 -1.05390e-03 -9.63840e-04 -9.89330e-02 -2.55820e-01 9.31400e-04 -3.40940e-02 -1.05000e-03 -9.44510e-04 -9.60330e-02 -2.45700e-01 8.95310e-04 -3.33670e-02 -1.04530e-03 -9.25160e-04 -9.31060e-02 -2.35830e-01 8.60040e-04 -3.25980e-02 -1.03970e-03 -9.05780e-04 -9.01590e-02 -2.23160e-01 9.93100e-04 -2.98200e-02 -1.01460e-03 -8.76610e-04 -8.44270e-02 -2.16770e-01 7.91810e-04 -3.09490e-02 -1.02610e-03 -8.66920e-04 -8.42280e-02 -2.07580e-01 7.58850e-04 -3.00760e-02 -1.01810e-03 -8.47430e-04 -8.12560e-02 -1.98620e-01 7.26660e-04 -2.91750e-02 -1.00930e-03 -8.27900e-04 -7.82880e-02 -1.89880e-01 6.95220e-04 -2.82510e-02 -9.99800e-04 -8.08330e-04 -7.53280e-02 -1.81360e-01 6.64530e-04 -2.73050e-02 -9.89530e-04 -7.88720e-04 -7.23830e-02 -1.73060e-01 6.34590e-04 -2.63430e-02 -9.78530e-04 -7.69070e-04 -6.94550e-02 -1.64980e-01 6.05390e-04 -2.53660e-02 -9.66810e-04 -7.49390e-04 -6.65510e-02 -1.57100e-01 5.76920e-04 -2.43790e-02 -9.54390e-04 -7.29680e-04 -6.36740e-02 -1.49440e-01 5.49190e-04 -2.33850e-02 -9.41280e-04 -7.09940e-04 -6.08280e-02 -1.44480e-01 3.85970e-04 -2.39190e-02 -9.48040e-04 -7.01990e-04 -6.01290e-02 -1.34740e-01 4.95900e-04 -2.13840e-02 -9.13060e-04 -6.70410e-04 -5.52470e-02 -1.27690e-01 4.70340e-04 -2.03840e-02 -8.97970e-04 -6.50620e-04 -5.25180e-02 -1.20850e-01 4.45490e-04 -1.93880e-02 -8.82250e-04 -6.30840e-04 -4.98350e-02 -1.14210e-01 4.21350e-04 -1.83970e-02 -8.65910e-04 -6.11050e-04 -4.72010e-02 -1.05520e-01 5.17720e-04 -1.61310e-02 -8.27670e-04 -5.78840e-04 -4.28390e-02 -1.01510e-01 3.75210e-04 -1.64460e-02 -8.31430e-04 -5.71510e-04 -4.20910e-02 -9.54600e-02 3.53190e-04 -1.54890e-02 -8.13320e-04 -5.51780e-04 -3.96200e-02 -8.96000e-02 3.31870e-04 -1.45480e-02 -7.94640e-04 -5.32080e-04 -3.72090e-02 -8.39330e-02 3.11250e-04 -1.36240e-02 -7.75410e-04 -5.12430e-04 -3.48590e-02 -7.84570e-02 2.91330e-04 -1.27190e-02 -7.55640e-04 -4.92830e-04 -3.25730e-02 -7.31700e-02 2.72090e-04 -1.18360e-02 -7.35350e-04 -4.73280e-04 -3.03540e-02 -6.80710e-02 2.53550e-04 -1.09760e-02 -7.14540e-04 -4.53810e-04 -2.82020e-02 -6.31600e-02 2.35700e-04 -1.01400e-02 -6.93230e-04 -4.34420e-04 -2.61190e-02 -5.84360e-02 2.18530e-04 -9.32960e-03 -6.71440e-04 -4.15120e-04 -2.41080e-02 -5.56270e-02 1.16300e-04 -9.33060e-03 -6.71740e-04 -4.08870e-04 -2.33130e-02 -4.95430e-02 1.86250e-04 -7.79270e-03 -6.26440e-04 -3.76820e-04 -2.03050e-02 -4.53730e-02 1.71140e-04 -7.06830e-03 -6.03260e-04 -3.57850e-04 -1.85160e-02 -4.13870e-02 1.56710e-04 -6.37470e-03 -5.79640e-04 -3.39000e-04 -1.68040e-02 -3.75830e-02 1.42960e-04 -5.71280e-03 -5.55590e-04 -3.20290e-04 -1.51690e-02 -3.39630e-02 1.29900e-04 -5.08360e-03 -5.31120e-04 -3.01720e-04 -1.36120e-02 -2.89700e-02 2.58630e-04 -4.01840e-03 -7.23720e-04 -3.36360e-04 -1.13680e-02 -2.67690e-02 1.50970e-04 -3.78390e-03 -5.50860e-04 -2.82270e-04 -1.05020e-02 -2.41910e-02 9.48970e-05 -3.39970e-03 -4.55140e-04 -2.46890e-04 -9.42370e-03 -2.16400e-02 8.59290e-05 -3.04210e-03 -5.01910e-04 -2.54050e-04 -8.40250e-03 -1.95460e-02 8.06760e-05 -2.81400e-03 -6.14000e-04 -2.84810e-04 -7.62280e-03 -1.60490e-02 6.64410e-05 -2.03380e-03 -3.74630e-04 -1.93100e-04 -5.96970e-03 -1.36960e-02 5.85370e-05 -1.65140e-03 -3.46390e-04 -1.75200e-04 -4.98400e-03 -1.15220e-02 5.14800e-05 -1.30590e-03 -3.17140e-04 -1.57180e-04 -4.08160e-03 -9.52790e-03 4.53520e-05 -9.97680e-04 -2.86620e-04 -1.38880e-04 -3.26290e-03 -7.71280e-03 4.01590e-05 -7.27220e-04 -2.54460e-04 -1.20160e-04 -2.52830e-03 -5.35880e-03 6.58130e-05 -3.64600e-04 -1.93250e-04 -8.71720e-05 -1.60540e-03 -4.62030e-03 3.27450e-05 -3.02020e-04 -1.83730e-04 -8.07950e-05 -1.31400e-03 -3.34550e-03 3.03870e-05 -1.49640e-04 -1.44730e-04 -6.00990e-05 -8.37600e-04 -2.25720e-03 2.79750e-05 -4.06430e-05 -1.03920e-04 -3.92390e-05 -4.53200e-04 -1.36440e-03 2.44810e-05 2.22800e-05 -6.34180e-05 -1.93510e-05 -1.67110e-04 -6.83030e-04 1.49400e-05 3.51110e-05 -2.84440e-05 -2.76350e-06 1.09580e-05 -2.31960e-04 -7.73140e-06 2.23000e-06 -7.05390e-06 8.76400e-06 7.38100e-05 -1.76440e-05 -3.54410e-05 -1.72000e-05 -1.77820e-06 1.64350e-05 3.90230e-05 2.17320e-05 -5.58010e-05 6.09080e-06 -4.51720e-06 2.04500e-05 -2.69720e-06 -1.16280e+00 -4.15480e-01 -4.33050e-01 2.46640e-01 2.34940e-02 1.44810e-01 -1.07080e+00 -1.05160e-01 -9.20650e-02 8.98380e-02 1.28660e-03 1.44070e-02 -8.48340e-01 1.71630e-02 3.78780e-02 -3.00160e-03 -6.05030e-03 -5.50560e-02 -8.88680e-01 -1.88430e-02 -7.42760e-03 4.28240e-03 1.88880e-03 -3.61480e-02 -8.67080e-01 3.56430e-03 1.05190e-02 -8.05000e-03 -1.07800e-03 -4.80670e-02 -8.79800e-01 -5.27220e-03 -1.74530e-03 -3.01130e-03 4.36550e-04 -4.82970e-02 -8.66400e-01 1.58740e-03 2.22120e-03 -5.41330e-03 -1.07010e-03 -5.89890e-02 -8.55930e-01 7.76050e-03 6.76330e-03 -4.02320e-03 -5.47290e-04 -6.27330e-02 -8.46730e-01 1.21210e-03 -2.23250e-03 -2.89750e-03 -1.10910e-03 -7.43100e-02 -8.34430e-01 1.57650e-04 -4.81980e-03 -1.47610e-03 -7.75980e-04 -8.10100e-02 -8.17430e-01 1.03580e-03 -5.94500e-03 -1.31760e-03 -1.03330e-03 -8.89680e-02 -8.01650e-01 5.48680e-04 -7.97350e-03 -6.27840e-04 -8.36870e-04 -9.51100e-02 -7.83740e-01 8.98230e-04 -9.54900e-03 -5.03250e-04 -9.35200e-04 -1.01580e-01 -7.73140e-01 -4.79140e-04 -1.35870e-02 -2.01200e-04 -8.10390e-04 -1.10230e-01 -7.48310e-01 7.94160e-04 -1.31290e-02 -1.63270e-04 -8.56180e-04 -1.11970e-01 -7.30590e-01 6.52920e-04 -1.49110e-02 -6.12940e-05 -7.87770e-04 -1.16230e-01 -7.12490e-01 7.21510e-04 -1.66430e-02 -7.44520e-05 -8.02570e-04 -1.20280e-01 -6.94770e-01 6.39430e-04 -1.83500e-02 -6.27500e-05 -7.62580e-04 -1.23640e-01 -6.76950e-01 6.72370e-04 -2.00220e-02 -1.01250e-04 -7.68580e-04 -1.26710e-01 -6.59470e-01 6.22730e-04 -2.16330e-02 -1.26340e-04 -7.44860e-04 -1.29240e-01 -6.42040e-01 6.38220e-04 -2.32010e-02 -1.72190e-04 -7.47000e-04 -1.31470e-01 -6.19210e-01 9.53030e-04 -2.27520e-02 -2.09030e-04 -7.40780e-04 -1.29330e-01 -6.07940e-01 6.12470e-04 -2.61200e-02 -2.53870e-04 -7.32450e-04 -1.34700e-01 -5.91240e-01 5.90670e-04 -2.74640e-02 -2.92140e-04 -7.22750e-04 -1.35780e-01 -5.74740e-01 5.90890e-04 -2.87360e-02 -3.32650e-04 -7.21620e-04 -1.36570e-01 -5.58510e-01 5.74480e-04 -2.99150e-02 -3.68350e-04 -7.14640e-04 -1.37030e-01 -5.37430e-01 7.96600e-04 -2.89640e-02 -3.94480e-04 -7.18220e-04 -1.33300e-01 -5.26780e-01 5.57580e-04 -3.20160e-02 -4.36170e-04 -7.07220e-04 -1.37130e-01 -5.11290e-01 5.51810e-04 -3.29310e-02 -4.67420e-04 -7.04740e-04 -1.36780e-01 -4.96070e-01 5.39880e-04 -3.37480e-02 -4.95870e-04 -7.00080e-04 -1.36180e-01 -4.81100e-01 5.32540e-04 -3.44750e-02 -5.23180e-04 -6.97210e-04 -1.35370e-01 -4.66400e-01 5.21410e-04 -3.51050e-02 -5.48250e-04 -6.92970e-04 -1.34330e-01 -4.51960e-01 5.13030e-04 -3.56440e-02 -5.72080e-04 -6.89770e-04 -1.33100e-01 -4.37780e-01 5.02310e-04 -3.60870e-02 -5.94030e-04 -6.85680e-04 -1.31670e-01 -4.23870e-01 4.93240e-04 -3.64410e-02 -6.14730e-04 -6.82170e-04 -1.30080e-01 -4.14400e-01 2.55620e-04 -3.89570e-02 -6.47240e-04 -6.77360e-04 -1.31980e-01 -3.96840e-01 4.73180e-04 -3.68790e-02 -6.51600e-04 -6.74190e-04 -1.26420e-01 -3.83730e-01 4.62740e-04 -3.69680e-02 -6.67930e-04 -6.69860e-04 -1.24380e-01 -3.70870e-01 4.52890e-04 -3.69740e-02 -6.83030e-04 -6.65610e-04 -1.22220e-01 -3.58270e-01 4.42490e-04 -3.68990e-02 -6.96770e-04 -6.60970e-04 -1.19940e-01 -3.45940e-01 4.32440e-04 -3.67460e-02 -7.09310e-04 -6.56280e-04 -1.17550e-01 -3.33860e-01 4.22050e-04 -3.65190e-02 -7.20570e-04 -6.51230e-04 -1.15070e-01 -3.25630e-01 2.08670e-04 -3.84270e-02 -7.47240e-04 -6.48980e-04 -1.15820e-01 -3.10460e-01 4.01500e-04 -3.58540e-02 -7.39550e-04 -6.40490e-04 -1.09870e-01 -2.99140e-01 3.91260e-04 -3.54240e-02 -7.47310e-04 -6.34740e-04 -1.07160e-01 -2.88060e-01 3.80900e-04 -3.49320e-02 -7.53930e-04 -6.28660e-04 -1.04400e-01 -2.77230e-01 3.70640e-04 -3.43830e-02 -7.59460e-04 -6.22330e-04 -1.01580e-01 -2.66650e-01 3.60330e-04 -3.37810e-02 -7.63900e-04 -6.15660e-04 -9.87250e-02 -2.56300e-01 3.50090e-04 -3.31290e-02 -7.67310e-04 -6.08720e-04 -9.58330e-02 -2.46200e-01 3.39830e-04 -3.24310e-02 -7.69680e-04 -6.01460e-04 -9.29140e-02 -2.36320e-01 3.29650e-04 -3.16900e-02 -7.71050e-04 -5.93890e-04 -8.99730e-02 -2.23660e-01 4.94840e-04 -2.89500e-02 -7.52280e-04 -5.79230e-04 -8.42520e-02 -2.17270e-01 3.09410e-04 -3.00970e-02 -7.70890e-04 -5.77830e-04 -8.40550e-02 -2.08090e-01 2.99370e-04 -2.92510e-02 -7.69400e-04 -5.69330e-04 -8.10900e-02 -1.99130e-01 2.89410e-04 -2.83770e-02 -7.67010e-04 -5.60530e-04 -7.81270e-02 -1.90390e-01 2.79510e-04 -2.74790e-02 -7.63720e-04 -5.51420e-04 -7.51730e-02 -1.81880e-01 2.69710e-04 -2.65600e-02 -7.59580e-04 -5.42020e-04 -7.22320e-02 -1.73570e-01 2.60000e-04 -2.56230e-02 -7.54590e-04 -5.32330e-04 -6.93100e-02 -1.65490e-01 2.50380e-04 -2.46720e-02 -7.48780e-04 -5.22360e-04 -6.64100e-02 -1.57610e-01 2.40870e-04 -2.37100e-02 -7.42170e-04 -5.12110e-04 -6.35370e-02 -1.49950e-01 2.31470e-04 -2.27400e-02 -7.34790e-04 -5.01590e-04 -6.06960e-02 -1.44980e-01 8.03080e-05 -2.32900e-02 -7.47860e-04 -5.00630e-04 -5.99970e-02 -1.35240e-01 2.13060e-04 -2.07880e-02 -7.17750e-04 -4.79780e-04 -5.51230e-02 -1.28190e-01 2.04050e-04 -1.98110e-02 -7.08150e-04 -4.68510e-04 -5.23980e-02 -1.21340e-01 1.95190e-04 -1.88380e-02 -6.97840e-04 -4.57010e-04 -4.97190e-02 -1.14690e-01 1.86480e-04 -1.78710e-02 -6.86850e-04 -4.45290e-04 -4.70880e-02 -1.05990e-01 3.02500e-04 -1.56360e-02 -6.53180e-04 -4.22500e-04 -4.27330e-02 -1.01990e-01 1.69540e-04 -1.59640e-02 -6.62900e-04 -4.21250e-04 -4.19850e-02 -9.59290e-02 1.61320e-04 -1.50290e-02 -6.49970e-04 -4.08950e-04 -3.95170e-02 -9.00630e-02 1.53270e-04 -1.41090e-02 -6.36430e-04 -3.96480e-04 -3.71090e-02 -8.43880e-02 1.45420e-04 -1.32060e-02 -6.22300e-04 -3.83850e-04 -3.47630e-02 -7.89040e-02 1.37750e-04 -1.23230e-02 -6.07590e-04 -3.71080e-04 -3.24810e-02 -7.36100e-02 1.30290e-04 -1.14600e-02 -5.92320e-04 -3.58170e-04 -3.02650e-02 -6.85030e-02 1.23020e-04 -1.06190e-02 -5.76510e-04 -3.45150e-04 -2.81160e-02 -6.35840e-02 1.15960e-04 -9.80290e-03 -5.60170e-04 -3.32020e-04 -2.60370e-02 -5.88510e-02 1.09120e-04 -9.01220e-03 -5.43320e-04 -3.18800e-04 -2.40300e-02 -5.60380e-02 1.35710e-05 -9.02420e-03 -5.49310e-04 -3.17600e-04 -2.32360e-02 -4.99400e-02 9.61140e-05 -7.51290e-03 -5.08160e-04 -2.92130e-04 -2.02340e-02 -4.57610e-02 8.99530e-05 -6.80670e-03 -4.89870e-04 -2.78720e-04 -1.84490e-02 -4.17650e-02 8.40330e-05 -6.13100e-03 -4.71140e-04 -2.65270e-04 -1.67410e-02 -3.79520e-02 7.83620e-05 -5.48670e-03 -4.51980e-04 -2.51790e-04 -1.51100e-02 -3.43220e-02 7.29400e-05 -4.87480e-03 -4.32390e-04 -2.38290e-04 -1.35580e-02 -3.08730e-02 6.77760e-05 -4.29590e-03 -4.12390e-04 -2.24800e-04 -1.20860e-02 -2.62780e-02 1.26240e-04 -3.29260e-03 -3.67840e-04 -1.98910e-04 -9.96220e-03 -2.45200e-02 5.82570e-05 -3.24040e-03 -3.71170e-04 -1.97820e-04 -9.38350e-03 -2.28180e-02 -2.08060e-06 -3.14100e-03 -3.74360e-04 -1.96800e-04 -8.77720e-03 -1.88920e-02 4.99050e-05 -2.32510e-03 -3.28240e-04 -1.70870e-04 -7.00880e-03 -1.63480e-02 4.61880e-05 -1.92110e-03 -3.06050e-04 -1.57360e-04 -5.94550e-03 -1.39840e-02 4.28080e-05 -1.55340e-03 -2.83270e-04 -1.43810e-04 -4.96550e-03 -1.18000e-02 3.97710e-05 -1.22230e-03 -2.59790e-04 -1.30130e-04 -4.06890e-03 -9.79410e-03 3.70970e-05 -9.28060e-04 -2.35430e-04 -1.16260e-04 -3.25600e-03 -7.96630e-03 3.47590e-05 -6.71080e-04 -2.09940e-04 -1.02070e-04 -2.52690e-03 -5.58990e-03 6.30980e-05 -3.27470e-04 -1.56180e-04 -7.42610e-05 -1.61190e-03 -4.84150e-03 3.09450e-05 -2.71170e-04 -1.54390e-04 -7.22130e-05 -1.32170e-03 -3.54450e-03 2.92120e-05 -1.30550e-04 -1.23750e-04 -5.63470e-05 -8.47930e-04 -2.42720e-03 2.70090e-05 -3.24000e-05 -9.11310e-05 -3.98960e-05 -4.64050e-04 -1.49680e-03 2.34870e-05 2.00270e-05 -5.76880e-05 -2.35210e-05 -1.75920e-04 -7.68410e-04 1.65830e-05 2.43980e-05 -2.64870e-05 -8.51760e-06 6.39830e-06 -2.70080e-04 1.14400e-06 -1.62300e-05 -7.06850e-06 2.05590e-06 7.32200e-05 -2.39860e-05 -1.50050e-05 -3.98350e-05 -4.34970e-06 1.17580e-05 4.14480e-05 2.41320e-05 -2.50540e-05 -1.73630e-05 -9.54710e-06 1.90200e-05 -2.69850e-07</DataArray>
<DataArray type="Float64"                                    Name="Pressure"                                                      NumberOfComponents="1" format="ascii">
-7.43680e-01 -4.86910e-01 -3.22800e-01 -3.60460e-01 -3.33560e-01 -3.23510e-01 -3.31930e-01 -3.31250e-01 -3.23690e-01 -3.19390e-01 -3.13530e-01 -3.06560e-01 -2.99580e-01 -2.93140e-01 -2.86180e-01 -2.79520e-01 -2.72650e-01 -2.62390e-01 -2.59230e-01 -2.52660e-01 -2.46080e-01 -2.39650e-01 -2.33260e-01 -2.27000e-01 -2.20800e-01 -2.11660e-01 -2.08710e-01 -2.02800e-01 -1.96990e-01 -1.91270e-01 -1.85640e-01 -1.80100e-01 -1.74660e-01 -1.71960e-01 -1.64040e-01 -1.58870e-01 -1.53790e-01 -1.48800e-01 -1.43900e-01 -1.41470e-01 -1.34370e-01 -1.29730e-01 -1.25180e-01 -1.20720e-01 -1.16350e-01 -1.12060e-01 -1.09940e-01 -1.03740e-01 -9.97090e-02 -9.57620e-02 -9.18990e-02 -8.81190e-02 -8.25960e-02 -8.08090e-02 -7.72780e-02 -7.38290e-02 -7.04610e-02 -6.71740e-02 -6.55510e-02 -6.08430e-02 -5.77980e-02 -5.48320e-02 -5.05220e-02 -4.91380e-02 -4.64100e-02 -4.37600e-02 -4.11880e-02 -3.86930e-02 -3.62760e-02 -3.39370e-02 -3.16740e-02 -2.94880e-02 -2.73790e-02 -2.53450e-02 -2.33880e-02 -2.15060e-02 -1.97000e-02 -1.88150e-02 -1.63130e-02 -1.47320e-02 -1.32260e-02 -1.17940e-02 -1.04370e-02 -9.15390e-03 -7.94490e-03 -6.80980e-03 -5.74840e-03 -4.76060e-03 -4.28500e-03 -3.00440e-03 -2.23540e-03 -1.53890e-03 -9.14510e-04 -3.62310e-04 3.38600e-04 5.22100e-04 8.48830e-04 1.09090e-03 1.23830e-03 1.30710e-03 1.32720e-03 -7.24860e-01 -5.01660e-01 -3.40790e-01 -3.66540e-01 -3.43950e-01 -3.34140e-01 -3.36650e-01 -3.32810e-01 -3.25550e-01 -3.19850e-01 -3.15070e-01 -3.06470e-01 -2.99490e-01 -2.92810e-01 -2.85860e-01 -2.79100e-01 -2.72240e-01 -2.62000e-01 -2.58820e-01 -2.52240e-01 -2.45680e-01 -2.39260e-01 -2.32890e-01 -2.26640e-01 -2.20460e-01 -2.11350e-01 -2.08390e-01 -2.02510e-01 -1.96700e-01 -1.91000e-01 -1.85380e-01 -1.79860e-01 -1.74420e-01 -1.71730e-01 -1.63830e-01 -1.58670e-01 -1.53600e-01 -1.48620e-01 -1.43730e-01 -1.41300e-01 -1.34210e-01 -1.29580e-01 -1.25040e-01 -1.20580e-01 -1.16210e-01 -1.11930e-01 -1.09810e-01 -1.03620e-01 -9.95970e-02 -9.56540e-02 -9.17940e-02 -8.80180e-02 -8.24990e-02 -8.07150e-02 -7.71860e-02 -7.37400e-02 -7.03740e-02 -6.70900e-02 -6.54680e-02 -6.07630e-02 -5.77190e-02 -5.47550e-02 -5.04470e-02 -4.90640e-02 -4.63370e-02 -4.36870e-02 -4.11160e-02 -3.86230e-02 -3.62070e-02 -3.38680e-02 -3.16060e-02 -2.94200e-02 -2.73110e-02 -2.52780e-02 -2.33210e-02 -2.14390e-02 -1.96330e-02 -1.87490e-02 -1.62470e-02 -1.46660e-02 -1.31600e-02 -1.17280e-02 -1.03710e-02 -9.08740e-03 -7.87830e-03 -6.74310e-03 -5.68160e-03 -4.69350e-03 -4.21790e-03 -2.93710e-03 -2.16830e-03 -1.47230e-03 -8.48960e-04 -2.98860e-04 3.96380e-04 5.76030e-04 8.93870e-04 1.12240e-03 1.25430e-03 1.31000e-03 1.32410e-03 -7.33860e-01 -5.20970e-01 -3.59280e-01 -3.77780e-01 -3.55750e-01 -3.44760e-01 -3.44180e-01 -3.36370e-01 -3.27690e-01 -3.20990e-01 -3.15460e-01 -3.06370e-01 -2.99000e-01 -2.92130e-01 -2.85010e-01 -2.78200e-01 -2.71280e-01 -2.61610e-01 -2.57000e-01 -2.51290e-01 -2.44760e-01 -2.38360e-01 -2.32020e-01 -2.25800e-01 -2.19650e-01 -2.10580e-01 -2.07640e-01 -2.01780e-01 -1.96010e-01 -1.90330e-01 -1.84740e-01 -1.79240e-01 -1.73830e-01 -1.71150e-01 -1.63290e-01 -1.58150e-01 -1.53100e-01 -1.48130e-01 -1.43260e-01 -1.40850e-01 -1.33780e-01 -1.29160e-01 -1.24640e-01 -1.20200e-01 -1.15850e-01 -1.11580e-01 -1.09460e-01 -1.03300e-01 -9.92800e-02 -9.53490e-02 -9.15000e-02 -8.77350e-02 -8.22310e-02 -8.04510e-02 -7.69320e-02 -7.34940e-02 -7.01370e-02 -6.68610e-02 -6.41450e-02 -6.19510e-02 -5.75120e-02 -5.45550e-02 -5.02570e-02 -4.88760e-02 -4.61550e-02 -4.35110e-02 -4.09450e-02 -3.84570e-02 -3.60450e-02 -3.37110e-02 -3.14530e-02 -2.92720e-02 -2.71660e-02 -2.51370e-02 -2.31830e-02 -2.13050e-02 -1.95020e-02 -1.86190e-02 -1.68680e-02 -1.45430e-02 -1.30390e-02 -1.16090e-02 -1.02540e-02 -8.97300e-03 -7.76570e-03 -6.63210e-03 -5.57200e-03 -4.58550e-03 -4.11050e-03 -2.83210e-03 -2.06530e-03 -1.37180e-03 -7.52040e-04 -2.07130e-04 4.76200e-04 6.49560e-04 9.52970e-04 1.16220e-03 1.27400e-03 1.31230e-03 1.31790e-03 -7.55910e-01 -5.29510e-01 -3.62650e-01 -3.83560e-01 -3.59800e-01 -3.58680e-01 -3.49810e-01 -3.36580e-01 -3.29090e-01 -3.21940e-01 -3.15660e-01 -3.10840e-01 -2.98660e-01 -2.91650e-01 -2.84380e-01 -2.77520e-01 -2.70540e-01 -2.63830e-01 -2.54210e-01 -2.49490e-01 -2.44010e-01 -2.37640e-01 -2.31310e-01 -2.25110e-01 -2.15770e-01 -2.11880e-01 -2.07010e-01 -2.01170e-01 -1.95420e-01 -1.89760e-01 -1.84190e-01 -1.78710e-01 -1.73320e-01 -1.70650e-01 -1.62800e-01 -1.57680e-01 -1.52650e-01 -1.47700e-01 -1.42840e-01 -1.40440e-01 -1.33390e-01 -1.28790e-01 -1.24270e-01 -1.19850e-01 -1.15510e-01 -1.11250e-01 -1.09140e-01 -1.02990e-01 -9.89860e-02 -9.50650e-02 -9.12270e-02 -8.74720e-02 -8.19820e-02 -8.02070e-02 -7.66970e-02 -7.32670e-02 -6.99190e-02 -6.66510e-02 -6.34630e-02 -6.08450e-02 -5.87590e-02 -5.43740e-02 -5.00870e-02 -4.87100e-02 -4.59940e-02 -4.33570e-02 -4.07970e-02 -3.83140e-02 -3.46800e-02 -3.35360e-02 -3.12840e-02 -2.91090e-02 -2.70100e-02 -2.49860e-02 -2.39930e-02 -2.12010e-02 -1.94020e-02 -1.85210e-02 -1.62870e-02 -1.44220e-02 -1.36530e-02 -1.15270e-02 -1.01750e-02 -8.89620e-03 -7.69140e-03 -6.56030e-03 -5.50260e-03 -4.51830e-03 -4.04460e-03 -3.14530e-03 -2.00580e-03 -1.31570e-03 -7.00050e-04 -1.60280e-04 5.13150e-04 6.82530e-04 9.77380e-04 1.17790e-03 1.28230e-03 1.31450e-03 1.31730e-03 -7.59290e-01 -5.35620e-01 -3.66090e-01 -3.85510e-01 -3.62740e-01 -3.60850e-01 -3.51180e-01 -3.33000e-01 -3.30200e-01 -3.22200e-01 -3.17020e-01 -3.08120e-01 -3.01520e-01 -2.91570e-01 -2.84240e-01 -2.77300e-01 -2.70300e-01 -2.63560e-01 -2.56810e-01 -2.46920e-01 -2.42710e-01 -2.37350e-01 -2.31030e-01 -2.24840e-01 -2.15720e-01 -2.12700e-01 -2.06760e-01 -2.00930e-01 -1.95180e-01 -1.89530e-01 -1.83970e-01 -1.78500e-01 -1.73110e-01 -1.70450e-01 -1.62610e-01 -1.57500e-01 -1.52470e-01 -1.47530e-01 -1.42670e-01 -1.38680e-01 -1.35510e-01 -1.28640e-01 -1.24130e-01 -1.19710e-01 -1.15370e-01 -1.11120e-01 -1.09010e-01 -1.02870e-01 -9.88670e-02 -9.49500e-02 -9.11160e-02 -8.73640e-02 -8.18790e-02 -8.01060e-02 -7.65990e-02 -7.31730e-02 -6.98270e-02 -6.65620e-02 -6.33760e-02 -6.02710e-02 -5.77350e-02 -5.57290e-02 -5.00320e-02 -4.81840e-02 -4.59230e-02 -4.32880e-02 -3.94520e-02 -3.82310e-02 -3.54450e-02 -3.35180e-02 -3.12680e-02 -2.90930e-02 -2.69940e-02 -2.49710e-02 -2.33360e-02 -2.11350e-02 -2.02180e-02 -1.84870e-02 -1.59820e-02 -1.44080e-02 -1.31480e-02 -1.14700e-02 -1.01190e-02 -8.84180e-03 -8.22160e-03 -6.52050e-03 -5.46370e-03 -4.48040e-03 -4.00710e-03 -2.86370e-03 -1.96090e-03 -1.59830e-03 -6.70140e-04 1.23500e-04 3.32380e-04 7.07920e-04 9.97270e-04 1.12000e-03 1.28990e-03 1.32010e-03 1.32260e-03 -7.68440e-01 -5.37770e-01 -3.66660e-01 -3.86820e-01 -3.63040e-01 -3.62050e-01 -3.51180e-01 -3.41410e-01 -3.30770e-01 -3.23130e-01 -3.14190e-01 -3.06760e-01 -2.99700e-01 -2.96050e-01 -2.84220e-01 -2.77290e-01 -2.70250e-01 -2.63510e-01 -2.56750e-01 -2.46770e-01 -2.40560e-01 -2.37290e-01 -2.30970e-01 -2.24770e-01 -2.15660e-01 -2.12640e-01 -2.06700e-01 -2.00880e-01 -1.95130e-01 -1.89480e-01 -1.83910e-01 -1.78450e-01 -1.73060e-01 -1.70400e-01 -1.62570e-01 -1.57450e-01 -1.52420e-01 -1.47490e-01 -1.42630e-01 -1.37870e-01 -1.35510e-01 -1.28600e-01 -1.24090e-01 -1.19670e-01 -1.15340e-01 -1.11090e-01 -1.08980e-01 -1.02840e-01 -9.88370e-02 -9.49210e-02 -9.10870e-02 -8.73360e-02 -8.18530e-02 -8.00790e-02 -7.65730e-02 -7.31480e-02 -6.98030e-02 -6.65380e-02 -6.33540e-02 -6.02480e-02 -5.72220e-02 -5.57290e-02 -5.28210e-02 -4.72410e-02 -4.54580e-02 -4.19710e-02 -4.02920e-02 -3.82310e-02 -3.58280e-02 -3.35010e-02 -3.12510e-02 -2.90760e-02 -2.69780e-02 -2.49550e-02 -2.30080e-02 -2.11350e-02 -2.02180e-02 -1.76160e-02 -1.59680e-02 -1.43940e-02 -1.28950e-02 -1.14700e-02 -1.01190e-02 -8.84180e-03 -7.83260e-03 -6.50810e-03 -5.96150e-03 -4.62620e-03 -3.99540e-03 -2.72290e-03 -1.96090e-03 -1.38160e-03 -3.73510e-04 -4.21670e-05 3.32380e-04 7.07920e-04 9.97270e-04 1.16840e-03 1.26520e-03 1.32280e-03 1.32520e-03 -7.59290e-01 -5.35620e-01 -3.66090e-01 -3.85510e-01 -3.62740e-01 -3.60850e-01 -3.48780e-01 -3.40550e-01 -3.30480e-01 -3.22670e-01 -3.14060e-01 -3.06560e-01 -2.98760e-01 -2.95810e-01 -2.84240e-01 -2.77300e-01 -2.70300e-01 -2.63560e-01 -2.56810e-01 -2.46840e-01 -2.43730e-01 -2.37350e-01 -2.31030e-01 -2.24840e-01 -2.15660e-01 -2.11670e-01 -2.06760e-01 -2.00930e-01 -1.95180e-01 -1.89530e-01 -1.83970e-01 -1.78500e-01 -1.73110e-01 -1.70450e-01 -1.62610e-01 -1.57500e-01 -1.52470e-01 -1.47530e-01 -1.42670e-01 -1.37910e-01 -1.35550e-01 -1.28640e-01 -1.24130e-01 -1.19710e-01 -1.15370e-01 -1.11120e-01 -1.09010e-01 -1.02870e-01 -9.88670e-02 -9.49500e-02 -9.11160e-02 -8.73640e-02 -8.18790e-02 -8.01060e-02 -7.65990e-02 -7.31730e-02 -6.98270e-02 -6.65620e-02 -6.33760e-02 -6.02710e-02 -5.77350e-02 -5.57290e-02 -5.14270e-02 -4.86360e-02 -4.45670e-02 -4.19900e-02 -4.07300e-02 -3.82490e-02 -3.58460e-02 -3.35180e-02 -3.12680e-02 -2.90930e-02 -2.69940e-02 -2.49710e-02 -2.30230e-02 -2.11500e-02 -1.96510e-02 -1.84870e-02 -1.59820e-02 -1.44080e-02 -1.29090e-02 -1.14830e-02 -1.01320e-02 -8.85460e-03 -7.65070e-03 -6.52050e-03 -5.97380e-03 -4.94170e-03 -3.57050e-03 -2.73410e-03 -1.97160e-03 -1.28330e-03 -3.82360e-04 -1.33350e-04 3.25150e-04 7.01910e-04 9.92500e-04 1.18890e-03 1.27970e-03 1.31740e-03 1.31990e-03 -7.55910e-01 -5.29510e-01 -3.62650e-01 -3.83560e-01 -3.59800e-01 -3.36810e-01 -3.44330e-01 -3.39030e-01 -3.29090e-01 -3.21940e-01 -3.13490e-01 -3.06350e-01 -2.98660e-01 -2.95930e-01 -2.84380e-01 -2.77520e-01 -2.70540e-01 -2.63830e-01 -2.57090e-01 -2.47130e-01 -2.44010e-01 -2.37640e-01 -2.31310e-01 -2.25110e-01 -2.18980e-01 -2.09930e-01 -2.07010e-01 -2.01170e-01 -1.95420e-01 -1.89760e-01 -1.84190e-01 -1.78710e-01 -1.73320e-01 -1.70650e-01 -1.62800e-01 -1.57680e-01 -1.52650e-01 -1.47700e-01 -1.42840e-01 -1.38070e-01 -1.35710e-01 -1.28790e-01 -1.24270e-01 -1.19850e-01 -1.15510e-01 -1.11250e-01 -1.07800e-01 -1.05110e-01 -9.89860e-02 -9.50660e-02 -9.12270e-02 -8.74720e-02 -8.19820e-02 -8.02070e-02 -7.66970e-02 -7.32670e-02 -6.99190e-02 -6.66510e-02 -6.34630e-02 -6.03540e-02 -5.88200e-02 -5.43740e-02 -5.15030e-02 -4.87100e-02 -4.59940e-02 -4.20580e-02 -4.07970e-02 -3.83140e-02 -3.59080e-02 -3.35790e-02 -3.13270e-02 -2.91500e-02 -2.70490e-02 -2.50250e-02 -2.30750e-02 -2.12010e-02 -1.94020e-02 -1.85210e-02 -1.60290e-02 -1.44540e-02 -1.29530e-02 -1.15270e-02 -1.01750e-02 -8.89620e-03 -7.69140e-03 -6.56030e-03 -5.68160e-03 -5.01860e-03 -3.60740e-03 -2.76980e-03 -2.00580e-03 -1.31570e-03 -4.10940e-04 -1.60280e-04 3.01770e-04 6.82530e-04 9.77380e-04 1.17790e-03 1.28230e-03 1.31450e-03 1.31730e-03 -7.33860e-01 -5.20970e-01 -3.59280e-01 -3.77780e-01 -3.55750e-01 -3.40790e-01 -3.42340e-01 -3.36370e-01 -3.27690e-01 -3.20990e-01 -3.13220e-01 -3.06370e-01 -2.99000e-01 -2.96250e-01 -2.85010e-01 -2.78200e-01 -2.71280e-01 -2.64580e-01 -2.57850e-01 -2.47890e-01 -2.44760e-01 -2.38360e-01 -2.32020e-01 -2.25800e-01 -2.19650e-01 -2.10580e-01 -2.07640e-01 -2.01780e-01 -1.96010e-01 -1.90330e-01 -1.84740e-01 -1.79240e-01 -1.73830e-01 -1.71150e-01 -1.63290e-01 -1.58150e-01 -1.53100e-01 -1.48130e-01 -1.43260e-01 -1.38480e-01 -1.36100e-01 -1.29160e-01 -1.24640e-01 -1.20200e-01 -1.15850e-01 -1.11580e-01 -1.07390e-01 -1.05320e-01 -9.92800e-02 -9.53490e-02 -9.15000e-02 -8.77350e-02 -8.22310e-02 -8.04510e-02 -7.69320e-02 -7.34940e-02 -7.01370e-02 -6.68610e-02 -6.36650e-02 -6.05490e-02 -5.90110e-02 -5.45550e-02 -5.16760e-02 -4.88760e-02 -4.61550e-02 -4.22090e-02 -4.09450e-02 -3.84570e-02 -3.60450e-02 -3.37110e-02 -3.14530e-02 -2.92720e-02 -2.71660e-02 -2.51370e-02 -2.31830e-02 -2.13050e-02 -1.95020e-02 -1.86190e-02 -1.61210e-02 -1.45430e-02 -1.30390e-02 -1.16090e-02 -1.02540e-02 -8.97300e-03 -7.76570e-03 -6.63210e-03 -5.57200e-03 -5.06040e-03 -3.67220e-03 -2.83210e-03 -2.06530e-03 -1.37180e-03 -4.60640e-04 -2.07130e-04 2.61290e-04 6.49560e-04 9.52970e-04 1.16220e-03 1.27400e-03 1.31230e-03 1.31790e-03 -7.24860e-01 -5.01660e-01 -3.40790e-01 -3.66540e-01 -3.43950e-01 -3.34140e-01 -3.36650e-01 -3.32810e-01 -3.25550e-01 -3.19850e-01 -3.12880e-01 -3.06470e-01 -2.99490e-01 -2.96720e-01 -2.85860e-01 -2.79100e-01 -2.72240e-01 -2.65540e-01 -2.58820e-01 -2.48840e-01 -2.45680e-01 -2.39260e-01 -2.32890e-01 -2.26640e-01 -2.20460e-01 -2.11350e-01 -2.08390e-01 -2.02510e-01 -1.96700e-01 -1.91000e-01 -1.85380e-01 -1.79860e-01 -1.74420e-01 -1.71730e-01 -1.63830e-01 -1.58670e-01 -1.53600e-01 -1.48620e-01 -1.43730e-01 -1.38920e-01 -1.36540e-01 -1.29580e-01 -1.25040e-01 -1.20580e-01 -1.16210e-01 -1.11930e-01 -1.07740e-01 -1.05660e-01 -9.95970e-02 -9.56540e-02 -9.17940e-02 -8.80180e-02 -8.25000e-02 -8.07150e-02 -7.71860e-02 -7.37400e-02 -7.03740e-02 -6.70900e-02 -6.38860e-02 -6.07630e-02 -5.92210e-02 -5.47550e-02 -5.18700e-02 -4.90640e-02 -4.63370e-02 -4.23820e-02 -4.11160e-02 -3.86230e-02 -3.62070e-02 -3.38680e-02 -3.16060e-02 -2.94200e-02 -2.73110e-02 -2.52780e-02 -2.33210e-02 -2.14390e-02 -1.96330e-02 -1.87490e-02 -1.62470e-02 -1.46660e-02 -1.31600e-02 -1.17280e-02 -1.03710e-02 -9.08740e-03 -7.87830e-03 -6.74310e-03 -5.68160e-03 -5.16920e-03 -3.77880e-03 -2.93710e-03 -2.16830e-03 -1.47230e-03 -5.55460e-04 -2.98850e-04 1.77060e-04 5.76030e-04 8.93870e-04 1.12240e-03 1.25430e-03 1.31010e-03 1.32420e-03 -7.43680e-01 -4.86910e-01 -3.22800e-01 -3.60460e-01 -3.33560e-01 -3.23510e-01 -3.31930e-01 -3.31250e-01 -3.23690e-01 -3.19390e-01 -3.12360e-01 -3.06560e-01 -2.99580e-01 -2.97230e-01 -2.86180e-01 -2.79520e-01 -2.72650e-01 -2.65970e-01 -2.59230e-01 -2.49240e-01 -2.46080e-01 -2.39650e-01 -2.33260e-01 -2.27000e-01 -2.20800e-01 -2.11660e-01 -2.08710e-01 -2.02800e-01 -1.96990e-01 -1.91270e-01 -1.85640e-01 -1.80100e-01 -1.74660e-01 -1.71960e-01 -1.64040e-01 -1.58870e-01 -1.53790e-01 -1.48800e-01 -1.43900e-01 -1.39090e-01 -1.36700e-01 -1.29730e-01 -1.25180e-01 -1.20720e-01 -1.16350e-01 -1.12060e-01 -1.07860e-01 -1.05780e-01 -9.97100e-02 -9.57620e-02 -9.18990e-02 -8.81190e-02 -8.25960e-02 -8.08090e-02 -7.72780e-02 -7.38290e-02 -7.04610e-02 -6.71740e-02 -6.39680e-02 -6.08430e-02 -5.93000e-02 -5.48320e-02 -5.19460e-02 -4.91380e-02 -4.64100e-02 -4.24540e-02 -4.11880e-02 -3.86930e-02 -3.62760e-02 -3.39370e-02 -3.16740e-02 -2.94880e-02 -2.73790e-02 -2.53450e-02 -2.33880e-02 -2.15060e-02 -1.97000e-02 -1.88150e-02 -1.63130e-02 -1.47320e-02 -1.32260e-02 -1.17940e-02 -1.04370e-02 -9.15390e-03 -7.94490e-03 -6.80980e-03 -5.74840e-03 -5.23620e-03 -3.84600e-03 -3.00440e-03 -2.23540e-03 -1.53890e-03 -6.20310e-04 -3.62310e-04 1.17150e-04 5.22100e-04 8.48840e-04 1.09090e-03 1.23840e-03 1.30710e-03 1.32730e-03 -6.30060e-01 -4.32930e-01 -2.85410e-01 -3.07570e-01 -2.89660e-01 -2.86050e-01 -2.86330e-01 -2.83870e-01 -2.78920e-01 -2.74490e-01 -2.55390e-01 -2.21630e-01 -2.58590e-01 -2.52940e-01 -2.47300e-01 -2.41540e-01 -2.35850e-01 -2.27410e-01 -2.24480e-01 -2.18840e-01 -2.13300e-01 -2.07780e-01 -2.02370e-01 -1.97000e-01 -1.91720e-01 -1.83940e-01 -1.81370e-01 -1.76310e-01 -1.71330e-01 -1.66410e-01 -1.61580e-01 -1.56820e-01 -1.52140e-01 -1.49810e-01 -1.43000e-01 -1.38540e-01 -1.34160e-01 -1.29850e-01 -1.25610e-01 -1.23510e-01 -1.17370e-01 -1.13350e-01 -1.09410e-01 -1.05550e-01 -1.01750e-01 -9.80320e-02 -9.61900e-02 -9.08080e-02 -8.73030e-02 -8.38700e-02 -8.05090e-02 -7.72180e-02 -7.24060e-02 -7.08490e-02 -6.77710e-02 -6.47620e-02 -6.18230e-02 -5.89540e-02 -5.75370e-02 -5.34230e-02 -5.07610e-02 -4.81680e-02 -4.43980e-02 -4.31870e-02 -4.07980e-02 -3.84780e-02 -3.62250e-02 -3.40390e-02 -3.19210e-02 -2.98700e-02 -2.78850e-02 -2.59680e-02 -2.41170e-02 -2.23320e-02 -2.06130e-02 -1.89610e-02 -1.73740e-02 -1.65980e-02 -1.43990e-02 -1.30090e-02 -1.16850e-02 -1.04270e-02 -9.23320e-03 -8.10480e-03 -7.04140e-03 -6.04290e-03 -5.10910e-03 -4.23980e-03 -3.82130e-03 -2.69420e-03 -2.01720e-03 -1.40370e-03 -8.53380e-04 -3.65710e-04 2.55860e-04 4.21680e-04 7.19670e-04 9.53600e-04 1.11510e-03 1.24170e-03 1.30840e-03 -6.20890e-01 -4.59180e-01 -3.08620e-01 -3.12150e-01 -3.00290e-01 -2.96360e-01 -2.91470e-01 -2.86130e-01 -2.81440e-01 -2.75780e-01 -2.57260e-01 -2.23080e-01 -2.59290e-01 -2.53410e-01 -2.47740e-01 -2.41880e-01 -2.36180e-01 -2.27710e-01 -2.24770e-01 -2.19110e-01 -2.13570e-01 -2.08050e-01 -2.02640e-01 -1.97270e-01 -1.91990e-01 -1.84210e-01 -1.81640e-01 -1.76580e-01 -1.71600e-01 -1.66680e-01 -1.61850e-01 -1.57090e-01 -1.52400e-01 -1.50080e-01 -1.43260e-01 -1.38790e-01 -1.34410e-01 -1.30090e-01 -1.25850e-01 -1.23750e-01 -1.17600e-01 -1.13580e-01 -1.09630e-01 -1.05760e-01 -1.01960e-01 -9.82350e-02 -9.63900e-02 -9.09970e-02 -8.74860e-02 -8.40460e-02 -8.06770e-02 -7.73800e-02 -7.25570e-02 -7.09970e-02 -6.79110e-02 -6.48950e-02 -6.19480e-02 -5.90720e-02 -5.76510e-02 -5.35260e-02 -5.08570e-02 -4.82570e-02 -4.44760e-02 -4.32610e-02 -4.08660e-02 -3.85380e-02 -3.62780e-02 -3.40860e-02 -3.19610e-02 -2.99030e-02 -2.79120e-02 -2.59880e-02 -2.41310e-02 -2.23400e-02 -2.06160e-02 -1.89580e-02 -1.73660e-02 -1.65870e-02 -1.43800e-02 -1.29860e-02 -1.16570e-02 -1.03940e-02 -9.19600e-03 -8.06340e-03 -6.99610e-03 -5.99380e-03 -5.05640e-03 -4.18390e-03 -3.76370e-03 -2.63240e-03 -1.95310e-03 -1.33790e-03 -7.86590e-04 -2.99210e-04 3.19110e-04 4.81390e-04 7.71370e-04 9.91290e-04 1.13860e-03 1.25990e-03 1.32600e-03 -6.36190e-01 -4.91870e-01 -3.36670e-01 -3.23210e-01 -3.12320e-01 -3.06660e-01 -2.96520e-01 -2.90200e-01 -2.84240e-01 -2.77620e-01 -2.58650e-01 -2.24530e-01 -2.59590e-01 -2.53500e-01 -2.47680e-01 -2.41740e-01 -2.35990e-01 -2.28010e-01 -2.23730e-01 -2.18880e-01 -2.13350e-01 -2.07850e-01 -2.02440e-01 -1.97090e-01 -1.91830e-01 -1.84070e-01 -1.81520e-01 -1.76470e-01 -1.71500e-01 -1.66600e-01 -1.61780e-01 -1.57030e-01 -1.52350e-01 -1.50030e-01 -1.43230e-01 -1.38770e-01 -1.34390e-01 -1.30090e-01 -1.25850e-01 -1.23750e-01 -1.17610e-01 -1.13590e-01 -1.09650e-01 -1.05780e-01 -1.01980e-01 -9.82570e-02 -9.64120e-02 -9.10210e-02 -8.75090e-02 -8.40690e-02 -8.07000e-02 -7.74010e-02 -7.25760e-02 -7.10150e-02 -6.79260e-02 -6.49080e-02 -6.19590e-02 -5.90800e-02 -5.66980e-02 -5.47790e-02 -5.08560e-02 -4.82520e-02 -4.44660e-02 -4.32490e-02 -4.08500e-02 -3.85180e-02 -3.62550e-02 -3.40580e-02 -3.19290e-02 -2.98680e-02 -2.78730e-02 -2.59450e-02 -2.40840e-02 -2.22890e-02 -2.05610e-02 -1.88990e-02 -1.73030e-02 -1.65220e-02 -1.49730e-02 -1.29120e-02 -1.15800e-02 -1.03140e-02 -9.11260e-03 -7.97700e-03 -6.90670e-03 -5.90160e-03 -4.96160e-03 -4.08650e-03 -3.66530e-03 -2.53120e-03 -1.85070e-03 -1.23510e-03 -6.84750e-04 -2.00150e-04 4.09240e-04 5.65820e-04 8.42040e-04 1.04190e-03 1.17110e-03 1.28240e-03 1.34460e-03 -6.52210e-01 -5.01800e-01 -3.45360e-01 -3.30830e-01 -3.16640e-01 -3.08520e-01 -2.77370e-01 -2.84840e-01 -2.85530e-01 -2.78380e-01 -2.58840e-01 -2.24250e-01 -2.59250e-01 -2.53000e-01 -2.47070e-01 -2.41070e-01 -2.35280e-01 -2.29470e-01 -2.21070e-01 -2.17350e-01 -2.12650e-01 -2.07170e-01 -2.01790e-01 -1.96460e-01 -1.88410e-01 -1.85140e-01 -1.80950e-01 -1.75920e-01 -1.70980e-01 -1.66100e-01 -1.61300e-01 -1.56570e-01 -1.51910e-01 -1.49600e-01 -1.42820e-01 -1.38380e-01 -1.34020e-01 -1.29730e-01 -1.25510e-01 -1.23420e-01 -1.17290e-01 -1.13290e-01 -1.09360e-01 -1.05500e-01 -1.01720e-01 -9.80030e-02 -9.61640e-02 -9.07870e-02 -8.72850e-02 -8.38540e-02 -8.04940e-02 -7.72030e-02 -7.23900e-02 -7.08320e-02 -6.77510e-02 -6.47400e-02 -6.17980e-02 -5.89250e-02 -5.61200e-02 -5.38210e-02 -5.19920e-02 -4.81190e-02 -4.43400e-02 -4.31250e-02 -4.07300e-02 -3.84030e-02 -3.61430e-02 -3.39510e-02 -3.07470e-02 -2.97350e-02 -2.77440e-02 -2.58200e-02 -2.39620e-02 -2.21710e-02 -2.12920e-02 -1.88150e-02 -1.72210e-02 -1.64410e-02 -1.44610e-02 -1.28100e-02 -1.21280e-02 -1.02410e-02 -9.04110e-03 -7.90690e-03 -6.83780e-03 -5.83390e-03 -4.89510e-03 -4.02120e-03 -3.60060e-03 -2.80080e-03 -1.78990e-03 -1.17660e-03 -6.29320e-04 -1.48860e-04 4.51790e-04 6.04650e-04 8.72220e-04 1.06330e-03 1.18590e-03 1.29060e-03 1.34900e-03 -6.51210e-01 -5.07090e-01 -3.50300e-01 -3.33480e-01 -3.19900e-01 -3.10430e-01 -2.39400e-01 -2.75280e-01 -2.86560e-01 -2.78600e-01 -2.59520e-01 -2.23970e-01 -2.62980e-01 -2.52850e-01 -2.46880e-01 -2.40800e-01 -2.35000e-01 -2.29160e-01 -2.23500e-01 -2.15290e-01 -2.11430e-01 -2.06860e-01 -2.01490e-01 -1.96170e-01 -1.88310e-01 -1.85780e-01 -1.80690e-01 -1.75680e-01 -1.70740e-01 -1.65870e-01 -1.61080e-01 -1.56360e-01 -1.51710e-01 -1.49400e-01 -1.42640e-01 -1.38210e-01 -1.33850e-01 -1.29570e-01 -1.25360e-01 -1.21880e-01 -1.19110e-01 -1.13150e-01 -1.09230e-01 -1.05380e-01 -1.01600e-01 -9.78880e-02 -9.60510e-02 -9.06810e-02 -8.71830e-02 -8.37560e-02 -8.03990e-02 -7.71120e-02 -7.23050e-02 -7.07480e-02 -6.76700e-02 -6.46620e-02 -6.17230e-02 -5.88520e-02 -5.60500e-02 -5.33170e-02 -5.10830e-02 -4.93130e-02 -4.43010e-02 -4.26690e-02 -4.06730e-02 -3.83470e-02 -3.49580e-02 -3.38790e-02 -3.14200e-02 -2.97170e-02 -2.77270e-02 -2.58030e-02 -2.39460e-02 -2.21550e-02 -2.07070e-02 -1.87570e-02 -1.79440e-02 -1.64140e-02 -1.41910e-02 -1.27960e-02 -1.16780e-02 -1.01890e-02 -8.99000e-03 -7.85650e-03 -6.69930e-03 -5.48580e-03 -4.85880e-03 -3.98550e-03 -3.56510e-03 -2.54900e-03 -1.74590e-03 -1.42380e-03 -5.99460e-04 1.08660e-04 2.95010e-04 6.31520e-04 8.93710e-04 1.00570e-03 1.19480e-03 1.29690e-03 1.35430e-03 -6.58700e-01 -5.08890e-01 -3.51390e-01 -3.34980e-01 -3.20240e-01 -3.11560e-01 -2.97050e-01 -2.94520e-01 -2.86920e-01 -2.79300e-01 -2.72450e-01 -2.65570e-01 -2.60480e-01 -2.55470e-01 -2.46790e-01 -2.40720e-01 -2.34890e-01 -2.29060e-01 -2.23390e-01 -2.15070e-01 -2.09400e-01 -2.06760e-01 -2.01390e-01 -1.96070e-01 -1.88220e-01 -1.85680e-01 -1.80600e-01 -1.75590e-01 -1.70660e-01 -1.65790e-01 -1.61000e-01 -1.56280e-01 -1.51640e-01 -1.49330e-01 -1.42570e-01 -1.38140e-01 -1.33790e-01 -1.29510e-01 -1.25300e-01 -1.21160e-01 -1.19110e-01 -1.13110e-01 -1.09180e-01 -1.05330e-01 -1.01550e-01 -9.78450e-02 -9.60090e-02 -9.06420e-02 -8.71460e-02 -8.37200e-02 -8.03650e-02 -7.70790e-02 -7.22730e-02 -7.07170e-02 -6.76410e-02 -6.46330e-02 -6.16950e-02 -5.88250e-02 -5.60250e-02 -5.32920e-02 -5.06280e-02 -4.93130e-02 -4.67520e-02 -4.18320e-02 -4.02590e-02 -3.71820e-02 -3.56990e-02 -3.38790e-02 -3.17560e-02 -2.96990e-02 -2.77090e-02 -2.57860e-02 -2.39290e-02 -2.21390e-02 -2.04150e-02 -1.87570e-02 -1.72170e-02 -1.43110e-02 -1.41770e-02 -1.27820e-02 -1.14530e-02 -1.01890e-02 -8.99000e-03 -7.85650e-03 -6.75010e-03 -5.72510e-03 -5.29960e-03 -4.11380e-03 -3.55350e-03 -2.42310e-03 -1.74590e-03 -1.23100e-03 -3.34450e-04 -3.90460e-05 2.95010e-04 6.31520e-04 8.93710e-04 1.05490e-03 1.15330e-03 1.29930e-03 1.35600e-03 -6.51210e-01 -5.07090e-01 -3.50300e-01 -3.33480e-01 -3.19900e-01 -3.10430e-01 -2.94970e-01 -2.93790e-01 -2.86740e-01 -2.78950e-01 -2.72400e-01 -2.65460e-01 -2.59260e-01 -2.55380e-01 -2.46880e-01 -2.40800e-01 -2.35000e-01 -2.29160e-01 -2.23500e-01 -2.15180e-01 -2.12340e-01 -2.06860e-01 -2.01490e-01 -1.96170e-01 -1.88220e-01 -1.84900e-01 -1.80690e-01 -1.75680e-01 -1.70740e-01 -1.65870e-01 -1.61080e-01 -1.56360e-01 -1.51710e-01 -1.49400e-01 -1.42640e-01 -1.38210e-01 -1.33850e-01 -1.29570e-01 -1.25360e-01 -1.21220e-01 -1.19170e-01 -1.13150e-01 -1.09230e-01 -1.05380e-01 -1.01600e-01 -9.78880e-02 -9.60510e-02 -9.06810e-02 -8.71830e-02 -8.37560e-02 -8.03990e-02 -7.71120e-02 -7.23050e-02 -7.07480e-02 -6.76700e-02 -6.46620e-02 -6.17230e-02 -5.88520e-02 -5.60500e-02 -5.33170e-02 -5.10830e-02 -4.93130e-02 -4.55270e-02 -4.30660e-02 -3.94730e-02 -3.72010e-02 -3.60890e-02 -3.38980e-02 -3.17740e-02 -2.97170e-02 -2.77270e-02 -2.58030e-02 -2.39460e-02 -2.21550e-02 -2.04300e-02 -1.87720e-02 -1.69960e-02 -1.57130e-02 -1.41910e-02 -1.27960e-02 -1.14660e-02 -1.02020e-02 -9.00290e-03 -7.86910e-03 -6.80060e-03 -5.79720e-03 -5.31170e-03 -4.39400e-03 -3.17730e-03 -2.43430e-03 -1.75670e-03 -1.14480e-03 -3.43500e-04 -1.21520e-04 2.87440e-04 6.25140e-04 8.88570e-04 1.07570e-03 1.17890e-03 1.29460e-03 1.35260e-03 -6.52210e-01 -5.01800e-01 -3.45360e-01 -3.30830e-01 -3.16640e-01 -3.00330e-01 -2.96520e-01 -2.92530e-01 -2.85530e-01 -2.78380e-01 -2.71960e-01 -2.65360e-01 -2.59250e-01 -2.55570e-01 -2.47070e-01 -2.41070e-01 -2.35280e-01 -2.29470e-01 -2.23820e-01 -2.15490e-01 -2.12650e-01 -2.07170e-01 -2.01790e-01 -1.96460e-01 -1.91220e-01 -1.83500e-01 -1.80950e-01 -1.75920e-01 -1.70980e-01 -1.66100e-01 -1.61300e-01 -1.56570e-01 -1.51910e-01 -1.49600e-01 -1.42820e-01 -1.38380e-01 -1.34020e-01 -1.29730e-01 -1.25510e-01 -1.21370e-01 -1.19310e-01 -1.13290e-01 -1.09360e-01 -1.05500e-01 -1.01720e-01 -9.80030e-02 -9.49840e-02 -9.26240e-02 -8.72850e-02 -8.38540e-02 -8.04940e-02 -7.72030e-02 -7.23900e-02 -7.08320e-02 -6.77510e-02 -6.47400e-02 -6.17980e-02 -5.89250e-02 -5.61200e-02 -5.33850e-02 -5.20340e-02 -4.81190e-02 -4.55880e-02 -4.31250e-02 -4.07300e-02 -3.72560e-02 -3.61430e-02 -3.39510e-02 -3.18250e-02 -2.97670e-02 -2.77750e-02 -2.58500e-02 -2.39920e-02 -2.22000e-02 -2.04740e-02 -1.88150e-02 -1.72210e-02 -1.64410e-02 -1.42320e-02 -1.28360e-02 -1.15060e-02 -1.02410e-02 -9.04110e-03 -7.90690e-03 -6.83780e-03 -5.83390e-03 -5.05420e-03 -4.46610e-03 -3.21240e-03 -2.46860e-03 -1.78990e-03 -1.17660e-03 -3.72300e-04 -1.48860e-04 2.63190e-04 6.04650e-04 8.72220e-04 1.06330e-03 1.18590e-03 1.29060e-03 1.34900e-03 -6.36190e-01 -4.91870e-01 -3.36670e-01 -3.23210e-01 -3.12320e-01 -3.03490e-01 -2.97470e-01 -2.90200e-01 -2.84240e-01 -2.77620e-01 -2.71730e-01 -2.65450e-01 -2.59590e-01 -2.56040e-01 -2.47680e-01 -2.41740e-01 -2.35990e-01 -2.30190e-01 -2.24540e-01 -2.16180e-01 -2.13350e-01 -2.07850e-01 -2.02440e-01 -1.97090e-01 -1.91830e-01 -1.84070e-01 -1.81520e-01 -1.76470e-01 -1.71500e-01 -1.66600e-01 -1.61780e-01 -1.57030e-01 -1.52350e-01 -1.50030e-01 -1.43230e-01 -1.38770e-01 -1.34390e-01 -1.30090e-01 -1.25850e-01 -1.21690e-01 -1.19630e-01 -1.13590e-01 -1.09650e-01 -1.05780e-01 -1.01980e-01 -9.82570e-02 -9.46030e-02 -9.27940e-02 -8.75090e-02 -8.40690e-02 -8.07000e-02 -7.74010e-02 -7.25760e-02 -7.10150e-02 -6.79260e-02 -6.49080e-02 -6.19590e-02 -5.90800e-02 -5.62700e-02 -5.35280e-02 -5.21750e-02 -4.82520e-02 -4.57170e-02 -4.32490e-02 -4.08500e-02 -3.73700e-02 -3.62550e-02 -3.40580e-02 -3.19290e-02 -2.98680e-02 -2.78730e-02 -2.59450e-02 -2.40840e-02 -2.22890e-02 -2.05610e-02 -1.88990e-02 -1.73030e-02 -1.65220e-02 -1.43100e-02 -1.29120e-02 -1.15800e-02 -1.03140e-02 -9.11260e-03 -7.97700e-03 -6.90670e-03 -5.90160e-03 -4.96160e-03 -4.50780e-03 -3.27640e-03 -2.53120e-03 -1.85070e-03 -1.23510e-03 -4.25940e-04 -2.00150e-04 2.17440e-04 5.65820e-04 8.42030e-04 1.04190e-03 1.17110e-03 1.28240e-03 1.34460e-03 -6.20890e-01 -4.59180e-01 -3.08620e-01 -3.12150e-01 -3.00290e-01 -2.96360e-01 -2.91470e-01 -2.86130e-01 -2.81440e-01 -2.75780e-01 -2.70610e-01 -2.64800e-01 -2.59290e-01 -2.55860e-01 -2.47740e-01 -2.41880e-01 -2.36180e-01 -2.30410e-01 -2.24770e-01 -2.16400e-01 -2.13570e-01 -2.08050e-01 -2.02640e-01 -1.97270e-01 -1.91990e-01 -1.84210e-01 -1.81640e-01 -1.76580e-01 -1.71600e-01 -1.66680e-01 -1.61850e-01 -1.57090e-01 -1.52400e-01 -1.50080e-01 -1.43260e-01 -1.38790e-01 -1.34410e-01 -1.30090e-01 -1.25850e-01 -1.21690e-01 -1.19630e-01 -1.13580e-01 -1.09630e-01 -1.05760e-01 -1.01960e-01 -9.82350e-02 -9.45800e-02 -9.27710e-02 -8.74860e-02 -8.40460e-02 -8.06780e-02 -7.73800e-02 -7.25570e-02 -7.09970e-02 -6.79110e-02 -6.48950e-02 -6.19480e-02 -5.90720e-02 -5.62640e-02 -5.35260e-02 -5.21750e-02 -4.82570e-02 -4.57250e-02 -4.32610e-02 -4.08660e-02 -3.73910e-02 -3.62780e-02 -3.40860e-02 -3.19610e-02 -2.99030e-02 -2.79120e-02 -2.59880e-02 -2.41310e-02 -2.23400e-02 -2.06160e-02 -1.89580e-02 -1.73660e-02 -1.65870e-02 -1.43800e-02 -1.29860e-02 -1.16570e-02 -1.03940e-02 -9.19600e-03 -8.06340e-03 -6.99610e-03 -5.99380e-03 -5.05640e-03 -4.60400e-03 -3.37590e-03 -2.63240e-03 -1.95310e-03 -1.33790e-03 -5.26910e-04 -2.99210e-04 1.23800e-04 4.81400e-04 7.71380e-04 9.91290e-04 1.13860e-03 1.25990e-03 1.32610e-03 -6.30060e-01 -4.32930e-01 -2.85410e-01 -3.07570e-01 -2.89660e-01 -2.86050e-01 -2.86330e-01 -2.83870e-01 -2.78920e-01 -2.74490e-01 -2.69340e-01 -2.64050e-01 -2.58590e-01 -2.55490e-01 -2.47300e-01 -2.41540e-01 -2.35850e-01 -2.30120e-01 -2.24480e-01 -2.16130e-01 -2.13300e-01 -2.07780e-01 -2.02370e-01 -1.97000e-01 -1.91720e-01 -1.83940e-01 -1.81370e-01 -1.76310e-01 -1.71330e-01 -1.66410e-01 -1.61580e-01 -1.56820e-01 -1.52140e-01 -1.49810e-01 -1.43000e-01 -1.38540e-01 -1.34160e-01 -1.29850e-01 -1.25610e-01 -1.21450e-01 -1.19390e-01 -1.13350e-01 -1.09410e-01 -1.05550e-01 -1.01750e-01 -9.80330e-02 -9.43840e-02 -9.25780e-02 -8.73030e-02 -8.38700e-02 -8.05090e-02 -7.72180e-02 -7.24060e-02 -7.08490e-02 -6.77710e-02 -6.47620e-02 -6.18230e-02 -5.89540e-02 -5.61540e-02 -5.34230e-02 -5.20750e-02 -4.81680e-02 -4.56430e-02 -4.31870e-02 -4.07980e-02 -3.73340e-02 -3.62250e-02 -3.40390e-02 -3.19210e-02 -2.98700e-02 -2.78850e-02 -2.59680e-02 -2.41170e-02 -2.23320e-02 -2.06130e-02 -1.89610e-02 -1.73740e-02 -1.65980e-02 -1.43990e-02 -1.30090e-02 -1.16850e-02 -1.04270e-02 -9.23320e-03 -8.10480e-03 -7.04140e-03 -6.04290e-03 -5.10910e-03 -4.65830e-03 -3.43490e-03 -2.69420e-03 -2.01720e-03 -1.40370e-03 -5.94000e-04 -3.65700e-04 5.92240e-05 4.21690e-04 7.19680e-04 9.53610e-04 1.11520e-03 1.24170e-03 1.30850e-03 -4.49390e-01 -3.15500e-01 -2.06310e-01 -2.15160e-01 -2.05270e-01 -1.99700e-01 -2.01290e-01 -1.99500e-01 -1.96060e-01 -1.93360e-01 -1.89800e-01 -1.74890e-01 -1.46880e-01 -1.79180e-01 -1.75320e-01 -1.71550e-01 -1.67660e-01 -1.61800e-01 -1.59980e-01 -1.56190e-01 -1.52380e-01 -1.48630e-01 -1.44900e-01 -1.41220e-01 -1.37570e-01 -1.32160e-01 -1.30410e-01 -1.26900e-01 -1.23420e-01 -1.20000e-01 -1.16620e-01 -1.13290e-01 -1.10000e-01 -1.01070e-01 -8.64550e-02 -1.00420e-01 -9.73250e-02 -9.42750e-02 -9.12720e-02 -8.97830e-02 -8.54100e-02 -8.25510e-02 -7.97390e-02 -7.69760e-02 -7.42610e-02 -7.15940e-02 -7.02730e-02 -6.64050e-02 -6.38830e-02 -6.14090e-02 -5.89840e-02 -5.66070e-02 -5.31260e-02 -5.19970e-02 -4.97650e-02 -4.75820e-02 -4.54470e-02 -4.33600e-02 -4.23280e-02 -3.93310e-02 -3.73890e-02 -3.54960e-02 -3.27400e-02 -3.18530e-02 -3.01050e-02 -2.84040e-02 -2.67520e-02 -2.51480e-02 -2.35920e-02 -2.20840e-02 -2.06250e-02 -1.92130e-02 -1.78500e-02 -1.65350e-02 -1.52680e-02 -1.40480e-02 -1.28770e-02 -1.23040e-02 -1.06790e-02 -9.65150e-03 -8.67210e-03 -7.74060e-03 -6.85710e-03 -6.02140e-03 -5.23350e-03 -4.49350e-03 -3.80120e-03 -3.15650e-03 -2.84610e-03 -2.00950e-03 -1.50670e-03 -1.05050e-03 -6.40270e-04 -2.74910e-04 1.96040e-04 3.26660e-04 5.66150e-04 7.72740e-04 9.37810e-04 1.12340e-03 1.24160e-03 -4.55000e-01 -3.50790e-01 -2.32950e-01 -2.17770e-01 -2.12650e-01 -2.05880e-01 -2.04490e-01 -2.00870e-01 -1.97510e-01 -1.94060e-01 -1.90420e-01 -1.74730e-01 -1.45960e-01 -1.79280e-01 -1.75390e-01 -1.71590e-01 -1.67690e-01 -1.61830e-01 -1.60010e-01 -1.56220e-01 -1.52420e-01 -1.48680e-01 -1.44960e-01 -1.41290e-01 -1.37650e-01 -1.32270e-01 -1.30510e-01 -1.27010e-01 -1.23550e-01 -1.20130e-01 -1.16760e-01 -1.13440e-01 -1.10150e-01 -1.01030e-01 -8.60430e-02 -1.00590e-01 -9.74940e-02 -9.44460e-02 -9.14440e-02 -8.99560e-02 -8.55830e-02 -8.27230e-02 -7.99110e-02 -7.71470e-02 -7.44300e-02 -7.17600e-02 -7.04380e-02 -6.65650e-02 -6.40400e-02 -6.15620e-02 -5.91320e-02 -5.67510e-02 -5.32630e-02 -5.21320e-02 -4.98950e-02 -4.77060e-02 -4.55650e-02 -4.34730e-02 -4.24380e-02 -3.94320e-02 -3.74840e-02 -3.55850e-02 -3.28200e-02 -3.19300e-02 -3.01750e-02 -2.84680e-02 -2.68100e-02 -2.52000e-02 -2.36380e-02 -2.21240e-02 -2.06580e-02 -1.92410e-02 -1.78720e-02 -1.65510e-02 -1.52780e-02 -1.40530e-02 -1.28760e-02 -1.23000e-02 -1.06680e-02 -9.63540e-03 -8.65120e-03 -7.71520e-03 -6.82720e-03 -5.98720e-03 -5.19530e-03 -4.45140e-03 -3.75550e-03 -3.10740e-03 -2.79540e-03 -1.95450e-03 -1.44930e-03 -9.91190e-04 -5.79830e-04 -2.14680e-04 2.53620e-04 3.80250e-04 6.12130e-04 8.04660e-04 9.61030e-04 1.15780e-03 1.28550e-03 -4.85390e-01 -3.96430e-01 -2.68430e-01 -2.28060e-01 -2.21540e-01 -1.91760e-01 -2.00600e-01 -2.03810e-01 -1.99320e-01 -1.95310e-01 -1.91050e-01 -1.74720e-01 -1.44660e-01 -1.79210e-01 -1.75200e-01 -1.71350e-01 -1.67420e-01 -1.61860e-01 -1.59250e-01 -1.55970e-01 -1.52190e-01 -1.48480e-01 -1.44790e-01 -1.41150e-01 -1.37530e-01 -1.32180e-01 -1.30440e-01 -1.26960e-01 -1.23520e-01 -1.20130e-01 -1.16770e-01 -1.13470e-01 -1.10200e-01 -1.00950e-01 -8.56890e-02 -1.00680e-01 -9.75910e-02 -9.45530e-02 -9.15590e-02 -9.00750e-02 -8.57110e-02 -8.28560e-02 -8.00480e-02 -7.72870e-02 -7.45720e-02 -7.19040e-02 -7.05810e-02 -6.67090e-02 -6.41830e-02 -6.17030e-02 -5.92710e-02 -5.68870e-02 -5.33940e-02 -5.22610e-02 -5.00200e-02 -4.78260e-02 -4.56800e-02 -4.35820e-02 -4.18690e-02 -4.05160e-02 -3.75760e-02 -3.56700e-02 -3.28950e-02 -3.20020e-02 -3.02400e-02 -2.85260e-02 -2.68600e-02 -2.52430e-02 -2.36730e-02 -2.21520e-02 -2.06790e-02 -1.92550e-02 -1.78780e-02 -1.65500e-02 -1.52700e-02 -1.40390e-02 -1.28550e-02 -1.22760e-02 -1.11420e-02 -9.59470e-03 -8.60440e-03 -7.66240e-03 -6.76870e-03 -5.92330e-03 -5.12610e-03 -4.37720e-03 -3.67650e-03 -3.02410e-03 -2.70990e-03 -1.86370e-03 -1.35560e-03 -8.95530e-04 -4.83500e-04 -1.19600e-04 3.41930e-04 4.63160e-04 6.82170e-04 8.55050e-04 1.00080e-03 1.20410e-03 1.33670e-03 -5.01750e-01 -4.10060e-01 -2.82300e-01 -2.37660e-01 -2.25770e-01 -1.51150e-01 -1.98030e-01 -2.05580e-01 -2.00260e-01 -1.95820e-01 -1.91140e-01 -1.74540e-01 -1.44070e-01 -1.78750e-01 -1.74660e-01 -1.70770e-01 -1.66820e-01 -1.63000e-01 -1.47300e-01 -1.50810e-01 -1.51640e-01 -1.47960e-01 -1.44280e-01 -1.40670e-01 -1.35090e-01 -1.32880e-01 -1.30040e-01 -1.26590e-01 -1.23170e-01 -1.19800e-01 -1.16470e-01 -1.13180e-01 -1.09930e-01 -1.03810e-01 -8.57460e-02 -1.00460e-01 -9.73910e-02 -9.43660e-02 -9.13870e-02 -8.99090e-02 -8.55630e-02 -8.27190e-02 -7.99220e-02 -7.71700e-02 -7.44640e-02 -7.18040e-02 -7.04860e-02 -6.66240e-02 -6.41040e-02 -6.16300e-02 -5.92040e-02 -5.68240e-02 -5.33380e-02 -5.22070e-02 -4.99690e-02 -4.77780e-02 -4.56350e-02 -4.35390e-02 -4.14910e-02 -3.98090e-02 -3.84670e-02 -3.56330e-02 -3.28590e-02 -3.19660e-02 -3.02050e-02 -2.84910e-02 -2.68250e-02 -2.01400e-02 -2.19400e-02 -2.20910e-02 -2.06180e-02 -1.91930e-02 -1.78170e-02 -1.64880e-02 -1.45710e-02 -1.20410e-02 -1.28130e-02 -1.22320e-02 -1.07580e-02 -9.52680e-03 -9.01900e-03 -7.61370e-03 -6.71870e-03 -5.87210e-03 -5.07370e-03 -4.32370e-03 -3.62200e-03 -2.96860e-03 -2.65400e-03 -2.05200e-03 -1.29870e-03 -8.39030e-04 -4.28240e-04 -6.66150e-05 3.88570e-04 5.06800e-04 7.17880e-04 8.82960e-04 1.02430e-03 1.22150e-03 1.34970e-03 -4.99130e-01 -4.14830e-01 -2.88760e-01 -2.41250e-01 -2.28920e-01 -2.18610e-01 -1.99020e-01 -1.92550e-01 -1.86870e-01 -1.89830e-01 -1.91220e-01 -1.74210e-01 -1.43870e-01 -1.78390e-01 -1.74270e-01 -1.70350e-01 -1.66390e-01 -1.62560e-01 -1.26550e-01 -1.38810e-01 -1.46640e-01 -1.47560e-01 -1.43900e-01 -1.40300e-01 -1.34980e-01 -1.33210e-01 -1.29730e-01 -1.26290e-01 -1.22880e-01 -1.19530e-01 -1.16210e-01 -1.12930e-01 -1.09700e-01 -1.08100e-01 -1.03370e-01 -1.00260e-01 -9.72050e-02 -9.41910e-02 -9.12210e-02 -8.87640e-02 -8.67980e-02 -8.25800e-02 -7.97900e-02 -7.70460e-02 -7.43470e-02 -7.16940e-02 -7.03790e-02 -6.65260e-02 -6.40110e-02 -6.15430e-02 -5.91210e-02 -5.67460e-02 -5.32660e-02 -5.21370e-02 -4.99030e-02 -4.77150e-02 -4.55750e-02 -4.34830e-02 -4.14370e-02 -3.94390e-02 -3.78050e-02 -3.65110e-02 -3.28280e-02 -3.16300e-02 -3.01630e-02 -2.84500e-02 -2.59540e-02 -2.41540e-02 -2.28830e-02 -2.20800e-02 -2.06080e-02 -1.91830e-02 -1.78060e-02 -1.64780e-02 -1.49230e-02 -1.35720e-02 -1.22570e-02 -1.00700e-02 -1.05570e-02 -9.51700e-03 -8.68350e-03 -7.57260e-03 -6.67770e-03 -5.83110e-03 -5.03270e-03 -4.64560e-03 -3.59080e-03 -2.93750e-03 -2.62290e-03 -1.86160e-03 -1.25900e-03 -1.01740e-03 -4.00040e-04 1.35200e-04 2.76770e-04 5.34160e-04 7.30490e-04 8.91500e-04 1.03480e-03 1.22930e-03 1.35610e-03 -5.04950e-01 -4.16320e-01 -2.90200e-01 -2.42940e-01 -2.29350e-01 -2.19590e-01 -1.80320e-01 -1.66090e-01 -1.58910e-01 -1.65950e-01 -1.91170e-01 -1.86860e-01 -1.82890e-01 -1.80810e-01 -1.74140e-01 -1.70230e-01 -1.66250e-01 -1.62430e-01 -1.58590e-01 -1.22390e-01 -1.40350e-01 -1.47440e-01 -1.43780e-01 -1.40190e-01 -1.34880e-01 -1.33110e-01 -1.29630e-01 -1.26190e-01 -1.22790e-01 -1.19440e-01 -1.16130e-01 -1.12860e-01 -1.09630e-01 -1.08030e-01 -1.03300e-01 -1.00200e-01 -9.71480e-02 -9.41380e-02 -9.11700e-02 -8.82480e-02 -8.67980e-02 -8.25380e-02 -7.97500e-02 -7.70080e-02 -7.43110e-02 -7.16600e-02 -7.03460e-02 -6.64960e-02 -6.39830e-02 -6.15160e-02 -5.90960e-02 -5.67230e-02 -5.32440e-02 -5.21160e-02 -4.98830e-02 -4.76960e-02 -4.55570e-02 -4.34660e-02 -4.14210e-02 -3.94240e-02 -3.74740e-02 -3.65110e-02 -3.21140e-02 -3.10180e-02 -2.98610e-02 -2.75940e-02 -2.65010e-02 -2.51580e-02 -2.35900e-02 -2.20690e-02 -2.05970e-02 -1.91720e-02 -1.77960e-02 -1.64670e-02 -1.51870e-02 -1.39550e-02 -1.25500e-02 -1.14840e-02 -1.05470e-02 -9.50720e-03 -8.51580e-03 -7.57260e-03 -6.67770e-03 -5.83110e-03 -5.03270e-03 -4.40360e-03 -3.91970e-03 -3.03250e-03 -2.61310e-03 -1.76650e-03 -1.25900e-03 -8.72730e-04 -1.99040e-04 2.37860e-05 2.76770e-04 5.34160e-04 7.36170e-04 8.98970e-04 9.70780e-04 1.23140e-03 1.35700e-03 -4.99130e-01 -4.14830e-01 -2.88760e-01 -2.41250e-01 -2.28920e-01 -2.18610e-01 -2.10000e-01 -2.06320e-01 -2.00920e-01 -1.96000e-01 -1.91200e-01 -1.86850e-01 -1.82460e-01 -1.72420e-01 -1.38860e-01 -1.70350e-01 -1.66390e-01 -1.62560e-01 -1.58720e-01 -1.53020e-01 -1.51230e-01 -1.47560e-01 -1.43900e-01 -1.40300e-01 -1.34880e-01 -1.32590e-01 -1.29730e-01 -1.26290e-01 -1.22880e-01 -1.19530e-01 -1.16210e-01 -1.12930e-01 -1.09700e-01 -1.08100e-01 -1.03370e-01 -1.00260e-01 -9.72050e-02 -9.41910e-02 -9.12210e-02 -8.82960e-02 -8.68440e-02 -8.25800e-02 -7.97900e-02 -7.70460e-02 -7.43470e-02 -7.16940e-02 -7.03790e-02 -6.65260e-02 -6.40110e-02 -6.15430e-02 -5.91210e-02 -5.67460e-02 -5.32660e-02 -5.21370e-02 -4.99030e-02 -4.77150e-02 -4.55750e-02 -4.34830e-02 -4.14370e-02 -3.94390e-02 -3.78050e-02 -3.65110e-02 -3.37300e-02 -3.19230e-02 -2.92820e-02 -2.76060e-02 -2.67860e-02 -2.51700e-02 -2.36010e-02 -2.20800e-02 -2.06080e-02 -1.91830e-02 -1.78060e-02 -1.64780e-02 -1.51970e-02 -1.39650e-02 -1.27810e-02 -1.22000e-02 -1.05570e-02 -9.51700e-03 -8.52560e-03 -7.58240e-03 -6.68750e-03 -5.84090e-03 -5.04250e-03 -4.29250e-03 -3.92960e-03 -3.24220e-03 -2.33260e-03 -1.77620e-03 -1.26850e-03 -8.09650e-04 -2.07540e-04 -4.02030e-05 2.69280e-04 5.27640e-04 7.34980e-04 8.96620e-04 1.01110e-03 1.22710e-03 1.35520e-03 -5.01750e-01 -4.10060e-01 -2.82300e-01 -2.37660e-01 -2.25770e-01 -2.63840e-01 -2.20570e-01 -2.05580e-01 -2.00260e-01 -1.95820e-01 -1.91140e-01 -1.87020e-01 -1.82710e-01 -1.67170e-01 -1.39200e-01 -1.70770e-01 -1.66820e-01 -1.63000e-01 -1.59150e-01 -1.53440e-01 -1.51640e-01 -1.47960e-01 -1.44280e-01 -1.40670e-01 -1.37080e-01 -1.31770e-01 -1.30040e-01 -1.26590e-01 -1.23170e-01 -1.19800e-01 -1.16470e-01 -1.13180e-01 -1.09930e-01 -1.08320e-01 -1.03570e-01 -1.00460e-01 -9.73910e-02 -9.43660e-02 -9.13870e-02 -8.84520e-02 -8.69960e-02 -8.27190e-02 -7.99220e-02 -7.71700e-02 -7.44640e-02 -7.18040e-02 -6.96460e-02 -6.79660e-02 -6.41040e-02 -6.16300e-02 -5.92040e-02 -5.68250e-02 -5.33380e-02 -5.22070e-02 -4.99690e-02 -4.77780e-02 -4.56350e-02 -4.35390e-02 -4.14910e-02 -3.94910e-02 -3.85020e-02 -3.56330e-02 -3.37760e-02 -3.19660e-02 -3.02050e-02 -2.76460e-02 -2.68250e-02 -2.52080e-02 -2.36380e-02 -2.21160e-02 -2.06430e-02 -1.92170e-02 -1.78400e-02 -1.65110e-02 -1.52300e-02 -1.39970e-02 -1.28130e-02 -1.22320e-02 -1.05880e-02 -9.54840e-03 -8.55690e-03 -7.61370e-03 -6.71870e-03 -5.87210e-03 -5.07370e-03 -4.32370e-03 -3.74200e-03 -3.30450e-03 -2.36350e-03 -1.80690e-03 -1.29870e-03 -8.39030e-04 -2.35080e-04 -6.66150e-05 2.45210e-04 5.06800e-04 7.17880e-04 8.82960e-04 1.02430e-03 1.22150e-03 1.34970e-03 -4.85390e-01 -3.96430e-01 -2.68430e-01 -2.28060e-01 -2.21540e-01 -2.29320e-01 -2.16700e-01 -2.03810e-01 -1.99320e-01 -1.95310e-01 -1.91050e-01 -1.87170e-01 -1.83060e-01 -1.67640e-01 -1.39860e-01 -1.71350e-01 -1.67420e-01 -1.63600e-01 -1.59740e-01 -1.54000e-01 -1.52190e-01 -1.48480e-01 -1.44790e-01 -1.41150e-01 -1.37530e-01 -1.32180e-01 -1.30440e-01 -1.26960e-01 -1.23520e-01 -1.20130e-01 -1.16770e-01 -1.13470e-01 -1.10200e-01 -1.08580e-01 -1.03810e-01 -1.00680e-01 -9.75910e-02 -9.45530e-02 -9.15590e-02 -8.86120e-02 -8.71500e-02 -8.28560e-02 -8.00480e-02 -7.72870e-02 -7.45720e-02 -7.19040e-02 -6.92830e-02 -6.79840e-02 -6.41830e-02 -6.17030e-02 -5.92710e-02 -5.68870e-02 -5.33940e-02 -5.22610e-02 -5.00200e-02 -4.78260e-02 -4.56800e-02 -4.35820e-02 -4.15320e-02 -3.95300e-02 -3.85410e-02 -3.56700e-02 -3.38120e-02 -3.20020e-02 -3.02400e-02 -2.76810e-02 -2.68600e-02 -2.52430e-02 -2.36730e-02 -2.21520e-02 -2.06790e-02 -1.92550e-02 -1.78780e-02 -1.65500e-02 -1.52700e-02 -1.40390e-02 -1.28550e-02 -1.22760e-02 -1.06330e-02 -9.59470e-03 -8.60440e-03 -7.66240e-03 -6.76870e-03 -5.92330e-03 -5.12610e-03 -4.37720e-03 -3.67650e-03 -3.33830e-03 -2.41980e-03 -1.86370e-03 -1.35560e-03 -8.95530e-04 -2.89470e-04 -1.19600e-04 1.96100e-04 4.63160e-04 6.82170e-04 8.55050e-04 1.00080e-03 1.20410e-03 1.33670e-03 -4.55000e-01 -3.50790e-01 -2.32950e-01 -2.17770e-01 -2.12650e-01 -2.05880e-01 -2.04490e-01 -2.00870e-01 -1.97510e-01 -1.94060e-01 -1.90420e-01 -1.86830e-01 -1.83020e-01 -1.68040e-01 -1.41170e-01 -1.71590e-01 -1.67690e-01 -1.63870e-01 -1.60010e-01 -1.54250e-01 -1.52420e-01 -1.48680e-01 -1.44960e-01 -1.41290e-01 -1.37650e-01 -1.32270e-01 -1.30510e-01 -1.27010e-01 -1.23550e-01 -1.20130e-01 -1.16760e-01 -1.13440e-01 -1.10150e-01 -1.08530e-01 -1.03730e-01 -1.00590e-01 -9.74940e-02 -9.44460e-02 -9.14440e-02 -8.84900e-02 -8.70240e-02 -8.27230e-02 -7.99110e-02 -7.71470e-02 -7.44300e-02 -7.17600e-02 -6.91390e-02 -6.78400e-02 -6.40400e-02 -6.15620e-02 -5.91320e-02 -5.67510e-02 -5.32630e-02 -5.21320e-02 -4.98950e-02 -4.77060e-02 -4.55650e-02 -4.34730e-02 -4.14280e-02 -3.94320e-02 -3.84460e-02 -3.55850e-02 -3.37330e-02 -3.19300e-02 -3.01750e-02 -2.76270e-02 -2.68100e-02 -2.52000e-02 -2.36380e-02 -2.21240e-02 -2.06580e-02 -1.92410e-02 -1.78720e-02 -1.65510e-02 -1.52780e-02 -1.40530e-02 -1.28760e-02 -1.23000e-02 -1.06680e-02 -9.63540e-03 -8.65120e-03 -7.71520e-03 -6.82720e-03 -5.98720e-03 -5.19530e-03 -4.45140e-03 -3.75550e-03 -3.41950e-03 -2.50710e-03 -1.95450e-03 -1.44930e-03 -9.91190e-04 -3.85740e-04 -2.14680e-04 1.05000e-04 3.80250e-04 6.12130e-04 8.04660e-04 9.61030e-04 1.15780e-03 1.28550e-03 -4.49390e-01 -3.15500e-01 -2.06310e-01 -2.15160e-01 -2.05270e-01 -1.99700e-01 -2.01290e-01 -1.99500e-01 -1.96060e-01 -1.93360e-01 -1.89800e-01 -1.86530e-01 -1.82780e-01 -1.68320e-01 -1.42180e-01 -1.71550e-01 -1.67660e-01 -1.63850e-01 -1.59980e-01 -1.54210e-01 -1.52380e-01 -1.48630e-01 -1.44900e-01 -1.41220e-01 -1.37570e-01 -1.32160e-01 -1.30410e-01 -1.26900e-01 -1.23420e-01 -1.20000e-01 -1.16620e-01 -1.13290e-01 -1.10000e-01 -1.08370e-01 -1.03570e-01 -1.00420e-01 -9.73250e-02 -9.42750e-02 -9.12720e-02 -8.83170e-02 -8.68510e-02 -8.25510e-02 -7.97390e-02 -7.69760e-02 -7.42610e-02 -7.15940e-02 -6.89750e-02 -6.76780e-02 -6.38830e-02 -6.14090e-02 -5.89840e-02 -5.66070e-02 -5.31260e-02 -5.19970e-02 -4.97650e-02 -4.75820e-02 -4.54470e-02 -4.33600e-02 -4.13210e-02 -3.93310e-02 -3.83480e-02 -3.54960e-02 -3.36500e-02 -3.18530e-02 -3.01050e-02 -2.75660e-02 -2.67520e-02 -2.51480e-02 -2.35920e-02 -2.20840e-02 -2.06250e-02 -1.92130e-02 -1.78500e-02 -1.65350e-02 -1.52680e-02 -1.40480e-02 -1.28770e-02 -1.23040e-02 -1.06790e-02 -9.65150e-03 -8.67210e-03 -7.74060e-03 -6.85710e-03 -6.02140e-03 -5.23350e-03 -4.49350e-03 -3.80120e-03 -3.46690e-03 -2.55940e-03 -2.00950e-03 -1.50670e-03 -1.05050e-03 -4.46650e-04 -2.74910e-04 4.64430e-05 3.26660e-04 5.66150e-04 7.72740e-04 9.37810e-04 1.12340e-03 1.24160e-03 -2.76880e-01 -1.93000e-01 -1.26720e-01 -1.34200e-01 -7.99320e-02 -1.10660e-01 -1.26290e-01 -1.25140e-01 -1.22920e-01 -1.21170e-01 -1.19100e-01 -1.17040e-01 -1.03520e-01 -7.82690e-02 -1.10460e-01 -1.08180e-01 -1.05910e-01 -1.02530e-01 -1.01340e-01 -9.90420e-02 -9.67760e-02 -9.45070e-02 -9.22650e-02 -9.00290e-02 -8.78180e-02 -8.45380e-02 -8.34470e-02 -8.12900e-02 -7.91580e-02 -7.70460e-02 -7.49590e-02 -7.28940e-02 -7.08540e-02 -6.88370e-02 -6.78360e-02 -6.48780e-02 -6.29370e-02 -6.10210e-02 -5.91310e-02 -5.81920e-02 -4.10610e-02 -5.36200e-02 -5.18360e-02 -5.00800e-02 -4.83510e-02 -4.66490e-02 -4.58050e-02 -4.33300e-02 -4.17120e-02 -4.01230e-02 -3.85620e-02 -3.70310e-02 -3.47830e-02 -3.40530e-02 -3.26080e-02 -3.11930e-02 -2.98060e-02 -2.84500e-02 -2.77790e-02 -2.58250e-02 -2.45580e-02 -2.33210e-02 -2.72050e-02 -2.26390e-02 -1.97900e-02 -1.33300e-02 -1.29350e-02 -1.21560e-02 -1.13990e-02 -1.06640e-02 -9.95160e-03 -9.26140e-03 -8.59370e-03 -8.26540e-03 -1.00110e-02 -9.20360e-03 -8.42720e-03 -8.04690e-03 -6.96850e-03 -6.28620e-03 -5.63530e-03 -5.01590e-03 -4.42810e-03 -3.87180e-03 -3.34710e-03 -2.85400e-03 -2.39250e-03 -1.96250e-03 -1.75540e-03 -1.19690e-03 -8.60890e-04 -5.55430e-04 -2.80000e-04 -3.32670e-05 2.88700e-04 3.80870e-04 5.52440e-04 7.07730e-04 8.37570e-04 9.98610e-04 1.10570e-03 -2.84030e-01 -2.19520e-01 -1.46920e-01 -1.35830e-01 -7.52870e-02 -1.10740e-01 -1.26650e-01 -1.24460e-01 -1.22420e-01 -1.20220e-01 -1.18190e-01 -1.15960e-01 -1.02490e-01 -7.70260e-02 -1.09410e-01 -1.07130e-01 -1.04910e-01 -1.01590e-01 -1.00410e-01 -9.81570e-02 -9.59350e-02 -9.37070e-02 -9.15070e-02 -8.93100e-02 -8.71390e-02 -8.39150e-02 -8.28420e-02 -8.07210e-02 -7.86230e-02 -7.65440e-02 -7.44870e-02 -7.24520e-02 -7.04390e-02 -6.84490e-02 -6.74610e-02 -6.45400e-02 -6.26210e-02 -6.07270e-02 -5.88570e-02 -5.79280e-02 -4.08540e-02 -5.34000e-02 -5.16320e-02 -4.98910e-02 -4.81760e-02 -4.64870e-02 -4.56500e-02 -4.31920e-02 -4.15850e-02 -4.00050e-02 -3.84540e-02 -3.69300e-02 -3.46940e-02 -3.39680e-02 -3.25300e-02 -3.11200e-02 -2.97390e-02 -2.83870e-02 -2.77190e-02 -2.57710e-02 -2.45080e-02 -2.32730e-02 -2.71340e-02 -2.25880e-02 -1.97500e-02 -1.33170e-02 -1.29220e-02 -1.21440e-02 -1.13870e-02 -1.06520e-02 -9.93960e-03 -9.24890e-03 -8.58060e-03 -8.25200e-03 -9.97760e-03 -9.16980e-03 -8.39310e-03 -8.01250e-03 -6.93330e-03 -6.25040e-03 -5.59880e-03 -4.97870e-03 -4.39010e-03 -3.83300e-03 -3.30750e-03 -2.81360e-03 -2.35130e-03 -1.92060e-03 -1.71310e-03 -1.15360e-03 -8.17160e-04 -5.11630e-04 -2.36530e-04 8.83650e-06 3.27070e-04 4.15410e-04 5.80190e-04 7.24160e-04 8.51220e-04 1.03090e-03 1.15110e-03 -3.12830e-01 -2.56700e-01 -1.74600e-01 -1.43190e-01 -7.30530e-02 -1.10490e-01 -1.27170e-01 -1.24350e-01 -1.21750e-01 -1.19210e-01 -1.16920e-01 -1.14540e-01 -1.00710e-01 -7.46510e-02 -1.07870e-01 -1.05610e-01 -1.03440e-01 -9.06200e-02 -9.47720e-02 -9.68510e-02 -9.46930e-02 -9.25270e-02 -9.03900e-02 -8.82550e-02 -8.61440e-02 -8.30080e-02 -8.19620e-02 -7.98950e-02 -7.78490e-02 -7.58190e-02 -7.38100e-02 -7.18190e-02 -6.98500e-02 -6.79000e-02 -6.69330e-02 -6.40660e-02 -6.21820e-02 -6.03200e-02 -5.84820e-02 -5.75670e-02 -4.03910e-02 -5.31050e-02 -5.13620e-02 -4.96420e-02 -4.79480e-02 -4.62790e-02 -4.54510e-02 -4.30180e-02 -4.14260e-02 -3.98610e-02 -3.83220e-02 -3.68110e-02 -3.45910e-02 -3.38690e-02 -3.24390e-02 -3.10380e-02 -2.96640e-02 -2.83190e-02 -2.72170e-02 -2.63460e-02 -2.44540e-02 -2.32230e-02 -2.71140e-02 -2.25520e-02 -1.97070e-02 -1.32590e-02 -1.28660e-02 -1.20900e-02 -1.13360e-02 -1.06030e-02 -9.89190e-03 -9.20250e-03 -8.53510e-03 -8.20690e-03 -9.93420e-03 -9.12500e-03 -8.34670e-03 -7.96530e-03 -9.20530e-03 -6.19870e-03 -5.54520e-03 -4.92310e-03 -4.33260e-03 -3.77350e-03 -3.24600e-03 -2.75020e-03 -2.28610e-03 -1.85360e-03 -1.64530e-03 -1.08380e-03 -7.46320e-04 -4.40400e-04 -1.65860e-04 7.75090e-05 3.88820e-04 4.72390e-04 6.26290e-04 7.55070e-04 8.79450e-04 1.07570e-03 1.20600e-03 -3.30280e-01 -2.70890e-01 -1.86550e-01 -1.50790e-01 -7.54650e-02 -1.09840e-01 -1.24010e-01 -1.24890e-01 -1.21770e-01 -1.18940e-01 -1.16400e-01 -1.13880e-01 -9.97420e-02 -7.31590e-02 -1.07030e-01 -1.04770e-01 -1.02610e-01 -7.05490e-02 -9.18040e-02 -9.61040e-02 -9.39810e-02 -9.18500e-02 -8.97500e-02 -8.76490e-02 -1.09130e-01 -8.78170e-02 -8.14580e-02 -7.94230e-02 -7.74080e-02 -7.54070e-02 -7.34260e-02 -7.14620e-02 -6.95190e-02 -6.50580e-02 -6.04030e-02 -6.38040e-02 -6.19400e-02 -6.00970e-02 -5.82770e-02 -5.73710e-02 -4.01340e-02 -5.29480e-02 -5.12180e-02 -4.95120e-02 -4.78300e-02 -4.61720e-02 -4.53490e-02 -4.29300e-02 -4.13480e-02 -3.97900e-02 -3.82590e-02 -3.67540e-02 -3.45430e-02 -3.38240e-02 -3.23990e-02 -3.10020e-02 -2.96320e-02 -2.82900e-02 -2.69760e-02 -2.74030e-02 -3.17100e-02 -2.32040e-02 -2.71250e-02 -2.25440e-02 -1.96900e-02 -1.32210e-02 -1.28290e-02 -1.59100e-02 -1.54060e-02 -1.44130e-02 -1.34500e-02 -1.25170e-02 -1.16140e-02 -1.07420e-02 -9.90060e-03 -9.48760e-03 -8.32230e-03 -7.94020e-03 -7.31580e-03 -6.15680e-03 -5.82140e-03 -4.89120e-03 -4.29910e-03 -3.73850e-03 -3.20960e-03 -2.71230e-03 -2.24680e-03 -1.81310e-03 -1.60420e-03 -1.20240e-03 -7.03220e-04 -3.97150e-04 -1.23130e-04 1.18870e-04 4.25660e-04 5.07030e-04 6.54850e-04 7.78220e-04 9.00830e-04 1.09420e-03 1.22180e-03 -3.30340e-01 -2.75750e-01 -1.92270e-01 -1.54000e-01 -1.40010e-01 -1.08850e-01 -1.22480e-01 -1.25110e-01 -1.21890e-01 -1.14550e-01 -1.04290e-01 -1.01480e-01 -9.04370e-02 -7.24980e-02 -1.06500e-01 -1.04230e-01 -1.02070e-01 -9.98780e-02 -8.66810e-02 -9.12090e-02 -9.35060e-02 -9.13950e-02 -8.93160e-02 -8.72370e-02 -1.09060e-01 -9.11040e-02 -8.11070e-02 -7.90910e-02 -7.70950e-02 -7.51120e-02 -7.31490e-02 -7.12020e-02 -6.92740e-02 -6.41800e-02 -4.76510e-02 -6.36020e-02 -6.17520e-02 -5.99220e-02 -5.81130e-02 -5.66030e-02 -5.53820e-02 -5.28160e-02 -5.10950e-02 -4.93980e-02 -4.77240e-02 -4.60740e-02 -4.52550e-02 -4.28460e-02 -4.12700e-02 -3.97180e-02 -3.81930e-02 -3.66930e-02 -3.44880e-02 -3.37710e-02 -3.23510e-02 -3.09570e-02 -2.95900e-02 -2.82510e-02 -2.69400e-02 -2.66990e-02 -2.79620e-02 -3.01240e-02 -2.70850e-02 -2.32950e-02 -2.03580e-02 -1.32130e-02 -1.69300e-02 -1.62440e-02 -1.53970e-02 -1.44040e-02 -1.34420e-02 -1.25090e-02 -1.16070e-02 -1.07350e-02 -9.89330e-03 -9.21280e-03 -8.29570e-03 -7.91360e-03 -6.83640e-03 -6.14980e-03 -5.59870e-03 -4.86340e-03 -4.27090e-03 -3.70990e-03 -3.18060e-03 -2.50990e-03 -1.68220e-03 -1.89840e-03 -1.76390e-03 -1.07460e-03 -6.72810e-04 -5.11930e-04 -1.00790e-04 2.58750e-04 3.54390e-04 5.29590e-04 6.09150e-04 7.90350e-04 9.10690e-04 1.10220e-03 1.22900e-03 -3.34600e-01 -2.77080e-01 -1.93510e-01 -1.55350e-01 -1.40350e-01 -1.34390e-01 -1.26820e-01 -1.25350e-01 -1.21820e-01 -1.09000e-01 -8.03510e-02 -7.73100e-02 -7.68070e-02 -7.21970e-02 -7.67560e-02 -1.04040e-01 -1.01890e-01 -9.96980e-02 -6.64810e-02 -8.51180e-02 -9.33410e-02 -9.12370e-02 -8.91650e-02 -8.70920e-02 -1.08980e-01 -9.09960e-02 -8.09840e-02 -7.89740e-02 -7.69840e-02 -7.50070e-02 -7.30500e-02 -7.11080e-02 -6.91860e-02 -6.82260e-02 -6.53950e-02 -6.35290e-02 -6.16830e-02 -5.98570e-02 -5.80520e-02 -5.62680e-02 -5.53820e-02 -5.27660e-02 -5.10490e-02 -4.93540e-02 -4.76830e-02 -4.60350e-02 -4.52180e-02 -4.28130e-02 -4.12390e-02 -3.96900e-02 -3.81660e-02 -3.66680e-02 -3.44660e-02 -3.37500e-02 -3.23310e-02 -3.09380e-02 -2.95730e-02 -2.82350e-02 -2.69250e-02 -2.56420e-02 -2.67130e-02 -3.01240e-02 -2.08770e-02 -2.56130e-02 -2.19960e-02 -1.79970e-02 -1.72850e-02 -1.64110e-02 -1.53890e-02 -1.43960e-02 -1.34340e-02 -1.25010e-02 -1.15990e-02 -1.07270e-02 -9.88590e-03 -9.07540e-03 -8.29570e-03 -7.91360e-03 -6.82930e-03 -6.14270e-03 -5.48740e-03 -4.86340e-03 -4.27090e-03 -3.70990e-03 -3.18060e-03 -2.60880e-03 -2.18870e-03 -2.18410e-03 -2.11460e-03 -1.01070e-03 -6.72810e-04 -4.15420e-04 3.44160e-05 1.83970e-04 3.54390e-04 5.29590e-04 6.52280e-04 7.92390e-04 9.00080e-04 1.10410e-03 1.22990e-03 -3.30340e-01 -2.75750e-01 -1.92270e-01 -1.54000e-01 -1.40010e-01 -1.33790e-01 -1.25890e-01 -1.25110e-01 -1.21890e-01 -1.18730e-01 -1.16120e-01 -1.13450e-01 -1.11120e-01 -1.04450e-01 -9.10250e-02 -7.12610e-02 -1.02070e-01 -9.98780e-02 -9.77540e-02 -9.46050e-02 -9.35060e-02 -9.13950e-02 -8.93160e-02 -8.72370e-02 -1.08980e-01 -8.75000e-02 -8.11070e-02 -7.90910e-02 -7.70950e-02 -7.51120e-02 -7.31490e-02 -7.12020e-02 -6.92740e-02 -6.83120e-02 -6.54740e-02 -6.36020e-02 -6.17520e-02 -5.99220e-02 -5.81130e-02 -5.63250e-02 -5.54370e-02 -5.28160e-02 -5.10950e-02 -4.93980e-02 -4.77240e-02 -4.60740e-02 -4.52550e-02 -4.28460e-02 -4.12700e-02 -3.97180e-02 -3.81930e-02 -3.66930e-02 -3.44880e-02 -3.37710e-02 -3.23510e-02 -3.09570e-02 -2.95900e-02 -2.82510e-02 -2.69400e-02 -2.56570e-02 -2.60420e-02 -3.01240e-02 -1.65290e-02 -2.08060e-02 -2.41860e-02 -1.80060e-02 -1.74730e-02 -1.64200e-02 -1.53970e-02 -1.44040e-02 -1.34420e-02 -1.25090e-02 -1.16070e-02 -1.07350e-02 -9.89330e-03 -9.08270e-03 -8.30290e-03 -7.92080e-03 -6.83640e-03 -6.14980e-03 -5.49450e-03 -4.87050e-03 -4.27800e-03 -3.71710e-03 -3.18780e-03 -2.69010e-03 -2.44920e-03 -2.63800e-03 -1.38810e-03 -1.01800e-03 -6.80020e-04 -3.74240e-04 2.78390e-05 1.40130e-04 3.48490e-04 5.24410e-04 6.69450e-04 7.89240e-04 9.06130e-04 1.10020e-03 1.22810e-03 -3.30280e-01 -2.70890e-01 -1.86550e-01 -1.50790e-01 -1.37740e-01 -1.32890e-01 -1.26040e-01 -1.24890e-01 -1.21770e-01 -1.18940e-01 -1.16400e-01 -1.13880e-01 -1.11580e-01 -1.09230e-01 -9.60760e-02 -7.15640e-02 -1.02610e-01 -1.00410e-01 -9.82670e-02 -9.50890e-02 -9.39810e-02 -9.18500e-02 -8.97500e-02 -8.76490e-02 -8.55740e-02 -9.04290e-02 -8.47140e-02 -7.94230e-02 -7.74080e-02 -7.54070e-02 -7.34260e-02 -7.14620e-02 -6.95190e-02 -6.85490e-02 -6.56890e-02 -6.38040e-02 -6.19400e-02 -6.00970e-02 -5.82770e-02 -5.64780e-02 -5.55840e-02 -5.29480e-02 -5.12180e-02 -4.95120e-02 -4.78300e-02 -4.61720e-02 -4.48270e-02 -4.37810e-02 -4.13480e-02 -3.97900e-02 -3.82590e-02 -3.67540e-02 -3.45430e-02 -3.38240e-02 -3.23990e-02 -3.10020e-02 -2.96320e-02 -2.82900e-02 -2.69760e-02 -2.56900e-02 -2.50540e-02 -2.32040e-02 -2.20030e-02 -2.08320e-02 -1.96900e-02 -1.80290e-02 -1.74950e-02 -1.64420e-02 -1.54180e-02 -1.44250e-02 -1.34610e-02 -1.25280e-02 -1.16260e-02 -1.07540e-02 -9.91250e-03 -9.10190e-03 -8.32230e-03 -7.94020e-03 -6.85610e-03 -6.16980e-03 -5.51480e-03 -4.89120e-03 -4.29910e-03 -3.73850e-03 -3.20960e-03 -2.71230e-03 -2.32690e-03 -2.03740e-03 -1.41120e-03 -1.04120e-03 -7.03220e-04 -3.97150e-04 5.83680e-06 1.18870e-04 3.28790e-04 5.07030e-04 6.54850e-04 7.78220e-04 9.00840e-04 1.09420e-03 1.22180e-03 -3.12830e-01 -2.56700e-01 -1.74600e-01 -1.43190e-01 -1.34930e-01 -1.55560e-01 -1.31210e-01 -1.24350e-01 -1.21750e-01 -1.19210e-01 -1.16920e-01 -1.14540e-01 -1.12340e-01 -1.10050e-01 -9.70790e-02 -7.29370e-02 -1.03440e-01 -1.01220e-01 -9.90450e-02 -9.58140e-02 -9.46930e-02 -9.25270e-02 -9.03900e-02 -8.82550e-02 -8.61440e-02 -1.06800e-01 -8.95420e-02 -7.98950e-02 -7.78490e-02 -7.58190e-02 -7.38100e-02 -7.18190e-02 -6.98500e-02 -6.88680e-02 -6.59730e-02 -6.40660e-02 -6.21820e-02 -6.03200e-02 -5.84820e-02 -5.66660e-02 -5.57640e-02 -5.31050e-02 -5.13620e-02 -4.96420e-02 -4.79480e-02 -4.62790e-02 -4.46350e-02 -4.38200e-02 -4.14260e-02 -3.98610e-02 -3.83220e-02 -3.68110e-02 -3.45910e-02 -3.38690e-02 -3.24390e-02 -3.10380e-02 -2.96640e-02 -2.83190e-02 -2.70020e-02 -2.57130e-02 -2.50760e-02 -2.32230e-02 -2.20220e-02 -2.08500e-02 -1.97070e-02 -1.80450e-02 -1.75110e-02 -1.64580e-02 -1.54350e-02 -1.44420e-02 -1.34790e-02 -1.25470e-02 -1.16450e-02 -1.07740e-02 -9.93420e-03 -9.12500e-03 -8.34670e-03 -7.96530e-03 -6.88340e-03 -6.19870e-03 -5.54520e-03 -4.92310e-03 -4.33260e-03 -3.77350e-03 -3.24600e-03 -2.75020e-03 -2.28610e-03 -2.06190e-03 -1.45290e-03 -1.08380e-03 -7.46320e-04 -4.40400e-04 -3.64260e-05 7.75090e-05 2.90130e-04 4.72390e-04 6.26290e-04 7.55070e-04 8.79450e-04 1.07570e-03 1.20600e-03 -2.84030e-01 -2.19520e-01 -1.46920e-01 -1.35830e-01 -1.31250e-01 -1.53180e-01 -1.34280e-01 -1.24460e-01 -1.22420e-01 -1.20220e-01 -1.18190e-01 -1.15960e-01 -1.13860e-01 -1.11590e-01 -9.88280e-02 -7.50930e-02 -1.04910e-01 -1.02640e-01 -1.00410e-01 -9.70850e-02 -9.59350e-02 -9.37070e-02 -9.15070e-02 -8.93110e-02 -8.71390e-02 -1.07460e-01 -9.03340e-02 -8.07210e-02 -7.86230e-02 -7.65440e-02 -7.44870e-02 -7.24520e-02 -7.04390e-02 -6.94370e-02 -6.64830e-02 -6.45400e-02 -6.26210e-02 -6.07270e-02 -5.88570e-02 -5.70130e-02 -5.60970e-02 -5.34000e-02 -5.16320e-02 -4.98910e-02 -4.81760e-02 -4.64870e-02 -4.48260e-02 -4.40020e-02 -4.15850e-02 -4.00050e-02 -3.84540e-02 -3.69300e-02 -3.46940e-02 -3.39680e-02 -3.25300e-02 -3.11200e-02 -2.97390e-02 -2.83870e-02 -2.70650e-02 -2.57710e-02 -2.51320e-02 -2.32730e-02 -2.20690e-02 -2.08940e-02 -1.97500e-02 -1.80860e-02 -1.75510e-02 -1.64970e-02 -1.54740e-02 -1.44810e-02 -1.35190e-02 -1.25870e-02 -1.16860e-02 -1.08170e-02 -9.97760e-03 -9.16980e-03 -8.39310e-03 -8.01250e-03 -6.93330e-03 -6.25040e-03 -5.59880e-03 -4.97870e-03 -4.39010e-03 -3.83300e-03 -3.30750e-03 -2.81360e-03 -2.35130e-03 -2.12800e-03 -1.52140e-03 -1.15360e-03 -8.17160e-04 -5.11630e-04 -1.06510e-04 8.83630e-06 2.25630e-04 4.15410e-04 5.80190e-04 7.24160e-04 8.51220e-04 1.03090e-03 1.15110e-03 -2.76880e-01 -1.93000e-01 -1.26720e-01 -1.34200e-01 -1.28450e-01 -1.50810e-01 -1.34630e-01 -1.25140e-01 -1.22920e-01 -1.21170e-01 -1.19100e-01 -1.17040e-01 -1.14900e-01 -1.12690e-01 -9.98670e-02 -7.61800e-02 -1.05910e-01 -1.03610e-01 -1.01340e-01 -9.79460e-02 -9.67760e-02 -9.45070e-02 -9.22650e-02 -9.00290e-02 -8.78180e-02 -1.08110e-01 -9.09400e-02 -8.12900e-02 -7.91580e-02 -7.70460e-02 -7.49590e-02 -7.28940e-02 -7.08540e-02 -6.98370e-02 -6.68450e-02 -6.48780e-02 -6.29370e-02 -6.10210e-02 -5.91310e-02 -5.72670e-02 -5.63430e-02 -5.36200e-02 -5.18360e-02 -5.00800e-02 -4.83510e-02 -4.66490e-02 -4.49750e-02 -4.41460e-02 -4.17120e-02 -4.01230e-02 -3.85630e-02 -3.70310e-02 -3.47830e-02 -3.40530e-02 -3.26080e-02 -3.11930e-02 -2.98060e-02 -2.84500e-02 -2.71230e-02 -2.58260e-02 -2.51840e-02 -2.33210e-02 -2.21140e-02 -2.09370e-02 -1.97900e-02 -1.81240e-02 -1.75880e-02 -1.65330e-02 -1.55090e-02 -1.45150e-02 -1.35520e-02 -1.26210e-02 -1.17200e-02 -1.08500e-02 -1.00110e-02 -9.20360e-03 -8.42720e-03 -8.04690e-03 -6.96850e-03 -6.28620e-03 -5.63530e-03 -5.01590e-03 -4.42810e-03 -3.87180e-03 -3.34710e-03 -2.85400e-03 -2.39250e-03 -2.16960e-03 -1.56410e-03 -1.19690e-03 -8.60890e-04 -5.55430e-04 -1.49760e-04 -3.32670e-05 1.85960e-04 3.80870e-04 5.52440e-04 7.07730e-04 8.37570e-04 9.98610e-04 1.10570e-03 -1.10770e-01 -7.86140e-02 -5.30480e-02 -5.69590e-02 -5.78590e-02 -5.65030e-02 -5.53340e-02 -5.46190e-02 -5.35980e-02 -5.27920e-02 -5.18610e-02 -5.10330e-02 -5.01300e-02 -3.86310e-02 -1.62740e-02 -4.75340e-02 -4.66470e-02 -4.53060e-02 -4.48920e-02 -4.40150e-02 -4.31260e-02 -4.22430e-02 -4.13520e-02 -4.04650e-02 -3.95740e-02 -6.09660e-02 -4.52280e-02 -3.69150e-02 -3.60320e-02 -3.51530e-02 -3.42780e-02 -3.34080e-02 -3.25420e-02 -3.16830e-02 -3.12530e-02 -4.71140e-02 -4.57430e-02 -4.43830e-02 -4.30430e-02 -4.23700e-02 -2.12100e-02 -1.11320e-02 -2.42470e-02 -2.34610e-02 -2.26830e-02 -2.60340e-02 -3.35090e-02 -2.04080e-02 -1.96690e-02 -1.89400e-02 -1.82220e-02 -7.71200e-03 -1.64720e-02 -1.61320e-02 -1.54580e-02 -1.47960e-02 -1.41450e-02 -1.35070e-02 -1.31900e-02 -1.22660e-02 -1.16640e-02 -1.10750e-02 -1.04990e-02 -1.49750e-02 -4.08660e-03 -7.08490e-03 -8.32590e-03 -7.81640e-03 -7.32060e-03 -6.83880e-03 -6.37100e-03 -5.91730e-03 -5.47790e-03 -4.19330e-03 -2.05650e-03 -4.24650e-03 -4.65700e-03 -5.86640e-03 -3.75830e-03 -2.81110e-03 -2.48980e-03 -2.18360e-03 -1.89260e-03 -1.61700e-03 -1.35680e-03 -1.11200e-03 -8.82660e-04 -9.06680e-04 -1.17630e-03 -2.87510e-04 -1.19850e-04 3.28110e-05 1.70830e-04 2.95060e-04 4.58640e-04 5.06440e-04 5.96150e-04 6.79230e-04 7.50310e-04 8.41980e-04 9.03730e-04 -1.17780e-01 -9.20730e-02 -6.18410e-02 -5.68390e-02 -5.52450e-02 -5.49200e-02 -5.41020e-02 -5.30410e-02 -5.21380e-02 -5.12340e-02 -5.03630e-02 -4.95370e-02 -4.86920e-02 -3.71090e-02 -1.45830e-02 -4.62470e-02 -4.54180e-02 -4.41600e-02 -4.37710e-02 -4.29470e-02 -4.21100e-02 -4.12760e-02 -4.04350e-02 -3.95950e-02 -3.87500e-02 -6.03680e-02 -4.45510e-02 -3.62190e-02 -3.53750e-02 -3.45350e-02 -3.36960e-02 -3.28610e-02 -3.20290e-02 -3.12010e-02 -3.07870e-02 -4.68150e-02 -4.54670e-02 -4.41290e-02 -4.28080e-02 -4.21470e-02 -2.08740e-02 -1.07430e-02 -2.39890e-02 -2.32210e-02 -2.24610e-02 -2.58530e-02 -3.33920e-02 -2.02320e-02 -1.95070e-02 -1.87910e-02 -1.80850e-02 -7.53270e-03 -1.63620e-02 -1.60270e-02 -1.53620e-02 -1.47080e-02 -1.40650e-02 -1.34330e-02 -1.31200e-02 -1.22040e-02 -1.16080e-02 -1.10240e-02 -1.04520e-02 -1.49600e-02 -4.02520e-03 -7.04160e-03 -8.29290e-03 -7.78580e-03 -7.29230e-03 -6.81230e-03 -6.34610e-03 -5.89370e-03 -5.45550e-03 -4.16940e-03 -2.02850e-03 -4.22630e-03 -4.63790e-03 -5.84920e-03 -3.73920e-03 -2.79170e-03 -2.47020e-03 -2.16390e-03 -1.87270e-03 -1.59680e-03 -1.33620e-03 -1.09100e-03 -8.61250e-04 -8.81850e-04 -1.14510e-03 -2.64930e-04 -9.69970e-05 5.57350e-05 1.93590e-04 3.17040e-04 4.78490e-04 5.24100e-04 6.10020e-04 6.87000e-04 7.57640e-04 8.61810e-04 9.32050e-04 -1.35210e-01 -1.11830e-01 -7.48430e-02 -5.88560e-02 -5.40090e-02 -5.32810e-02 -5.20830e-02 -5.08220e-02 -4.97560e-02 -4.88150e-02 -4.79080e-02 -4.71250e-02 -4.63200e-02 -3.46410e-02 -1.18080e-02 -4.41160e-02 -4.33710e-02 -4.22420e-02 -4.19000e-02 -4.11630e-02 -4.04090e-02 -3.96590e-02 -3.88970e-02 -3.81360e-02 -3.73670e-02 -5.92210e-02 -4.33670e-02 -3.50490e-02 -3.42710e-02 -3.34940e-02 -3.27160e-02 -3.19390e-02 -3.11620e-02 -3.03870e-02 -2.99990e-02 -3.45390e-02 -3.35980e-02 -3.26610e-02 -3.59760e-02 -4.16480e-02 -2.03410e-02 -1.01950e-02 -2.35500e-02 -2.28130e-02 -2.20830e-02 -2.31240e-02 -2.49980e-02 -1.99330e-02 -1.92310e-02 -1.85360e-02 -1.78500e-02 -7.29760e-03 -1.61720e-02 -1.58450e-02 -1.51950e-02 -1.45550e-02 -1.39250e-02 -1.33050e-02 -1.42510e-02 -1.92660e-02 -1.15110e-02 -1.09350e-02 -1.03710e-02 -1.48940e-02 -3.95630e-03 -6.97830e-03 -8.23480e-03 -7.73210e-03 -7.24230e-03 -6.76570e-03 -6.30240e-03 -5.85250e-03 -5.41630e-03 -4.13430e-03 -1.99960e-03 -4.19120e-03 -4.60000e-03 -5.80460e-03 -3.70210e-03 -2.75850e-03 -2.43700e-03 -2.13050e-03 -1.83900e-03 -1.56270e-03 -1.30160e-03 -1.05590e-03 -8.25570e-04 -8.39770e-04 -1.09080e-03 -2.27610e-04 -5.93690e-05 9.33840e-05 2.30760e-04 3.52920e-04 5.10230e-04 5.53100e-04 6.32860e-04 7.01790e-04 7.72650e-04 8.89210e-04 9.66940e-04 -1.45230e-01 -1.20650e-01 -8.15490e-02 -6.18950e-02 -5.53880e-02 -5.29750e-02 -5.12860e-02 -4.98040e-02 -4.85140e-02 -4.74800e-02 -4.65010e-02 -4.57030e-02 -4.48990e-02 -3.31120e-02 -1.00160e-02 -4.28000e-02 -1.34430e-02 -3.13900e-02 -3.65490e-02 -4.00460e-02 -3.93430e-02 -3.86440e-02 -3.79310e-02 -3.72190e-02 -3.64970e-02 -4.29690e-02 -3.82340e-02 -3.43120e-02 -3.35750e-02 -3.28380e-02 -3.20980e-02 -3.13570e-02 -3.06150e-02 -2.98740e-02 -2.95020e-02 -2.83920e-02 -2.76530e-02 -2.69150e-02 -2.84200e-02 -3.09170e-02 -1.75770e-02 -1.00350e-02 -2.32730e-02 -2.25560e-02 -2.18450e-02 -2.11390e-02 -2.07870e-02 -1.97440e-02 -1.90570e-02 -1.83760e-02 -1.77030e-02 -7.15300e-03 -1.60530e-02 -1.57310e-02 -1.50910e-02 -1.44590e-02 -1.38370e-02 -1.32250e-02 -1.36510e-02 -1.46240e-02 -1.14500e-02 -1.08790e-02 -1.03200e-02 -1.48510e-02 -3.91550e-03 -6.94000e-03 -8.19910e-03 -1.16810e-02 -1.13090e-02 -1.05770e-02 -9.86650e-03 -6.90490e-03 -5.38520e-03 -4.96410e-03 -4.55670e-03 -4.35650e-03 -5.17240e-03 -5.77640e-03 -4.96890e-03 -4.45770e-03 -4.20780e-03 -2.10990e-03 -1.81820e-03 -1.54160e-03 -1.28020e-03 -1.03410e-03 -8.03400e-04 -8.13590e-04 -1.05690e-03 -2.84220e-04 -3.61040e-05 1.16570e-04 2.53520e-04 3.74820e-04 5.29480e-04 5.71100e-04 6.47500e-04 7.13710e-04 7.84370e-04 9.00620e-04 9.77670e-04 -1.46770e-01 -1.24060e-01 -8.48750e-02 -6.34400e-02 -5.62910e-02 -3.34650e-02 -4.30790e-02 -4.93640e-02 -4.79940e-02 -4.68250e-02 -4.58140e-02 -4.49730e-02 -4.41670e-02 -3.22900e-02 -9.03830e-03 -1.00180e-02 -1.22040e-02 -1.12310e-02 -3.40890e-02 -3.94460e-02 -3.87700e-02 -3.80970e-02 -3.74110e-02 -3.67240e-02 -3.60270e-02 -3.49720e-02 -3.46230e-02 -3.39140e-02 -3.32000e-02 -3.24850e-02 -3.17650e-02 -1.11540e-02 -1.11110e-02 -1.10670e-02 -2.93270e-02 -2.81500e-02 -2.74270e-02 -2.67040e-02 -2.59840e-02 -2.84770e-02 -3.98880e-02 -2.38350e-02 -2.31260e-02 -2.24200e-02 -2.17190e-02 -2.10220e-02 -2.06750e-02 -1.96450e-02 -1.89650e-02 -1.82920e-02 -1.76260e-02 -7.05600e-03 -1.59920e-02 -1.56720e-02 -1.50370e-02 -1.44100e-02 -1.37930e-02 -1.31850e-02 -1.25860e-02 -1.34940e-02 -1.83130e-02 -1.08520e-02 -1.02950e-02 -1.48600e-02 -3.88430e-03 -6.91740e-03 -1.24140e-02 -9.73910e-03 -8.56390e-03 -8.00440e-03 -7.46060e-03 -6.27940e-03 -5.38070e-03 -4.95980e-03 -4.55260e-03 -4.22240e-03 -4.56070e-03 -5.75760e-03 -4.18560e-03 -3.30190e-03 -2.76350e-03 -2.09570e-03 -1.80380e-03 -1.52690e-03 -1.26520e-03 -1.01880e-03 -8.99470e-04 -9.39990e-04 -1.04620e-03 -2.20200e-04 -1.97440e-05 6.05150e-05 2.65670e-04 4.46440e-04 4.94770e-04 5.83760e-04 6.24440e-04 7.20700e-04 7.90280e-04 9.05750e-04 9.82470e-04 -1.48710e-01 -1.24960e-01 -8.57030e-02 -6.40850e-02 -5.63960e-02 4.55070e-03 -3.21500e-02 -4.93010e-02 -4.77930e-02 -4.66460e-02 -4.55760e-02 -4.47460e-02 -4.39210e-02 -3.20520e-02 -8.76930e-03 -1.38900e-02 -1.15850e-02 -1.19840e-02 -3.96010e-02 -3.92450e-02 -3.85780e-02 -3.79140e-02 -3.72360e-02 -3.65580e-02 -3.58700e-02 -3.48260e-02 -3.44810e-02 -3.37800e-02 -3.30740e-02 -3.23650e-02 -1.13560e-02 -1.12210e-02 -1.11110e-02 -1.10670e-02 -2.87860e-02 -2.80680e-02 -2.73490e-02 -2.66320e-02 -2.59160e-02 -2.74020e-02 -2.98590e-02 -2.37800e-02 -2.30750e-02 -2.23720e-02 -2.16740e-02 -2.09810e-02 -2.06360e-02 -1.96100e-02 -1.89330e-02 -1.82620e-02 -1.75980e-02 -7.04780e-03 -1.59690e-02 -1.56510e-02 -1.50170e-02 -1.43920e-02 -1.37760e-02 -1.31700e-02 -1.25720e-02 -1.29720e-02 -1.39000e-02 -1.08410e-02 -1.03770e-02 -8.04630e-03 -3.88630e-03 -1.31970e-02 -1.03640e-02 -8.28330e-03 -7.19110e-03 -6.71800e-03 -6.25760e-03 -5.81030e-03 -5.37620e-03 -4.95560e-03 -4.54850e-03 -4.15530e-03 -4.11230e-03 -4.31250e-03 -3.31880e-03 -2.72410e-03 -2.40250e-03 -2.09570e-03 -1.80380e-03 -1.52690e-03 -1.26520e-03 -1.01880e-03 -8.99470e-04 -1.34590e-03 -3.72410e-04 -1.88180e-04 -1.97440e-05 1.08730e-04 3.33760e-04 4.08880e-04 4.94770e-04 5.83760e-04 6.47010e-04 6.92160e-04 7.92160e-04 9.07020e-04 9.83110e-04 -1.46770e-01 -1.24060e-01 -8.48750e-02 -6.34400e-02 -5.62910e-02 -5.30670e-02 -5.02890e-02 -4.93640e-02 -4.79940e-02 -4.68250e-02 -4.58140e-02 -4.49730e-02 -4.41670e-02 -4.34650e-02 -3.87710e-02 -3.31120e-02 -1.17760e-02 -1.21600e-02 -1.19410e-02 -3.90870e-02 -3.87700e-02 -3.80970e-02 -3.74110e-02 -3.67240e-02 -3.60280e-02 -4.26630e-02 -3.78690e-02 -1.17640e-02 -1.17760e-02 -1.16750e-02 -1.14760e-02 -1.13310e-02 -1.11820e-02 -1.11340e-02 -2.88740e-02 -2.81500e-02 -2.74270e-02 -2.67040e-02 -2.59840e-02 -2.52650e-02 -2.49060e-02 -2.38350e-02 -2.31260e-02 -2.24200e-02 -2.17190e-02 -2.10220e-02 -2.06750e-02 -1.96450e-02 -1.89650e-02 -1.82920e-02 -1.76260e-02 -7.05600e-03 -1.59920e-02 -1.56720e-02 -1.50370e-02 -1.44100e-02 -1.37930e-02 -1.31850e-02 -1.25860e-02 -1.19980e-02 -1.17060e-02 -9.63930e-03 -1.05610e-02 -9.74930e-03 -9.21500e-03 -1.32130e-02 -9.69050e-03 -7.68300e-03 -7.19690e-03 -6.72340e-03 -6.26270e-03 -5.81510e-03 -5.38070e-03 -4.95980e-03 -4.55260e-03 -4.15930e-03 -3.77990e-03 -3.59380e-03 -3.06400e-03 -2.72770e-03 -2.40610e-03 -2.09930e-03 -1.80740e-03 -1.53060e-03 -1.26900e-03 -1.02260e-03 -9.03290e-04 -5.76210e-04 -3.76330e-04 -1.92130e-04 -2.36800e-05 1.28930e-04 3.30080e-04 3.86460e-04 4.91410e-04 5.80780e-04 6.55720e-04 7.09800e-04 7.88410e-04 9.04480e-04 9.81830e-04 -1.45230e-01 -1.20650e-01 -8.15490e-02 -6.18950e-02 -5.55740e-02 -5.30780e-02 -5.08040e-02 -4.98040e-02 -4.85140e-02 -4.74800e-02 -4.65010e-02 -4.57030e-02 -4.48990e-02 -4.41980e-02 -4.34730e-02 -4.32080e-02 -1.26010e-02 -1.29420e-02 -1.26970e-02 -3.96740e-02 -3.93430e-02 -3.86440e-02 -3.79310e-02 -3.72190e-02 -3.64970e-02 -5.83380e-02 -4.60570e-02 -1.21330e-02 -1.21410e-02 -1.20230e-02 -1.18660e-02 -1.17210e-02 -1.15490e-02 -1.14910e-02 -2.91320e-02 -2.83920e-02 -2.76530e-02 -2.69150e-02 -2.61800e-02 -2.54480e-02 -2.50830e-02 -2.39940e-02 -2.32730e-02 -2.25560e-02 -2.18450e-02 -2.11390e-02 -2.29840e-02 -3.17710e-02 -1.90570e-02 -1.83760e-02 -1.77030e-02 -7.15300e-03 -1.60530e-02 -1.57310e-02 -1.50910e-02 -1.44590e-02 -1.38380e-02 -1.32250e-02 -1.26230e-02 -1.20310e-02 -1.17380e-02 -4.83140e-03 -1.03200e-02 -9.77210e-03 -9.23580e-03 -1.00520e-02 -8.84850e-03 -7.69910e-03 -7.21170e-03 -6.73720e-03 -6.27560e-03 -5.82730e-03 -5.39230e-03 -4.97100e-03 -4.56340e-03 -4.16980e-03 -3.79030e-03 -3.60410e-03 -3.07430e-03 -2.73800e-03 -2.41650e-03 -2.10990e-03 -1.81820e-03 -1.54160e-03 -1.28020e-03 -1.03410e-03 -1.00780e-03 -1.37940e-03 -3.88520e-04 -2.04480e-04 -3.61040e-05 1.16570e-04 3.18070e-04 3.74820e-04 4.80530e-04 5.71100e-04 6.47500e-04 7.13710e-04 7.84370e-04 9.00620e-04 9.77680e-04 -1.35210e-01 -1.11830e-01 -7.48430e-02 -5.88560e-02 -5.52470e-02 -5.32810e-02 -5.16140e-02 -5.08220e-02 -4.97560e-02 -4.88150e-02 -4.79080e-02 -4.71250e-02 -4.63200e-02 -4.55920e-02 -4.48330e-02 -4.45400e-02 -1.40100e-02 -1.42610e-02 -1.39800e-02 -4.07680e-02 -4.04090e-02 -3.96590e-02 -3.88970e-02 -3.81360e-02 -3.73670e-02 -3.65980e-02 -5.76290e-02 -1.29250e-02 -1.29020e-02 -1.27400e-02 -1.25430e-02 -1.23580e-02 -1.21500e-02 -1.20700e-02 -2.96140e-02 -2.88430e-02 -2.80750e-02 -2.73100e-02 -2.65490e-02 -2.57920e-02 -2.54140e-02 -2.42920e-02 -2.35500e-02 -2.28130e-02 -2.20830e-02 -2.13590e-02 -2.46450e-02 -3.19360e-02 -1.92310e-02 -1.85360e-02 -1.78500e-02 -7.29760e-03 -1.61720e-02 -1.58450e-02 -1.51950e-02 -1.45550e-02 -1.39250e-02 -1.33050e-02 -1.26960e-02 -1.20980e-02 -1.18010e-02 -1.09350e-02 -1.03710e-02 -9.81830e-03 -9.27810e-03 -8.48930e-03 -8.23480e-03 -7.73210e-03 -7.24230e-03 -6.76570e-03 -6.30240e-03 -5.85250e-03 -5.41630e-03 -4.99390e-03 -4.58550e-03 -4.19120e-03 -3.81130e-03 -3.62490e-03 -3.09470e-03 -2.75850e-03 -2.43700e-03 -2.13050e-03 -1.83900e-03 -1.56270e-03 -1.30160e-03 -1.05590e-03 -9.40590e-04 -9.45550e-04 -4.11400e-04 -2.27610e-04 -5.93690e-05 9.33840e-05 2.95620e-04 3.52920e-04 4.60230e-04 5.53100e-04 6.32860e-04 7.01790e-04 7.72650e-04 8.89210e-04 9.66940e-04 -1.17780e-01 -9.20730e-02 -6.18410e-02 -5.68390e-02 -5.58020e-02 -5.49200e-02 -5.36090e-02 -5.30410e-02 -5.21380e-02 -5.12340e-02 -5.03630e-02 -4.95370e-02 -4.86920e-02 -4.78870e-02 -4.70540e-02 -4.67060e-02 -1.62560e-02 -1.63730e-02 -1.60190e-02 -4.25120e-02 -4.21100e-02 -4.12770e-02 -4.04350e-02 -3.95950e-02 -3.87500e-02 -3.79070e-02 -5.87300e-02 -1.41750e-02 -1.41120e-02 -1.38810e-02 -1.36200e-02 -1.33720e-02 -1.31050e-02 -1.29940e-02 -3.03770e-02 -2.95580e-02 -2.87440e-02 -2.79350e-02 -2.71330e-02 -2.63370e-02 -2.59400e-02 -2.47640e-02 -2.39890e-02 -2.32210e-02 -2.24610e-02 -2.17100e-02 -2.49590e-02 -3.22060e-02 -1.95070e-02 -1.87910e-02 -1.80850e-02 -7.53270e-03 -1.63620e-02 -1.60270e-02 -1.53620e-02 -1.47080e-02 -1.40650e-02 -1.34330e-02 -1.28130e-02 -1.22040e-02 -1.19030e-02 -1.10240e-02 -1.04520e-02 -9.89300e-03 -9.34660e-03 -8.54970e-03 -8.29290e-03 -7.78580e-03 -7.29230e-03 -6.81230e-03 -6.34610e-03 -5.89380e-03 -5.45550e-03 -5.03140e-03 -4.62160e-03 -4.22630e-03 -3.84550e-03 -3.65880e-03 -3.12810e-03 -2.79170e-03 -2.47020e-03 -2.16390e-03 -1.87270e-03 -1.59680e-03 -1.33620e-03 -1.09100e-03 -8.61250e-04 -7.50250e-04 -4.48230e-04 -2.64930e-04 -9.69970e-05 5.57350e-05 2.58860e-04 3.17040e-04 4.26860e-04 5.24100e-04 6.10020e-04 6.87000e-04 7.57640e-04 8.61810e-04 9.32050e-04 -1.10770e-01 -7.86140e-02 -5.30480e-02 -5.69590e-02 -5.60700e-02 -5.65030e-02 -5.55200e-02 -5.46190e-02 -5.35980e-02 -5.27920e-02 -5.18610e-02 -5.10330e-02 -5.01300e-02 -4.92840e-02 -4.83920e-02 -4.80260e-02 -1.77280e-02 -1.77700e-02 -1.73580e-02 -4.35530e-02 -4.31260e-02 -4.22430e-02 -4.13520e-02 -4.04650e-02 -3.95740e-02 -3.86870e-02 -5.92710e-02 -1.50030e-02 -1.49250e-02 -1.46520e-02 -1.43490e-02 -1.40620e-02 -1.37570e-02 -1.36310e-02 -3.08280e-02 -2.99800e-02 -2.91390e-02 -2.83050e-02 -2.74770e-02 -2.66580e-02 -2.62500e-02 -2.50420e-02 -2.42470e-02 -2.34610e-02 -2.26830e-02 -2.19150e-02 -2.51260e-02 -3.23120e-02 -1.96690e-02 -1.89400e-02 -1.82220e-02 -7.71210e-03 -1.64720e-02 -1.61320e-02 -1.54580e-02 -1.47960e-02 -1.41450e-02 -1.35070e-02 -1.28800e-02 -1.22660e-02 -1.19620e-02 -1.10750e-02 -1.04990e-02 -9.93570e-03 -9.38570e-03 -8.58410e-03 -8.32590e-03 -7.81640e-03 -7.32060e-03 -6.83880e-03 -6.37100e-03 -5.91730e-03 -5.47790e-03 -5.05290e-03 -4.64240e-03 -4.24650e-03 -3.86530e-03 -3.67850e-03 -3.14760e-03 -2.81110e-03 -2.48980e-03 -2.18360e-03 -1.89260e-03 -1.61700e-03 -1.35680e-03 -1.11200e-03 -8.82660e-04 -7.71870e-04 -4.70460e-04 -2.87510e-04 -1.19850e-04 3.28100e-05 2.36210e-04 2.95060e-04 4.06270e-04 5.06440e-04 5.96150e-04 6.79230e-04 7.50310e-04 8.41980e-04 9.03740e-04 -5.01180e-02 -2.32830e-02 -1.72670e-02 -2.11620e-02 1.29360e-02 1.22400e-02 1.19040e-02 1.21080e-02 1.20270e-02 1.20210e-02 1.18630e-02 1.16670e-02 1.13860e-02 1.10610e-02 2.08840e-02 4.08550e-02 3.75270e-02 9.29210e-03 9.08280e-03 8.68130e-03 8.29240e-03 7.91390e-03 7.55040e-03 7.19950e-03 6.86370e-03 6.54060e-03 -1.54480e-02 2.65840e-02 2.62270e-02 2.54100e-02 2.45860e-02 2.38000e-02 2.30160e-02 2.26560e-02 -1.32890e-02 3.97320e-03 3.77350e-03 3.58280e-03 3.40090e-03 3.22750e-03 3.06230e-03 2.98180e-03 -1.61470e-03 -1.03420e-02 -1.00280e-02 -9.87250e-03 -1.73780e-03 2.11650e-03 2.00850e-03 1.90660e-03 1.15430e-02 4.96520e-03 -7.41230e-03 -1.45960e-03 1.48050e-03 1.41050e-03 1.34500e-03 -1.11010e-03 -5.95710e-03 1.17410e-03 1.12500e-03 1.07950e-03 1.03740e-03 9.98620e-04 9.45810e-04 9.30130e-04 9.00110e-04 8.72690e-04 8.47730e-04 8.25080e-04 8.04580e-04 7.86110e-04 7.69520e-04 7.54700e-04 1.60910e-03 3.33180e-03 -1.67250e-03 7.10490e-04 -1.14680e-03 7.95710e-05 6.90070e-04 6.85150e-04 2.74000e-04 -4.77480e-04 -3.48540e-04 -2.27040e-04 -1.13020e-04 -5.78730e-05 1.29270e-03 6.67590e-04 6.67090e-04 6.66770e-04 6.66590e-04 6.66510e-04 6.66500e-04 6.66510e-04 6.66540e-04 6.66550e-04 6.66570e-04 6.66530e-04 6.66470e-04 -6.05910e-02 -2.99790e-02 -1.92960e-02 -1.97800e-02 1.49160e-02 1.48390e-02 1.45690e-02 1.44270e-02 1.42950e-02 1.40820e-02 1.38320e-02 1.34900e-02 1.31180e-02 1.26840e-02 2.24260e-02 4.22820e-02 3.88420e-02 1.05890e-02 1.03470e-02 9.88610e-03 9.44150e-03 9.00840e-03 8.59280e-03 8.19110e-03 7.80620e-03 7.43560e-03 -1.45560e-02 2.73220e-02 2.69380e-02 2.60790e-02 2.52190e-02 2.43950e-02 2.35780e-02 2.31970e-02 -1.26940e-02 4.47900e-03 4.24860e-03 4.02870e-03 3.81900e-03 3.61900e-03 3.42860e-03 3.33570e-03 1.24770e-03 -4.72680e-03 -9.72030e-03 -9.57490e-03 -1.49190e-03 2.33820e-03 2.21380e-03 2.09630e-03 1.16850e-02 5.11570e-03 -7.24590e-03 -1.31740e-03 1.60520e-03 1.52450e-03 1.44910e-03 -1.00680e-03 -5.84550e-03 1.25210e-03 1.19550e-03 1.14300e-03 1.09450e-03 1.04980e-03 9.88900e-04 9.70810e-04 9.36200e-04 9.04580e-04 8.75790e-04 8.49660e-04 8.26020e-04 8.04700e-04 7.85560e-04 7.68440e-04 1.61610e-03 3.32750e-03 -1.64870e-03 7.17390e-04 -1.12760e-03 8.87090e-05 6.93780e-04 6.88080e-04 2.80800e-04 -4.62570e-04 -3.34230e-04 -2.13250e-04 -9.96630e-05 -4.46880e-05 1.28050e-03 6.67660e-04 6.67070e-04 6.66700e-04 6.66480e-04 6.66390e-04 6.66390e-04 6.66420e-04 6.66470e-04 6.66530e-04 6.66590e-04 6.66560e-04 6.66480e-04 -7.70050e-02 -4.03450e-02 -2.33110e-02 -1.88030e-02 1.95880e-02 1.92360e-02 1.86440e-02 1.82970e-02 1.79220e-02 1.75070e-02 1.70460e-02 1.65170e-02 1.59710e-02 1.53820e-02 2.51090e-02 4.50810e-02 4.12190e-02 1.27400e-02 1.24480e-02 1.18890e-02 1.13510e-02 1.08280e-02 1.03260e-02 9.83990e-03 9.37360e-03 8.92410e-03 3.04930e-02 2.92820e-02 2.82630e-02 2.73360e-02 2.64070e-02 2.55200e-02 2.46390e-02 2.42300e-02 -1.18220e-02 -1.12620e-02 -1.10490e-02 -1.08340e-02 -1.07160e-02 4.27000e-03 4.03760e-03 3.92420e-03 3.60610e-03 1.63790e-03 -4.17560e-03 -9.04150e-03 -8.79590e-03 2.70660e-03 2.55470e-03 2.41140e-03 1.19880e-02 5.38760e-03 -7.03020e-03 -1.10130e-03 1.81220e-03 1.71370e-03 1.62160e-03 -8.51230e-04 -5.70810e-03 1.38130e-03 1.31220e-03 1.24820e-03 1.18900e-03 1.13440e-03 1.06010e-03 1.03810e-03 9.95810e-04 9.57220e-04 9.22080e-04 8.90180e-04 8.61310e-04 8.35290e-04 8.11920e-04 7.91010e-04 1.63280e-03 3.33610e-03 -1.62390e-03 7.28630e-04 -1.10670e-03 1.00130e-04 6.99750e-04 6.92780e-04 2.89790e-04 -4.43900e-04 -3.15670e-04 -1.94700e-04 -8.10200e-05 -2.59680e-05 8.69110e-04 6.67720e-04 6.66990e-04 6.66520e-04 6.66270e-04 6.66170e-04 6.66190e-04 6.66240e-04 6.66340e-04 6.66470e-04 6.66590e-04 6.66610e-04 6.66570e-04 -8.48860e-02 -4.55520e-02 -2.65370e-02 -1.94400e-02 2.22800e-02 2.15310e-02 2.09760e-02 2.06100e-02 2.01290e-02 1.96260e-02 1.90550e-02 1.84250e-02 1.77790e-02 1.70980e-02 2.68530e-02 4.69690e-02 3.15260e-02 1.41180e-02 1.37930e-02 1.31730e-02 1.25760e-02 1.19960e-02 1.14380e-02 1.08980e-02 1.03800e-02 -1.18980e-02 3.07610e-02 3.01600e-02 2.91290e-02 2.81590e-02 2.71850e-02 2.62560e-02 2.53340e-02 2.46610e-02 2.41670e-02 2.89610e-04 1.43080e-04 -4.15850e-03 -1.03630e-02 -1.00920e-02 6.44250e-03 8.95910e-03 3.94680e-03 3.72380e-03 1.77780e-03 -3.86850e-03 -8.66290e-03 2.94270e-03 2.77320e-03 2.61320e-03 1.21870e-02 5.56360e-03 -6.89780e-03 -9.65090e-04 1.94450e-03 1.83460e-03 1.73180e-03 6.14030e-04 -1.93780e-03 -5.32030e-03 1.38650e-03 1.31510e-03 1.24910e-03 1.18820e-03 1.10530e-03 1.08070e-03 1.03350e-03 9.90490e-04 9.51280e-04 9.15700e-04 8.83500e-04 -2.36030e-03 -2.26080e-03 -2.06440e-03 -1.87330e-03 -1.77910e-03 -1.62290e-03 7.35520e-04 -1.09460e-03 1.06840e-04 7.03330e-04 6.95550e-04 2.95120e-04 -4.32750e-04 -3.04490e-04 -1.83430e-04 -6.96260e-05 -1.45040e-05 6.69550e-04 6.68120e-04 6.66850e-04 6.66350e-04 6.66070e-04 6.65970e-04 6.66030e-04 6.66090e-04 6.66230e-04 6.66400e-04 6.66560e-04 6.66680e-04 6.66720e-04 -8.79930e-02 -4.77410e-02 -2.82260e-02 -1.99450e-02 6.04860e-03 2.25540e-02 2.21920e-02 2.17640e-02 2.13120e-02 2.07480e-02 2.01520e-02 1.94620e-02 1.87750e-02 1.80420e-02 2.77850e-02 4.79050e-02 1.96750e-02 1.46420e-02 1.43460e-02 1.38860e-02 1.32570e-02 1.26450e-02 1.20560e-02 1.14870e-02 1.09400e-02 -1.17780e-02 3.12450e-02 3.06310e-02 2.95750e-02 2.85800e-02 2.75830e-02 1.90750e-02 1.34220e-02 1.76120e-02 2.43120e-02 6.16130e-03 5.82900e-03 3.32300e-03 -3.90150e-03 -1.00510e-02 9.40670e-03 1.86600e-02 4.13630e-03 3.90040e-03 3.67670e-03 1.79400e-03 -5.71110e-04 3.07390e-03 2.89460e-03 2.72530e-03 1.22800e-02 5.65540e-03 -6.80820e-03 -8.84100e-04 2.01780e-03 1.90160e-03 1.79290e-03 1.69150e-03 -6.78160e-04 -5.31960e-03 1.42770e-03 1.35210e-03 1.28230e-03 1.21790e-03 1.13020e-03 1.10420e-03 1.05430e-03 -3.20960e-03 -3.10070e-03 -2.88490e-03 -2.67360e-03 -8.05620e-04 -1.93450e-04 -1.44690e-04 -9.58780e-05 -4.53540e-04 -1.59970e-03 7.39220e-04 -1.08610e-03 -1.00680e-03 -8.51270e-04 -7.02380e-04 -5.60210e-04 -4.24920e-04 -2.96630e-04 -1.75500e-04 -1.16770e-04 -8.57570e-06 8.60680e-04 6.67750e-04 6.66700e-04 6.66360e-04 6.65940e-04 6.65790e-04 6.65840e-04 6.65960e-04 6.66040e-04 6.66350e-04 6.66550e-04 6.66750e-04 6.66850e-04 -9.93080e-03 1.87510e-03 7.49970e-03 1.02990e-02 2.18690e-02 2.25830e-02 2.24840e-02 2.21580e-02 2.16470e-02 2.11150e-02 2.04840e-02 2.50100e-02 2.91250e-02 2.84530e-02 3.22840e-02 4.83270e-02 1.61650e-02 1.54590e-02 1.44310e-02 1.41140e-02 1.34740e-02 1.28520e-02 1.22530e-02 1.16750e-02 1.11180e-02 -1.16590e-02 3.14590e-02 3.08350e-02 2.97690e-02 2.87660e-02 1.99360e-02 1.05050e-02 7.36840e-03 1.29330e-02 2.44580e-02 6.25720e-03 5.91910e-03 5.59620e-03 3.14570e-03 -2.38390e-03 -9.80110e-03 1.87610e-02 4.19670e-03 3.95670e-03 3.72900e-03 3.51320e-03 3.40830e-03 3.11570e-03 2.93320e-03 2.76100e-03 1.23340e-02 5.69260e-03 -6.80150e-03 -8.65620e-04 2.04120e-03 1.92290e-03 1.81230e-03 1.70920e-03 6.36000e-04 -1.81510e-03 -5.07480e-03 1.36390e-03 2.09950e-03 2.35610e-03 1.13810e-03 1.10280e-03 -3.43150e-03 -1.16400e-03 -3.85280e-04 -3.38900e-04 -2.91560e-04 3.72980e-04 8.40230e-04 8.15150e-04 7.92830e-04 4.36740e-04 -3.73650e-04 -1.42250e-03 -1.14110e-03 -3.35800e-04 1.86770e-04 2.30830e-04 2.73540e-04 3.14750e-04 3.54330e-04 3.92140e-04 4.10580e-04 9.83920e-04 1.24290e-03 6.67560e-04 6.66700e-04 6.66240e-04 6.65810e-04 6.65800e-04 6.65840e-04 6.65960e-04 6.66100e-04 6.66220e-04 6.66550e-04 6.66780e-04 6.66900e-04 2.89070e-02 2.71620e-02 2.56510e-02 2.52490e-02 2.38180e-02 4.11410e-02 2.56920e-02 2.17640e-02 2.13120e-02 2.07480e-02 2.01520e-02 4.58630e-02 4.92060e-02 4.86700e-02 4.47900e-02 1.69340e-02 1.59040e-02 1.52090e-02 1.45410e-02 1.35740e-02 1.32570e-02 1.26450e-02 1.20560e-02 1.14870e-02 1.09400e-02 -1.16590e-02 3.12450e-02 2.21520e-02 1.57910e-02 1.51620e-02 1.08430e-02 7.65030e-03 7.25330e-03 1.28100e-02 2.43120e-02 6.16130e-03 5.82900e-03 5.51170e-03 5.20910e-03 2.83720e-03 -1.28220e-04 1.86600e-02 4.13630e-03 3.90040e-03 3.67670e-03 1.79390e-03 -5.71110e-04 3.07390e-03 2.89460e-03 2.72530e-03 1.22800e-02 5.65540e-03 -6.80820e-03 -8.84110e-04 2.01780e-03 1.90160e-03 1.79290e-03 1.69150e-03 1.59700e-03 5.76790e-04 -7.22820e-04 1.36790e-03 3.17510e-03 6.87150e-03 1.15860e-03 1.08510e-03 -4.60940e-04 3.66490e-04 9.67330e-04 9.29690e-04 8.95650e-04 8.64950e-04 8.37390e-04 8.12740e-04 7.90800e-04 7.71360e-04 3.44770e-05 -1.42100e-03 -1.16760e-03 1.11380e-04 7.05210e-04 6.96990e-04 6.90090e-04 6.84350e-04 6.79650e-04 6.75870e-04 6.74190e-04 1.34960e-03 6.68830e-04 6.67590e-04 6.66740e-04 6.66220e-04 6.65850e-04 6.65840e-04 6.65880e-04 6.65990e-04 6.66160e-04 6.66320e-04 6.66560e-04 6.66730e-04 6.66800e-04 3.08010e-02 2.77950e-02 2.54410e-02 2.45200e-02 2.26030e-02 3.94880e-02 2.70260e-02 2.06100e-02 2.01290e-02 1.96260e-02 1.90550e-02 1.84250e-02 1.77790e-02 1.70980e-02 1.64270e-02 1.60590e-02 1.50840e-02 1.44270e-02 1.37930e-02 1.28770e-02 1.25760e-02 1.19960e-02 1.14380e-02 1.08980e-02 1.03800e-02 9.87980e-03 3.10300e-02 1.31760e-02 8.49420e-03 8.06820e-03 7.65970e-03 7.26790e-03 6.89260e-03 1.24690e-02 2.39880e-02 5.86050e-03 5.54650e-03 5.24660e-03 4.96060e-03 4.68800e-03 4.55510e-03 1.84560e-02 3.94680e-03 3.72380e-03 3.51240e-03 -6.14670e-04 -8.66290e-03 1.30360e-03 2.77320e-03 2.61320e-03 1.21870e-02 5.56360e-03 -6.89780e-03 -9.65100e-04 1.94450e-03 1.83460e-03 1.73180e-03 1.63600e-03 1.54670e-03 1.46360e-03 1.42360e-03 1.37600e-03 1.24910e-03 1.18820e-03 1.13210e-03 -3.71390e-03 6.60290e-05 9.90480e-04 9.51280e-04 9.15690e-04 8.83490e-04 8.54470e-04 8.28390e-04 8.05080e-04 7.84320e-04 7.65930e-04 2.76000e-05 -1.43180e-03 -1.17730e-03 1.06830e-04 7.03330e-04 6.95550e-04 6.89010e-04 6.83570e-04 6.79120e-04 6.75530e-04 6.73930e-04 6.70490e-04 6.68850e-04 6.67660e-04 6.66850e-04 6.66350e-04 6.65990e-04 6.65970e-04 6.65990e-04 6.66090e-04 6.66230e-04 6.66400e-04 6.66560e-04 6.66680e-04 6.66720e-04 3.11390e-02 2.89220e-02 2.49120e-02 2.20490e-02 2.02830e-02 3.78010e-02 2.48700e-02 1.82970e-02 1.79220e-02 1.75070e-02 1.70460e-02 1.65170e-02 1.59710e-02 1.53820e-02 1.47960e-02 1.44690e-02 1.36050e-02 1.30160e-02 1.24480e-02 1.16230e-02 1.13510e-02 1.08280e-02 1.03260e-02 9.83990e-03 9.37360e-03 8.92400e-03 8.49280e-03 7.87570e-03 7.68010e-03 7.29810e-03 6.93200e-03 6.58080e-03 6.24460e-03 1.18380e-02 2.33530e-02 5.32020e-03 5.03890e-03 4.77030e-03 4.51420e-03 4.27000e-03 4.15090e-03 1.80430e-02 3.60610e-03 3.40640e-03 3.21700e-03 -8.83340e-04 -8.89950e-03 -2.86430e-03 1.00130e-03 2.41140e-03 1.19880e-02 5.38760e-03 -7.03020e-03 -1.10140e-03 1.81220e-03 1.71370e-03 1.62160e-03 1.53570e-03 1.45570e-03 4.63580e-04 -8.07820e-04 1.24820e-03 1.18900e-03 1.13440e-03 1.08420e-03 -3.72000e-03 -5.89590e-04 9.57220e-04 9.22080e-04 8.90180e-04 8.61310e-04 8.35290e-04 8.11910e-04 7.91010e-04 7.72390e-04 7.55900e-04 1.70590e-05 -1.44520e-03 -1.18970e-03 1.00130e-04 6.99750e-04 6.92770e-04 6.86900e-04 6.82030e-04 6.78030e-04 6.74800e-04 5.32390e-04 -3.15040e-05 6.68790e-04 6.67720e-04 6.66990e-04 6.66520e-04 6.66180e-04 6.66160e-04 6.66170e-04 6.66240e-04 6.66340e-04 6.66470e-04 6.66590e-04 6.66610e-04 6.66570e-04 3.81760e-02 2.97520e-02 1.98010e-02 1.71570e-02 1.54780e-02 3.49530e-02 2.12360e-02 1.44270e-02 1.42950e-02 1.40820e-02 1.38320e-02 1.34900e-02 1.31180e-02 1.26840e-02 1.22390e-02 1.19810e-02 1.12930e-02 1.08140e-02 1.03470e-02 9.66670e-03 9.44150e-03 9.00840e-03 8.59280e-03 8.19110e-03 7.80620e-03 7.43560e-03 7.08070e-03 6.57350e-03 6.41290e-03 6.09940e-03 5.79920e-03 5.51150e-03 5.23600e-03 1.08610e-02 2.23810e-02 4.47900e-03 4.24860e-03 4.02870e-03 3.81890e-03 3.61900e-03 3.52150e-03 1.74140e-02 3.07510e-03 2.91160e-03 2.75640e-03 -1.30620e-03 -9.28030e-03 -8.69470e-03 -4.26320e-03 6.04380e-04 1.18280e-02 3.83030e-03 -7.24600e-03 -1.31740e-03 1.60520e-03 1.52450e-03 1.44910e-03 1.37870e-03 1.31310e-03 -9.14420e-04 -5.30610e-03 1.14300e-03 1.09450e-03 1.04980e-03 1.00860e-03 -3.78230e-03 -6.47660e-04 9.04580e-04 8.75790e-04 8.49650e-04 8.26010e-04 8.04700e-04 7.85560e-04 7.68440e-04 7.53200e-04 7.39700e-04 -5.54770e-07 -1.46840e-03 -1.21110e-03 8.87070e-05 6.93780e-04 6.88080e-04 6.83280e-04 6.79300e-04 6.76040e-04 6.73420e-04 4.33270e-04 -4.46890e-05 6.68530e-04 6.67660e-04 6.67070e-04 6.66690e-04 6.66410e-04 6.66390e-04 6.66380e-04 6.66420e-04 6.66470e-04 6.66530e-04 6.66590e-04 6.66560e-04 6.66480e-04 4.75460e-02 2.99370e-02 1.49440e-02 1.43140e-02 1.20020e-02 3.21380e-02 1.88880e-02 1.21080e-02 1.20270e-02 1.20210e-02 1.18630e-02 1.16670e-02 1.13860e-02 1.10610e-02 1.06950e-02 1.04910e-02 9.89960e-03 9.48850e-03 9.08280e-03 8.48900e-03 8.29240e-03 7.91380e-03 7.55040e-03 7.19950e-03 6.86360e-03 6.54060e-03 6.23160e-03 5.79070e-03 5.65110e-03 5.37880e-03 5.11830e-03 4.86860e-03 4.62970e-03 1.02970e-02 2.18670e-02 3.97320e-03 3.77350e-03 3.58280e-03 3.40090e-03 3.22740e-03 3.14290e-03 1.70950e-02 2.75580e-03 2.61390e-03 2.47920e-03 -1.57670e-03 -9.55750e-03 -8.93550e-03 -8.78160e-03 -1.63780e-03 1.81050e-03 1.67630e-03 -7.41230e-03 -1.45960e-03 1.48050e-03 1.41050e-03 1.34500e-03 1.28390e-03 1.22700e-03 -1.00050e-03 -5.40060e-03 1.07950e-03 1.03740e-03 9.98620e-04 9.62910e-04 -3.83840e-03 -6.88980e-04 8.72690e-04 8.47730e-04 8.25070e-04 8.04580e-04 7.86110e-04 7.69520e-04 7.54690e-04 7.41490e-04 7.29800e-04 -1.39450e-05 -1.49050e-03 -1.23100e-03 7.95680e-05 6.90070e-04 6.85150e-04 6.81010e-04 6.77580e-04 6.74770e-04 6.72510e-04 4.28380e-04 -5.78740e-05 6.68330e-04 6.67590e-04 6.67090e-04 6.66770e-04 6.66530e-04 6.66510e-04 6.66500e-04 6.66510e-04 6.66540e-04 6.66550e-04 6.66570e-04 6.66530e-04 6.66470e-04 1.99790e-01 1.34230e-01 7.90420e-02 8.12080e-02 6.16580e-02 7.04590e-02 7.58620e-02 7.56650e-02 7.46730e-02 7.39600e-02 7.28010e-02 7.16750e-02 7.02770e-02 6.88760e-02 6.73240e-02 6.66610e-02 6.41690e-02 6.17250e-02 6.09670e-02 5.93850e-02 5.78050e-02 5.62580e-02 5.47240e-02 5.32230e-02 5.17400e-02 5.02870e-02 6.87010e-02 5.40690e-02 4.60720e-02 4.47180e-02 4.33860e-02 4.20800e-02 4.07960e-02 4.01610e-02 3.82990e-02 3.70860e-02 3.58950e-02 3.47280e-02 3.35820e-02 3.24600e-02 3.13590e-02 3.08150e-02 1.64690e-02 2.81910e-02 2.71780e-02 2.61870e-02 1.35910e-02 1.33240e-02 1.27990e-02 1.22870e-02 2.11110e-02 2.06830e-02 1.98380e-02 1.01480e-02 9.92850e-03 9.49560e-03 9.07520e-03 8.86820e-03 1.51880e-02 1.44820e-02 1.37940e-02 1.31260e-02 1.24760e-02 1.18460e-02 1.09320e-02 1.06400e-02 1.00640e-02 9.50690e-03 8.96770e-03 8.44640e-03 7.94290e-03 7.45710e-03 6.98890e-03 6.53810e-03 6.10470e-03 5.89230e-03 5.28950e-03 4.90750e-03 4.54250e-03 2.37080e-03 2.28830e-03 2.12770e-03 2.04960e-03 2.96860e-03 2.70360e-03 2.45490e-03 2.22250e-03 2.00640e-03 2.00980e-03 2.22470e-03 1.45360e-03 1.30050e-03 1.16220e-03 1.03790e-03 8.74330e-04 8.26570e-04 7.36930e-04 6.53890e-04 5.82850e-04 4.91110e-04 4.29250e-04 1.86490e-01 1.46340e-01 9.73160e-02 8.66120e-02 6.50350e-02 7.52990e-02 7.97930e-02 7.85410e-02 7.75390e-02 7.63340e-02 7.50340e-02 7.36450e-02 7.21150e-02 7.05630e-02 6.89110e-02 6.81870e-02 6.55840e-02 6.30380e-02 6.22490e-02 6.06090e-02 5.89740e-02 5.73750e-02 5.57900e-02 5.42400e-02 5.27100e-02 5.12110e-02 6.96520e-02 5.49290e-02 4.68660e-02 4.54710e-02 4.41000e-02 4.27560e-02 4.14350e-02 4.07830e-02 3.88700e-02 3.76250e-02 3.64030e-02 3.52060e-02 3.40320e-02 3.28820e-02 3.17560e-02 3.11990e-02 1.66510e-02 1.64190e-02 2.74820e-02 2.64700e-02 1.37930e-02 1.35180e-02 1.29760e-02 1.24500e-02 2.12980e-02 2.08630e-02 2.00040e-02 1.02550e-02 1.00300e-02 9.58690e-03 9.15710e-03 8.94550e-03 1.52830e-02 1.45670e-02 1.38710e-02 1.31950e-02 1.25370e-02 1.18990e-02 1.09760e-02 1.06800e-02 1.00990e-02 9.53610e-03 8.99190e-03 8.46590e-03 7.95800e-03 7.46820e-03 6.99630e-03 6.54210e-03 6.10560e-03 5.89170e-03 5.28490e-03 4.90060e-03 4.53340e-03 2.36110e-03 2.27830e-03 2.11700e-03 2.03870e-03 2.95140e-03 2.68520e-03 2.43540e-03 2.20210e-03 1.98510e-03 1.98460e-03 2.19240e-03 1.43070e-03 1.27740e-03 1.13920e-03 1.01560e-03 8.54260e-04 8.08710e-04 7.22930e-04 6.46070e-04 5.75550e-04 4.71320e-04 4.00980e-04 1.88000e-01 1.63280e-01 1.20290e-01 9.82970e-02 7.41420e-02 8.22400e-02 8.56470e-02 8.37500e-02 8.20760e-02 8.04440e-02 7.86750e-02 7.69830e-02 7.51500e-02 7.33890e-02 7.15400e-02 7.07570e-02 6.79270e-02 6.52060e-02 6.43720e-02 6.26360e-02 6.09080e-02 5.92210e-02 5.75520e-02 5.59200e-02 5.43110e-02 5.27350e-02 5.75220e-02 5.26000e-02 4.81740e-02 4.67120e-02 4.52760e-02 4.38690e-02 4.24880e-02 4.18060e-02 3.98090e-02 3.85100e-02 3.72370e-02 3.59910e-02 3.47700e-02 3.35750e-02 3.24060e-02 3.18280e-02 1.70230e-02 1.65610e-02 1.62970e-02 2.69330e-02 1.42050e-02 1.39150e-02 1.33450e-02 1.27910e-02 2.16020e-02 2.11550e-02 2.02720e-02 1.04890e-02 1.02540e-02 9.79210e-03 9.34410e-03 9.12370e-03 1.54360e-02 1.47050e-02 1.39940e-02 1.33040e-02 1.26340e-02 1.19840e-02 1.10440e-02 1.07440e-02 1.01530e-02 9.58120e-03 9.02870e-03 8.49510e-03 7.98030e-03 7.48400e-03 7.00620e-03 6.54650e-03 6.10500e-03 5.88880e-03 5.27560e-03 4.88750e-03 4.51680e-03 2.35440e-03 2.27040e-03 2.10720e-03 2.02790e-03 2.92210e-03 2.65400e-03 2.40260e-03 2.16790e-03 1.94960e-03 1.94220e-03 2.13720e-03 1.39280e-03 1.23930e-03 1.10150e-03 9.79270e-04 8.22110e-04 7.79350e-04 6.99820e-04 6.31150e-04 5.60530e-04 4.44050e-04 3.66280e-04 1.96990e-01 1.69770e-01 1.28100e-01 1.06270e-01 7.98730e-02 8.79100e-02 8.93290e-02 8.71320e-02 8.50290e-02 8.31200e-02 8.10690e-02 7.91670e-02 7.71440e-02 7.52370e-02 7.32610e-02 7.24330e-02 6.94550e-02 5.75440e-02 6.17410e-02 6.39510e-02 6.21620e-02 6.04180e-02 5.86930e-02 5.70090e-02 5.53480e-02 7.46940e-02 5.60100e-02 5.05590e-02 4.90210e-02 4.75150e-02 4.60360e-02 4.45890e-02 4.31690e-02 4.20900e-02 4.13350e-02 2.28900e-02 2.20520e-02 2.16480e-02 3.52460e-02 3.40220e-02 3.28250e-02 3.22330e-02 2.62060e-02 2.19790e-02 1.61860e-02 1.58020e-02 1.44770e-02 1.41770e-02 1.35880e-02 1.69830e-02 2.17970e-02 2.13420e-02 2.04450e-02 1.06440e-02 1.04030e-02 9.92820e-03 9.46820e-03 9.10100e-03 8.81880e-03 1.47930e-02 1.40730e-02 1.33740e-02 1.26960e-02 1.20390e-02 1.10880e-02 1.07850e-02 1.01880e-02 9.61030e-03 9.05250e-03 8.51410e-03 7.99480e-03 7.49440e-03 7.01270e-03 6.32470e-03 6.10620e-03 5.88780e-03 5.26990e-03 4.87930e-03 4.50650e-03 2.35070e-03 2.26600e-03 2.10140e-03 2.02150e-03 2.90360e-03 2.63440e-03 2.38200e-03 2.14640e-03 1.92730e-03 1.91550e-03 2.10260e-03 1.36910e-03 1.21570e-03 1.07830e-03 9.56950e-04 8.02520e-04 7.61040e-04 6.84960e-04 6.19090e-04 5.48760e-04 4.32790e-04 3.55850e-04 1.94650e-01 1.72110e-01 1.32000e-01 1.09250e-01 8.36320e-02 7.57140e-02 8.39910e-02 8.88820e-02 8.67550e-02 8.45880e-02 8.24510e-02 8.03950e-02 7.82900e-02 7.62880e-02 7.42470e-02 7.33800e-02 7.03280e-02 4.05150e-02 5.32300e-02 6.10550e-02 6.28760e-02 6.10990e-02 5.93430e-02 5.76280e-02 5.59380e-02 7.48250e-02 5.95160e-02 5.10670e-02 4.95030e-02 4.79720e-02 4.64700e-02 4.49990e-02 4.35570e-02 4.21460e-02 4.45090e-02 5.67620e-02 2.87360e-02 2.15390e-02 2.10680e-02 3.42790e-02 3.30650e-02 3.49120e-02 4.46950e-02 2.78890e-02 2.12790e-02 1.56890e-02 1.53070e-02 1.85710e-02 2.07840e-02 3.28870e-02 2.41060e-02 2.14510e-02 2.05450e-02 1.07150e-02 1.04710e-02 9.98920e-03 9.52330e-03 9.07260e-03 8.85100e-03 1.48450e-02 1.41200e-02 1.34160e-02 1.27330e-02 1.20710e-02 1.11150e-02 1.08090e-02 1.02090e-02 9.62820e-03 9.06750e-03 8.52620e-03 8.00430e-03 4.07180e-03 3.94560e-03 3.69880e-03 3.46280e-03 3.34740e-03 5.26770e-03 4.87580e-03 4.50160e-03 2.34400e-03 2.25940e-03 2.09490e-03 2.01500e-03 2.89390e-03 2.62400e-03 2.37100e-03 2.13480e-03 1.91540e-03 1.90140e-03 2.08450e-03 1.35240e-03 1.27160e-03 1.06590e-03 8.85000e-04 8.36800e-04 7.48110e-04 7.07610e-04 6.12000e-04 5.42820e-04 4.27800e-04 3.51310e-04 1.48530e-01 1.02410e-01 7.98510e-02 7.13320e-02 6.88430e-02 4.06150e-02 7.45270e-02 9.79100e-02 9.82160e-02 9.51540e-02 9.32110e-02 8.41120e-02 7.86390e-02 7.66290e-02 7.48400e-02 7.36950e-02 7.06010e-02 6.86930e-02 4.15830e-02 5.65100e-02 6.31000e-02 6.13130e-02 5.95470e-02 5.78230e-02 5.61230e-02 7.49570e-02 5.96680e-02 5.12260e-02 4.96540e-02 4.81150e-02 4.66050e-02 4.51270e-02 4.36780e-02 4.22600e-02 4.66250e-02 5.67620e-02 3.60420e-02 2.78160e-02 2.08080e-02 2.02860e-02 3.31390e-02 3.65900e-02 4.46950e-02 2.96480e-02 2.47110e-02 1.56330e-02 1.53070e-02 2.14620e-02 2.43570e-02 3.28870e-02 2.55920e-02 2.14840e-02 2.05750e-02 1.07580e-02 1.05120e-02 1.00280e-02 9.55940e-03 9.10610e-03 8.73960e-03 8.45240e-03 1.41330e-02 1.34280e-02 1.27430e-02 1.28760e-02 1.27750e-02 1.14810e-02 1.02140e-02 5.19450e-03 5.04550e-03 4.75320e-03 4.47260e-03 4.15960e-03 3.94560e-03 3.69880e-03 3.46280e-03 3.27410e-03 3.12730e-03 4.87410e-03 4.49970e-03 2.34800e-03 2.26280e-03 2.09720e-03 1.94100e-03 1.79410e-03 1.65630e-03 1.52740e-03 1.46530e-03 2.00700e-03 2.01470e-03 2.07810e-03 1.35240e-03 1.22320e-03 9.97600e-04 9.22530e-04 8.36800e-04 7.48110e-04 6.85170e-04 6.40290e-04 5.40940e-04 4.26590e-04 3.50770e-04 1.76950e-01 1.48430e-01 1.14090e-01 9.57470e-02 8.65710e-02 9.32640e-02 9.12200e-02 1.31220e-01 1.20250e-01 1.15230e-01 1.13930e-01 8.85150e-02 7.86390e-02 7.66290e-02 7.54120e-02 4.79050e-02 7.03280e-02 6.84320e-02 6.65370e-02 3.86290e-02 5.42140e-02 6.10990e-02 5.93430e-02 5.76280e-02 5.59380e-02 7.49570e-02 5.64800e-02 5.10670e-02 4.95030e-02 4.79720e-02 4.64700e-02 4.49990e-02 4.35570e-02 4.21460e-02 4.65290e-02 5.66940e-02 3.80840e-02 3.47010e-02 2.67070e-02 1.98800e-02 1.92940e-02 3.65290e-02 4.46560e-02 2.95880e-02 2.46460e-02 1.56890e-02 1.53070e-02 1.85710e-02 2.27030e-02 3.28700e-02 2.55640e-02 2.14510e-02 2.05450e-02 1.07150e-02 1.04710e-02 9.98920e-03 9.52330e-03 9.07260e-03 8.63680e-03 8.27550e-03 7.98110e-03 1.43040e-02 1.39780e-02 1.39370e-02 1.60810e-02 1.30760e-02 5.47550e-03 7.33690e-03 7.72430e-03 7.26660e-03 6.82560e-03 5.59090e-03 3.93780e-03 4.77030e-03 5.22510e-03 4.27360e-03 3.12260e-03 4.87580e-03 4.50160e-03 2.34600e-03 2.83160e-03 3.02430e-03 2.76970e-03 2.52950e-03 2.30380e-03 2.09230e-03 1.99010e-03 2.27530e-03 2.36890e-03 1.52630e-03 1.35640e-03 1.20300e-03 1.00140e-03 9.45030e-04 8.40240e-04 7.51170e-04 6.76580e-04 6.22840e-04 5.44710e-04 4.29010e-04 3.51850e-04 1.96990e-01 1.69770e-01 1.28100e-01 1.06270e-01 9.65520e-02 8.99200e-02 8.93290e-02 8.71320e-02 8.50290e-02 8.31200e-02 8.10690e-02 7.91670e-02 7.71440e-02 7.52370e-02 6.50500e-02 4.69690e-02 6.94550e-02 6.76050e-02 6.57510e-02 3.79470e-02 5.35220e-02 6.04180e-02 5.86930e-02 5.70090e-02 5.53480e-02 5.37230e-02 5.82880e-02 5.34250e-02 4.90210e-02 4.75150e-02 4.60360e-02 4.45890e-02 4.31690e-02 4.17790e-02 4.61680e-02 5.63240e-02 3.77760e-02 3.64980e-02 3.32020e-02 2.54620e-02 1.91800e-02 3.62920e-02 4.44110e-02 2.93910e-02 2.44680e-02 1.57280e-02 1.45380e-02 1.40980e-02 1.77120e-02 3.28540e-02 2.40080e-02 2.13420e-02 2.04450e-02 1.06440e-02 1.04030e-02 9.92820e-03 9.46820e-03 9.02310e-03 8.59250e-03 8.17620e-03 7.97140e-03 1.54720e-02 1.89170e-02 1.20390e-02 1.14010e-02 1.52010e-02 5.47710e-03 8.04340e-03 9.05250e-03 8.51410e-03 7.99480e-03 7.07180e-03 5.98240e-03 6.09170e-03 6.10490e-03 4.96620e-03 3.12430e-03 4.87930e-03 4.50650e-03 2.35070e-03 3.21620e-03 3.49310e-03 3.18980e-03 2.90360e-03 2.63440e-03 2.38200e-03 2.26000e-03 2.69790e-03 1.72490e-03 1.53880e-03 1.36910e-03 1.21570e-03 1.01370e-03 9.56950e-04 8.51370e-04 7.61040e-04 6.84960e-04 6.19090e-04 5.48760e-04 4.32790e-04 3.55850e-04 1.88000e-01 1.63280e-01 1.20290e-01 9.82970e-02 9.16860e-02 8.62890e-02 8.56470e-02 8.37500e-02 8.20760e-02 8.04440e-02 7.86750e-02 7.69830e-02 7.51500e-02 7.33890e-02 6.32430e-02 4.50810e-02 6.79270e-02 6.61540e-02 6.43720e-02 3.66860e-02 5.22830e-02 5.92210e-02 5.75520e-02 5.59200e-02 5.43110e-02 5.27350e-02 7.10370e-02 5.62850e-02 4.81740e-02 4.67120e-02 4.52760e-02 4.38690e-02 4.24880e-02 4.11350e-02 4.55590e-02 5.57490e-02 3.72370e-02 3.59910e-02 3.47700e-02 2.90240e-02 1.87400e-02 3.58970e-02 4.40370e-02 2.73650e-02 2.08050e-02 1.54140e-02 2.59110e-02 1.38220e-02 1.33170e-02 1.67530e-02 2.16020e-02 2.11550e-02 2.02720e-02 1.04890e-02 1.02540e-02 9.79210e-03 9.34410e-03 8.91020e-03 8.49000e-03 8.17620e-03 7.96170e-03 1.33040e-02 1.26340e-02 1.19840e-02 1.13540e-02 1.07440e-02 5.43920e-03 8.01320e-03 9.02870e-03 8.49510e-03 7.98030e-03 7.48400e-03 7.00620e-03 6.54650e-03 6.10500e-03 4.96590e-03 3.12020e-03 4.88750e-03 4.51680e-03 2.35440e-03 3.22740e-03 3.50880e-03 3.20700e-03 2.92210e-03 2.65400e-03 2.40260e-03 2.28110e-03 1.94960e-03 1.74780e-03 1.56220e-03 1.39280e-03 1.23930e-03 1.03660e-03 9.79270e-04 8.72040e-04 7.79350e-04 6.99820e-04 6.31150e-04 5.60530e-04 4.44050e-04 3.66280e-04 1.86490e-01 1.46340e-01 9.73160e-02 8.66120e-02 8.28880e-02 8.04300e-02 7.97930e-02 7.85410e-02 7.75390e-02 7.63340e-02 7.50330e-02 7.36450e-02 7.21150e-02 7.05630e-02 6.05170e-02 4.22820e-02 6.55830e-02 6.39240e-02 6.22490e-02 3.47180e-02 5.03660e-02 5.73740e-02 5.57900e-02 5.42400e-02 5.27100e-02 5.12110e-02 6.96520e-02 5.49290e-02 4.68660e-02 4.54710e-02 4.41000e-02 4.27560e-02 4.14350e-02 4.01410e-02 4.46140e-02 5.48430e-02 3.64030e-02 3.52060e-02 3.40320e-02 2.83240e-02 1.80690e-02 3.52820e-02 4.34480e-02 2.45360e-02 1.52330e-02 1.49370e-02 2.54810e-02 2.45140e-02 1.28800e-02 1.24200e-02 2.14850e-02 2.07800e-02 2.00040e-02 1.02550e-02 1.00300e-02 9.58690e-03 9.15710e-03 8.74020e-03 8.33600e-03 8.13710e-03 2.07860e-02 1.31950e-02 1.25370e-02 1.18990e-02 1.12800e-02 1.06800e-02 5.38350e-03 7.96740e-03 8.99190e-03 8.46590e-03 7.95800e-03 7.46820e-03 6.99630e-03 6.54210e-03 6.10560e-03 4.96630e-03 3.11550e-03 7.26860e-03 4.53340e-03 2.36110e-03 3.24550e-03 3.53380e-03 3.23420e-03 2.95140e-03 2.68520e-03 2.43540e-03 2.31470e-03 1.98510e-03 1.78430e-03 1.59960e-03 1.43070e-03 1.27740e-03 1.07380e-03 1.01560e-03 9.05850e-04 8.08710e-04 7.22930e-04 6.46070e-04 5.75550e-04 4.71320e-04 4.00980e-04 1.99790e-01 1.34230e-01 7.90420e-02 8.12080e-02 7.63730e-02 7.48590e-02 7.58620e-02 7.56650e-02 7.46730e-02 7.39600e-02 7.28010e-02 7.16750e-02 7.02770e-02 6.88760e-02 5.89430e-02 4.08550e-02 6.41690e-02 6.25800e-02 6.09670e-02 3.35890e-02 4.92280e-02 5.62580e-02 5.47240e-02 5.32220e-02 5.17400e-02 5.02870e-02 6.87010e-02 5.40690e-02 4.60720e-02 4.47180e-02 4.33860e-02 4.20800e-02 4.07960e-02 3.95360e-02 4.40110e-02 5.42120e-02 3.58950e-02 3.47280e-02 3.35820e-02 2.79190e-02 1.77250e-02 3.48850e-02 4.30260e-02 2.42260e-02 1.49870e-02 1.47000e-02 2.52170e-02 2.42680e-02 2.33410e-02 1.20340e-02 1.17890e-02 2.02560e-02 1.98380e-02 1.01480e-02 9.92850e-03 9.49560e-03 9.07520e-03 8.66710e-03 8.27110e-03 8.07610e-03 1.37940e-02 1.31260e-02 1.24760e-02 1.18460e-02 1.12330e-02 1.06400e-02 5.36710e-03 7.94420e-03 8.96770e-03 8.44640e-03 7.94290e-03 7.45710e-03 6.98890e-03 6.53810e-03 6.10470e-03 4.96860e-03 3.12120e-03 7.26860e-03 4.54240e-03 2.37080e-03 3.25790e-03 3.54820e-03 3.25020e-03 2.96860e-03 2.70360e-03 2.45490e-03 2.33470e-03 2.00640e-03 1.80630e-03 1.62210e-03 1.45360e-03 1.30050e-03 1.09670e-03 1.03790e-03 9.26680e-04 8.26570e-04 7.36930e-04 6.53890e-04 5.82850e-04 4.91110e-04 4.29250e-04 3.50640e-01 2.34930e-01 1.39940e-01 1.45820e-01 1.37220e-01 1.35720e-01 1.36880e-01 1.36760e-01 1.34970e-01 1.33590e-01 1.31570e-01 1.29440e-01 1.27070e-01 1.24530e-01 1.21930e-01 1.20470e-01 1.16530e-01 8.81330e-02 1.02480e-01 1.08350e-01 1.05680e-01 1.03020e-01 1.00400e-01 9.78050e-02 9.52540e-02 9.27290e-02 8.90020e-02 8.77930e-02 8.53780e-02 8.29950e-02 8.06500e-02 7.83370e-02 7.60610e-02 7.49290e-02 7.16110e-02 6.94370e-02 6.72990e-02 6.51950e-02 6.31270e-02 6.10920e-02 5.49010e-02 4.45350e-02 5.51970e-02 5.33010e-02 5.14400e-02 4.96140e-02 4.78220e-02 4.60640e-02 4.43410e-02 4.26520e-02 4.01790e-02 3.93770e-02 3.77910e-02 3.62390e-02 3.47210e-02 3.32370e-02 3.17880e-02 3.10710e-02 2.89890e-02 2.76410e-02 2.63260e-02 2.50440e-02 2.37970e-02 2.71970e-02 2.29450e-02 2.02530e-02 1.91390e-02 1.80570e-02 1.70090e-02 1.59940e-02 1.50120e-02 1.40620e-02 1.31460e-02 1.22620e-02 1.14110e-02 1.09930e-02 9.80610e-03 9.05270e-03 8.33180e-03 7.64330e-03 6.66720e-03 6.36330e-03 5.77180e-03 5.21260e-03 4.68550e-03 4.19050e-03 3.72760e-03 3.29660e-03 2.89740e-03 2.70580e-03 2.19350e-03 1.88800e-03 1.61260e-03 1.36600e-03 1.04420e-03 9.52100e-04 7.80650e-04 6.25430e-04 4.95610e-04 3.34530e-04 2.27390e-04 3.33520e-01 2.57350e-01 1.69170e-01 1.52740e-01 1.46040e-01 1.43770e-01 1.41840e-01 1.39940e-01 1.38200e-01 1.35970e-01 1.33820e-01 1.31270e-01 1.28780e-01 1.26030e-01 1.23340e-01 1.21770e-01 1.17760e-01 8.95170e-02 1.03660e-01 1.09410e-01 1.06700e-01 1.03990e-01 1.01330e-01 9.86930e-02 9.61020e-02 9.35380e-02 8.97550e-02 8.85260e-02 8.60760e-02 8.36580e-02 8.12790e-02 7.89340e-02 7.66260e-02 7.54790e-02 7.21160e-02 6.99150e-02 6.77490e-02 6.56190e-02 6.35250e-02 6.14670e-02 5.52930e-02 4.49830e-02 5.55060e-02 5.35900e-02 5.17090e-02 4.98640e-02 4.80540e-02 4.62800e-02 4.45410e-02 4.28360e-02 4.03410e-02 3.95330e-02 3.79340e-02 3.63690e-02 3.48400e-02 3.33450e-02 3.18840e-02 3.11620e-02 2.90660e-02 2.77080e-02 2.63850e-02 2.50960e-02 2.38400e-02 2.71920e-02 2.29610e-02 2.02770e-02 1.91570e-02 1.80700e-02 1.70160e-02 1.59960e-02 1.50100e-02 1.40560e-02 1.31360e-02 1.22480e-02 1.13940e-02 1.09750e-02 9.78350e-03 9.02750e-03 8.30420e-03 7.61350e-03 6.63440e-03 6.32970e-03 5.73650e-03 5.17560e-03 4.64710e-03 4.15080e-03 3.68670e-03 3.25470e-03 2.85460e-03 2.66250e-03 2.14950e-03 1.84380e-03 1.56880e-03 1.32350e-03 1.00560e-03 9.17360e-04 7.52770e-04 6.08940e-04 4.81960e-04 3.02260e-04 1.82050e-04 3.42620e-01 2.88880e-01 2.06280e-01 1.69520e-01 1.57950e-01 1.51630e-01 1.49280e-01 1.46240e-01 1.43420e-01 1.40440e-01 1.37650e-01 1.34630e-01 1.31770e-01 1.28740e-01 1.25840e-01 1.24170e-01 1.19960e-01 9.17210e-02 1.05680e-01 1.11310e-01 1.08510e-01 1.05720e-01 1.02990e-01 1.00280e-01 9.76210e-02 9.49890e-02 9.11050e-02 8.98460e-02 8.73330e-02 8.48540e-02 8.24160e-02 8.00130e-02 7.76500e-02 7.64750e-02 7.30350e-02 7.07840e-02 6.85710e-02 6.63950e-02 6.42570e-02 6.21570e-02 5.83730e-02 5.47170e-02 5.60780e-02 5.41260e-02 5.22120e-02 5.03340e-02 4.84920e-02 4.66880e-02 4.49200e-02 4.31880e-02 4.06550e-02 3.98340e-02 3.82110e-02 3.66240e-02 3.50730e-02 3.35570e-02 3.20780e-02 3.13460e-02 2.92240e-02 2.78500e-02 2.65110e-02 2.52070e-02 2.39380e-02 2.71880e-02 2.21670e-02 2.03380e-02 1.92060e-02 1.81090e-02 1.70460e-02 1.60170e-02 1.50220e-02 1.40600e-02 1.31330e-02 1.22380e-02 1.13770e-02 1.09550e-02 9.75560e-03 8.99450e-03 8.26640e-03 7.57120e-03 6.58610e-03 6.27960e-03 5.68290e-03 5.11880e-03 4.58740e-03 4.08840e-03 3.62190e-03 3.18770e-03 2.78570e-03 2.59280e-03 2.07800e-03 1.77190e-03 1.49740e-03 1.25430e-03 9.43400e-04 8.59990e-04 7.06400e-04 5.77890e-04 4.53720e-04 2.57650e-04 1.27400e-04 3.59730e-01 3.01110e-01 2.19540e-01 1.82110e-01 1.64890e-01 1.56600e-01 1.54190e-01 1.50570e-01 1.47000e-01 1.43540e-01 1.40310e-01 1.36970e-01 1.33840e-01 1.30620e-01 1.27570e-01 1.25810e-01 1.21460e-01 9.25390e-02 1.02370e-01 1.08830e-01 1.09740e-01 1.06900e-01 1.04120e-01 1.01360e-01 9.86510e-02 9.49920e-02 9.30110e-02 9.07410e-02 8.81850e-02 8.56660e-02 8.31880e-02 8.07470e-02 7.83460e-02 7.64460e-02 7.50330e-02 7.13770e-02 6.91320e-02 6.69250e-02 6.47580e-02 6.26280e-02 6.05380e-02 5.95020e-02 4.38230e-02 4.30300e-02 5.25570e-02 5.06570e-02 4.87950e-02 4.69700e-02 4.51830e-02 3.28540e-02 4.08730e-02 4.00440e-02 3.84060e-02 3.68030e-02 3.52380e-02 3.37090e-02 3.22160e-02 3.14780e-02 2.93380e-02 2.79530e-02 2.66030e-02 2.52890e-02 2.40100e-02 2.27670e-02 2.09630e-02 2.03850e-02 1.92460e-02 1.81420e-02 1.70730e-02 1.60370e-02 1.50360e-02 1.40690e-02 1.31370e-02 1.17910e-02 1.13660e-02 1.09420e-02 9.74230e-03 8.97750e-03 8.24610e-03 7.54780e-03 6.55840e-03 6.25060e-03 5.65150e-03 5.08520e-03 4.55160e-03 4.05080e-03 3.58250e-03 3.14680e-03 2.74360e-03 2.55010e-03 2.03430e-03 1.72810e-03 1.45410e-03 1.21240e-03 9.06180e-04 8.25010e-04 6.77590e-04 5.54600e-04 4.32310e-04 2.39350e-04 1.11950e-04 3.56870e-01 3.05600e-01 2.26250e-01 1.86870e-01 1.69450e-01 1.61750e-01 1.56150e-01 1.52690e-01 1.49050e-01 1.45140e-01 1.41780e-01 1.38190e-01 1.34960e-01 1.31600e-01 1.28470e-01 1.26640e-01 1.22240e-01 1.19170e-01 8.98940e-02 1.00570e-01 1.06840e-01 1.07490e-01 1.04680e-01 1.01890e-01 9.91590e-02 9.51300e-02 9.38000e-02 9.11780e-02 8.86000e-02 8.60590e-02 8.35600e-02 8.10990e-02 7.86800e-02 7.62990e-02 7.43730e-02 7.28790e-02 5.49560e-02 6.71730e-02 6.49900e-02 6.28460e-02 6.07420e-02 5.90340e-02 5.77040e-02 4.25590e-02 4.15470e-02 5.08010e-02 4.89280e-02 3.56450e-02 3.49470e-02 4.26940e-02 4.15410e-02 4.01320e-02 3.84860e-02 3.68760e-02 3.53040e-02 3.37680e-02 3.22690e-02 3.10500e-02 3.00940e-02 2.79900e-02 2.66350e-02 2.53170e-02 2.40340e-02 2.27860e-02 2.09770e-02 2.03970e-02 1.92550e-02 1.81480e-02 1.70760e-02 1.60380e-02 1.50340e-02 1.35860e-02 1.31260e-02 1.20800e-02 1.13620e-02 1.09370e-02 9.72890e-03 8.96280e-03 8.23010e-03 7.53070e-03 6.53970e-03 6.23150e-03 5.63140e-03 5.06430e-03 4.53010e-03 4.02860e-03 3.55980e-03 3.12370e-03 2.72010e-03 2.52650e-03 2.00330e-03 1.84230e-03 1.43140e-03 1.07230e-03 9.76860e-04 8.02150e-04 7.22830e-04 5.42370e-04 4.22440e-04 2.31490e-04 1.04990e-04 3.63110e-01 3.06970e-01 2.27570e-01 1.88890e-01 1.70170e-01 1.63470e-01 1.55220e-01 1.53050e-01 1.49530e-01 1.45750e-01 1.42170e-01 1.38610e-01 1.35280e-01 1.31910e-01 1.29340e-01 1.26930e-01 1.22460e-01 1.19390e-01 1.16410e-01 8.90550e-02 1.02380e-01 1.07660e-01 1.04840e-01 1.02050e-01 9.93080e-02 9.52690e-02 9.39340e-02 9.13050e-02 8.87210e-02 8.61730e-02 8.36680e-02 8.12010e-02 7.87760e-02 7.63890e-02 7.40430e-02 7.28790e-02 5.43520e-02 5.31440e-02 6.50560e-02 6.29070e-02 6.07990e-02 5.87290e-02 5.77040e-02 4.75160e-02 4.15470e-02 5.08400e-02 4.89640e-02 3.56450e-02 3.49470e-02 4.26940e-02 4.18410e-02 4.01550e-02 3.85060e-02 3.68950e-02 3.53200e-02 3.37830e-02 3.22820e-02 3.08170e-02 2.96240e-02 2.86840e-02 2.66420e-02 2.53220e-02 2.40380e-02 2.27900e-02 2.09790e-02 2.03980e-02 1.92560e-02 1.81480e-02 1.26940e-02 1.45820e-02 1.50320e-02 1.39030e-02 1.31260e-02 1.22250e-02 1.13570e-02 1.09320e-02 9.72360e-03 8.95720e-03 8.22420e-03 7.52450e-03 6.53320e-03 6.22480e-03 5.62460e-03 5.05730e-03 4.52290e-03 4.02130e-03 3.55250e-03 3.11620e-03 2.80330e-03 2.66600e-03 2.00330e-03 1.74580e-03 1.29620e-03 1.14690e-03 9.76860e-04 8.02150e-04 6.79860e-04 5.93920e-04 4.19380e-04 2.29580e-04 1.04200e-04 2.39240e-01 2.41160e-01 1.83210e-01 1.46360e-01 1.37750e-01 1.45390e-01 1.51750e-01 1.51970e-01 1.49530e-01 1.50090e-01 1.51300e-01 1.47880e-01 1.44120e-01 1.38020e-01 1.30550e-01 1.25280e-01 1.22240e-01 1.19170e-01 1.16210e-01 1.13240e-01 8.55610e-02 9.92590e-02 1.04680e-01 1.01890e-01 9.91590e-02 9.52690e-02 9.34020e-02 9.11780e-02 8.86000e-02 8.60590e-02 8.35600e-02 8.10990e-02 7.86800e-02 7.62990e-02 7.39580e-02 7.27960e-02 6.04010e-02 5.24850e-02 5.12860e-02 6.28460e-02 6.07420e-02 5.86760e-02 5.76530e-02 5.09350e-02 4.15140e-02 5.08010e-02 4.89280e-02 3.56450e-02 3.47020e-02 4.26680e-02 4.18160e-02 4.01320e-02 3.84860e-02 3.68760e-02 3.53040e-02 3.37680e-02 3.22690e-02 3.08060e-02 2.93800e-02 2.82160e-02 2.72960e-02 2.53170e-02 2.49040e-02 2.40020e-02 2.09790e-02 2.02040e-02 1.86930e-02 1.35090e-02 1.31070e-02 1.23160e-02 1.15520e-02 1.11760e-02 1.31300e-02 9.08400e-03 8.76170e-03 8.43930e-03 1.24300e-02 8.96280e-03 8.23010e-03 7.53070e-03 5.11350e-03 4.88090e-03 4.42840e-03 4.00090e-03 3.59840e-03 3.22090e-03 3.03830e-03 3.22960e-03 3.05820e-03 2.96000e-03 2.01060e-03 1.70470e-03 1.30290e-03 1.19080e-03 9.82860e-04 8.07410e-04 6.62830e-04 5.61890e-04 4.25490e-04 2.33390e-04 1.05790e-04 2.47500e-01 2.38400e-01 1.78770e-01 1.44050e-01 1.34180e-01 1.49430e-01 1.50770e-01 1.50570e-01 1.47000e-01 1.67450e-01 1.69560e-01 1.66440e-01 1.61810e-01 1.62430e-01 1.04570e-01 1.24460e-01 1.21460e-01 1.18450e-01 1.15520e-01 1.12600e-01 8.48270e-02 9.86320e-02 1.04120e-01 1.01360e-01 9.86510e-02 9.59720e-02 9.20210e-02 9.07410e-02 8.81850e-02 8.56660e-02 8.31880e-02 8.07470e-02 7.83460e-02 7.59840e-02 7.36610e-02 7.25080e-02 6.70970e-02 5.81510e-02 5.03780e-02 4.90720e-02 6.05380e-02 5.84850e-02 5.74690e-02 4.72870e-02 4.12980e-02 5.06570e-02 4.87950e-02 4.69700e-02 3.42120e-02 4.26410e-02 4.14630e-02 4.00440e-02 3.84060e-02 3.68030e-02 3.52380e-02 3.37090e-02 3.22160e-02 3.07590e-02 2.93380e-02 2.79530e-02 2.72690e-02 2.66530e-02 2.60570e-02 2.88500e-02 2.15590e-02 1.98170e-02 1.86860e-02 1.34820e-02 1.30820e-02 1.22940e-02 1.15330e-02 1.09130e-02 1.00760e-02 9.29280e-03 8.75280e-03 8.43160e-03 1.24510e-02 8.97750e-03 8.24610e-03 7.54780e-03 5.11660e-03 5.35860e-03 5.25260e-03 4.73300e-03 4.24350e-03 3.78410e-03 3.56180e-03 3.54210e-03 3.46040e-03 2.37270e-03 2.03430e-03 1.72810e-03 1.32530e-03 1.21240e-03 1.00290e-03 8.25010e-04 6.77590e-04 5.54600e-04 4.32310e-04 2.39350e-04 1.11950e-04 2.36720e-01 2.28360e-01 1.67440e-01 1.33690e-01 1.27990e-01 1.51630e-01 1.49280e-01 1.46240e-01 1.43420e-01 1.40440e-01 1.37650e-01 1.34630e-01 1.31770e-01 1.20840e-01 1.02590e-01 1.22850e-01 1.19960e-01 1.17030e-01 1.14170e-01 1.11310e-01 8.36810e-02 9.74800e-02 1.02990e-01 1.00280e-01 9.76210e-02 9.49890e-02 9.11050e-02 8.98460e-02 8.73330e-02 8.48540e-02 8.24160e-02 8.00130e-02 7.76500e-02 7.53230e-02 7.30350e-02 7.18990e-02 6.85710e-02 6.18310e-02 4.97060e-02 4.88640e-02 6.00930e-02 5.80670e-02 5.70640e-02 4.20290e-02 4.11150e-02 5.03340e-02 4.84920e-02 4.66880e-02 4.49200e-02 3.26000e-02 3.75840e-02 3.84010e-02 3.82110e-02 3.66240e-02 3.50730e-02 3.35570e-02 3.20780e-02 3.06330e-02 2.92240e-02 2.78500e-02 2.71720e-02 3.20220e-02 2.39380e-02 2.27030e-02 2.15030e-02 2.03380e-02 2.01020e-02 1.34620e-02 1.30640e-02 1.22810e-02 1.15250e-02 1.07950e-02 1.00910e-02 9.41310e-03 8.76100e-03 8.44140e-03 1.09230e-02 8.99450e-03 8.26640e-03 7.57120e-03 5.14130e-03 5.69580e-03 5.68290e-03 5.11880e-03 4.58740e-03 4.08840e-03 3.84700e-03 4.02610e-03 2.78570e-03 2.41590e-03 2.07800e-03 1.77190e-03 1.36810e-03 1.25430e-03 1.04190e-03 8.59990e-04 7.06400e-04 5.77890e-04 4.53720e-04 2.57650e-04 1.27410e-04 2.36030e-01 2.03190e-01 1.35740e-01 1.19130e-01 1.17050e-01 1.43770e-01 1.41840e-01 1.39940e-01 1.38200e-01 1.35970e-01 1.33820e-01 1.31270e-01 1.28780e-01 1.17990e-01 9.96930e-02 1.20520e-01 1.17760e-01 1.14940e-01 1.12190e-01 1.09410e-01 8.18700e-02 9.57420e-02 1.01330e-01 9.86930e-02 9.61010e-02 9.35380e-02 8.97550e-02 8.85260e-02 8.60760e-02 8.36580e-02 8.12790e-02 7.89340e-02 7.66260e-02 7.43530e-02 7.21160e-02 7.10050e-02 6.77490e-02 6.10460e-02 4.89690e-02 4.81510e-02 5.94440e-02 5.74570e-02 5.64730e-02 4.19350e-02 5.17090e-02 4.98640e-02 4.80540e-02 4.62800e-02 4.45410e-02 4.28360e-02 3.11420e-02 3.72080e-02 3.79340e-02 3.63690e-02 3.48400e-02 3.33450e-02 3.18840e-02 3.04580e-02 2.90660e-02 2.87280e-02 2.91950e-02 2.50960e-02 2.38400e-02 2.26190e-02 2.14310e-02 2.02770e-02 2.00430e-02 1.34290e-02 1.30350e-02 1.22600e-02 1.15120e-02 1.07890e-02 1.00910e-02 9.41930e-03 8.77280e-03 8.45590e-03 9.92020e-03 9.42130e-03 8.30420e-03 7.61350e-03 5.18000e-03 5.74330e-03 5.73650e-03 5.17560e-03 4.64710e-03 4.15080e-03 3.91070e-03 3.25470e-03 2.85460e-03 2.48630e-03 2.14950e-03 1.84380e-03 1.43880e-03 1.32350e-03 1.10690e-03 9.17360e-04 7.52770e-04 6.08940e-04 4.81960e-04 3.02260e-04 1.82050e-04 2.54370e-01 1.85310e-01 1.10930e-01 1.12630e-01 1.08730e-01 1.35720e-01 1.36880e-01 1.36760e-01 1.34970e-01 1.33590e-01 1.31570e-01 1.29440e-01 1.27070e-01 1.16420e-01 9.79040e-02 1.19230e-01 1.16530e-01 1.13780e-01 1.11070e-01 1.08350e-01 8.06170e-02 9.46910e-02 1.00400e-01 9.78050e-02 9.52540e-02 9.27290e-02 8.90020e-02 8.77930e-02 8.53780e-02 8.29950e-02 8.06500e-02 7.83370e-02 7.60610e-02 7.38180e-02 7.16110e-02 7.05140e-02 6.72990e-02 6.05770e-02 4.84510e-02 4.76460e-02 5.90930e-02 5.71280e-02 5.61540e-02 4.15380e-02 5.14400e-02 4.96140e-02 4.78220e-02 4.60640e-02 4.43410e-02 4.26520e-02 4.09970e-02 3.85760e-02 3.77910e-02 3.62390e-02 3.47210e-02 3.32370e-02 3.17880e-02 3.03710e-02 2.89890e-02 2.99980e-02 3.33810e-02 2.50440e-02 2.37970e-02 2.25820e-02 2.14010e-02 2.02530e-02 1.85900e-02 1.33880e-02 1.29980e-02 1.22290e-02 1.14860e-02 1.07690e-02 1.00770e-02 9.40950e-03 8.76750e-03 8.45280e-03 9.80610e-03 9.42130e-03 8.33180e-03 7.64330e-03 5.19700e-03 5.77200e-03 5.77180e-03 5.21260e-03 4.68550e-03 4.19050e-03 3.95100e-03 3.29660e-03 2.89740e-03 2.52980e-03 2.19350e-03 1.88800e-03 1.48240e-03 1.36600e-03 1.14690e-03 9.52100e-04 7.80650e-04 6.25430e-04 4.95610e-04 3.34530e-04 2.27390e-04 4.87360e-01 3.30140e-01 1.97820e-01 2.04860e-01 1.95270e-01 1.92470e-01 1.95300e-01 1.95130e-01 1.92620e-01 1.90710e-01 1.87610e-01 1.84680e-01 1.81130e-01 1.77670e-01 1.73910e-01 1.72310e-01 1.66410e-01 1.62660e-01 1.57080e-01 1.55140e-01 1.51410e-01 1.47740e-01 1.44090e-01 1.40500e-01 1.36940e-01 1.33430e-01 1.28240e-01 1.26520e-01 1.23130e-01 1.19790e-01 1.16490e-01 1.13230e-01 1.10020e-01 1.08430e-01 1.03730e-01 1.00650e-01 9.76150e-02 9.46250e-02 9.16800e-02 8.87800e-02 8.73410e-02 8.31160e-02 8.03530e-02 7.76350e-02 7.49630e-02 7.23380e-02 6.97580e-02 6.72250e-02 6.47380e-02 6.22980e-02 5.87190e-02 5.75570e-02 5.52560e-02 5.30020e-02 5.07950e-02 4.86350e-02 4.65220e-02 4.54770e-02 4.24370e-02 4.04650e-02 3.85400e-02 3.66630e-02 3.48320e-02 3.21690e-02 3.13130e-02 2.96250e-02 2.79830e-02 2.63890e-02 2.48430e-02 2.33440e-02 2.18920e-02 2.04880e-02 1.91310e-02 1.78220e-02 1.65600e-02 1.59410e-02 1.41790e-02 1.30600e-02 1.19880e-02 1.09640e-02 9.51130e-03 9.05870e-03 8.17750e-03 7.34380e-03 6.55770e-03 5.81920e-03 5.12820e-03 4.48470e-03 3.88860e-03 3.60230e-03 2.83750e-03 2.38190e-03 1.97220e-03 1.60730e-03 1.13680e-03 1.00630e-03 7.66950e-04 5.60450e-04 3.95380e-04 2.09820e-04 9.16400e-05 4.62670e-01 3.58310e-01 2.33650e-01 2.11800e-01 2.07540e-01 2.02670e-01 2.01950e-01 1.99360e-01 1.96670e-01 1.93690e-01 1.90320e-01 1.86900e-01 1.83170e-01 1.79480e-01 1.75610e-01 1.73910e-01 1.67920e-01 1.64100e-01 1.58440e-01 1.56480e-01 1.52700e-01 1.48990e-01 1.45300e-01 1.41660e-01 1.38060e-01 1.34510e-01 1.29250e-01 1.27520e-01 1.24090e-01 1.20710e-01 1.17380e-01 1.14080e-01 1.10840e-01 1.09230e-01 1.04480e-01 1.01360e-01 9.82970e-02 9.52770e-02 9.23020e-02 8.93730e-02 8.79200e-02 8.36540e-02 8.08650e-02 7.81220e-02 7.54250e-02 7.27760e-02 7.01730e-02 6.76180e-02 6.51090e-02 6.26480e-02 5.90390e-02 5.78670e-02 5.55480e-02 5.32760e-02 5.10510e-02 4.88740e-02 4.67450e-02 4.56920e-02 4.26290e-02 4.06430e-02 3.87040e-02 3.68130e-02 3.49690e-02 3.22880e-02 3.14260e-02 2.97260e-02 2.80740e-02 2.64690e-02 2.49130e-02 2.34040e-02 2.19430e-02 2.05300e-02 1.91650e-02 1.78480e-02 1.65780e-02 1.59560e-02 1.41830e-02 1.30580e-02 1.19800e-02 1.09500e-02 9.48900e-03 9.03390e-03 8.14770e-03 7.30940e-03 6.51910e-03 5.77650e-03 5.08180e-03 4.43490e-03 3.83560e-03 3.54780e-03 2.77940e-03 2.32200e-03 1.91130e-03 1.54660e-03 1.07890e-03 9.52470e-04 7.20850e-04 5.28490e-04 3.72190e-04 1.75500e-04 4.78760e-05 4.70240e-01 3.96600e-01 2.78820e-01 2.30660e-01 2.23070e-01 2.11950e-01 2.11270e-01 2.07120e-01 2.02710e-01 1.98790e-01 1.94470e-01 1.90510e-01 1.86290e-01 1.82310e-01 1.78180e-01 1.76430e-01 1.70190e-01 1.66270e-01 1.52670e-01 1.54840e-01 1.54610e-01 1.50830e-01 1.47070e-01 1.43370e-01 1.39700e-01 1.36080e-01 1.30740e-01 1.28980e-01 1.25490e-01 1.22050e-01 1.18660e-01 1.15310e-01 1.12010e-01 1.10370e-01 1.05540e-01 1.02380e-01 9.92680e-02 9.62020e-02 9.31820e-02 9.02100e-02 8.78430e-02 8.60590e-02 8.15800e-02 7.87990e-02 7.60660e-02 7.33820e-02 7.07450e-02 6.81570e-02 6.56160e-02 6.31240e-02 5.94710e-02 5.82860e-02 5.59390e-02 5.36410e-02 5.13910e-02 4.91900e-02 4.70370e-02 4.59730e-02 4.28770e-02 4.08700e-02 3.89110e-02 3.70010e-02 3.51400e-02 3.41230e-02 3.21620e-02 2.98460e-02 2.81790e-02 2.65600e-02 2.49890e-02 2.34670e-02 2.19940e-02 2.05690e-02 1.91920e-02 1.78640e-02 1.65850e-02 1.59570e-02 1.41710e-02 1.30360e-02 1.19500e-02 1.09120e-02 9.44050e-03 8.98210e-03 8.08940e-03 7.24510e-03 6.44900e-03 5.70110e-03 5.00150e-03 4.35010e-03 3.74680e-03 3.45720e-03 2.68440e-03 2.22520e-03 1.81400e-03 1.45080e-03 9.90120e-04 8.69130e-04 6.50530e-04 4.77970e-04 3.32430e-04 1.29370e-04 -3.12900e-06 4.90010e-01 4.10670e-01 2.94430e-01 2.45050e-01 2.30830e-01 2.17320e-01 2.16710e-01 2.11780e-01 2.06330e-01 2.01770e-01 1.96860e-01 1.92510e-01 1.87970e-01 1.83770e-01 1.79470e-01 1.77680e-01 1.71260e-01 1.67270e-01 1.38430e-01 1.46810e-01 1.51890e-01 1.51650e-01 1.47850e-01 1.44110e-01 1.40410e-01 1.35100e-01 1.32610e-01 1.29590e-01 1.26070e-01 1.22600e-01 1.19180e-01 1.15810e-01 1.12480e-01 1.09780e-01 1.07670e-01 1.02780e-01 9.96420e-02 9.65530e-02 9.35120e-02 9.05200e-02 8.75760e-02 8.61160e-02 8.18340e-02 7.90350e-02 7.62860e-02 7.35850e-02 7.09330e-02 6.83310e-02 6.57770e-02 6.32710e-02 5.96000e-02 5.84080e-02 5.60500e-02 5.37410e-02 5.14810e-02 4.92700e-02 4.71080e-02 4.60390e-02 4.29300e-02 4.09150e-02 3.89490e-02 3.70320e-02 3.51640e-02 3.75570e-02 3.20720e-02 2.98520e-02 2.81790e-02 2.65550e-02 2.49800e-02 2.34540e-02 2.19760e-02 2.05470e-02 1.91670e-02 1.71630e-02 1.65330e-02 1.59040e-02 1.41330e-02 1.29960e-02 1.19080e-02 1.08680e-02 9.39310e-03 8.93370e-03 8.03930e-03 7.19340e-03 6.39580e-03 5.64670e-03 4.94590e-03 4.29350e-03 3.68940e-03 3.39950e-03 2.62650e-03 2.16780e-03 1.75790e-03 1.39710e-03 9.43010e-04 8.25090e-04 6.14550e-04 4.49910e-04 3.08890e-04 1.12070e-04 -1.57730e-05 4.85820e-01 4.16540e-01 3.02490e-01 2.49920e-01 2.36050e-01 2.23640e-01 2.19700e-01 2.13980e-01 2.08410e-01 2.03270e-01 1.98160e-01 1.93510e-01 1.88820e-01 1.84470e-01 1.80080e-01 1.78220e-01 1.71730e-01 1.67700e-01 1.63660e-01 1.34660e-01 1.43670e-01 1.48580e-01 1.48160e-01 1.44410e-01 1.40680e-01 1.35180e-01 1.33400e-01 1.29820e-01 1.26290e-01 1.22810e-01 1.19370e-01 1.15990e-01 1.12650e-01 1.09360e-01 1.06660e-01 1.04550e-01 9.97690e-02 9.66710e-02 9.36200e-02 9.06190e-02 8.76670e-02 8.52520e-02 8.33500e-02 7.91030e-02 7.63470e-02 7.36400e-02 7.09820e-02 6.83730e-02 6.58130e-02 6.20710e-02 6.04390e-02 5.84300e-02 5.60680e-02 5.37550e-02 5.14910e-02 4.92760e-02 4.71100e-02 4.53430e-02 4.39480e-02 4.09090e-02 3.89400e-02 3.70210e-02 3.51500e-02 3.33290e-02 3.06830e-02 2.98330e-02 2.81590e-02 2.65340e-02 2.49570e-02 2.34300e-02 2.19510e-02 1.98100e-02 1.91320e-02 1.75870e-02 1.65250e-02 1.58950e-02 1.41040e-02 1.29660e-02 1.18780e-02 1.08370e-02 9.36190e-03 8.90250e-03 8.00790e-03 7.16170e-03 6.36400e-03 5.61480e-03 4.91400e-03 4.26160e-03 3.65770e-03 3.36790e-03 2.58600e-03 2.34490e-03 1.72920e-03 1.19520e-03 1.05400e-03 7.97370e-04 6.81900e-04 4.36140e-04 2.98400e-04 1.04490e-04 -2.19740e-05 4.94110e-01 4.18450e-01 3.04270e-01 2.52320e-01 2.36770e-01 2.27820e-01 2.20120e-01 2.13370e-01 2.08880e-01 2.03910e-01 1.98520e-01 1.93900e-01 1.89070e-01 1.84720e-01 1.80880e-01 1.78440e-01 1.71880e-01 1.67850e-01 1.63790e-01 1.59860e-01 1.32380e-01 1.44200e-01 1.48260e-01 1.44500e-01 1.40780e-01 1.35260e-01 1.33480e-01 1.29900e-01 1.26360e-01 1.22880e-01 1.19440e-01 1.16050e-01 1.12700e-01 1.09410e-01 1.06160e-01 1.04550e-01 9.98110e-02 9.67100e-02 9.36560e-02 9.06530e-02 8.76970e-02 8.47910e-02 8.33500e-02 6.82850e-02 7.63680e-02 7.36580e-02 7.09980e-02 6.83880e-02 6.58260e-02 6.20710e-02 6.08520e-02 5.84380e-02 5.60740e-02 5.37600e-02 5.14950e-02 4.92790e-02 4.71120e-02 4.49950e-02 4.32670e-02 4.19050e-02 3.89380e-02 3.70180e-02 3.51470e-02 3.33250e-02 3.06780e-02 2.98280e-02 2.81530e-02 2.65270e-02 2.49500e-02 2.26710e-02 2.19430e-02 2.02790e-02 1.91320e-02 1.78000e-02 1.65160e-02 1.60940e-02 1.69280e-02 1.29570e-02 1.18680e-02 1.08280e-02 9.35210e-03 8.89260e-03 7.99790e-03 7.15170e-03 6.35400e-03 5.60470e-03 4.90390e-03 4.25150e-03 3.64770e-03 3.35790e-03 2.58600e-03 2.20060e-03 1.52850e-03 1.30630e-03 1.05400e-03 7.97370e-04 6.21800e-04 5.01590e-04 2.94890e-04 1.02410e-04 -2.27740e-05 4.85820e-01 4.16540e-01 3.02490e-01 2.49920e-01 2.36050e-01 2.26150e-01 2.10200e-01 2.09990e-01 2.12800e-01 2.06260e-01 1.98160e-01 1.93510e-01 1.88820e-01 1.85370e-01 1.82090e-01 1.75920e-01 1.71730e-01 1.67700e-01 1.63660e-01 1.59730e-01 1.55810e-01 1.50010e-01 1.48160e-01 1.44410e-01 1.40680e-01 1.35260e-01 1.32830e-01 1.29820e-01 1.26290e-01 1.22810e-01 1.19370e-01 1.15990e-01 1.12650e-01 1.09360e-01 1.06110e-01 1.04500e-01 8.60540e-02 9.66710e-02 9.36200e-02 9.06190e-02 8.76670e-02 8.47630e-02 8.33230e-02 6.82260e-02 7.63470e-02 7.36400e-02 7.09820e-02 6.83730e-02 6.58130e-02 6.20600e-02 6.08420e-02 5.84300e-02 5.60680e-02 5.37550e-02 5.14910e-02 4.92760e-02 4.71100e-02 4.49940e-02 4.29270e-02 4.12420e-02 3.99140e-02 3.70210e-02 3.51500e-02 3.41850e-02 3.06780e-02 2.95490e-02 2.73400e-02 2.65400e-02 2.49640e-02 2.31820e-02 2.19510e-02 2.05210e-02 1.91400e-02 1.78080e-02 1.65250e-02 1.56990e-02 1.54380e-02 1.29660e-02 1.18780e-02 1.08370e-02 9.36190e-03 8.90250e-03 8.00790e-03 7.16170e-03 6.36400e-03 5.61480e-03 4.91400e-03 4.26160e-03 3.75100e-03 3.35790e-03 2.59570e-03 2.13790e-03 1.53720e-03 1.37030e-03 1.06160e-03 8.03980e-04 5.97270e-04 4.60800e-04 3.01910e-04 1.06570e-04 -2.11750e-05 4.90010e-01 4.10670e-01 2.94430e-01 2.45050e-01 2.30830e-01 1.67580e-01 2.06400e-01 2.11780e-01 2.28500e-01 2.09390e-01 1.97810e-01 1.93120e-01 1.88560e-01 1.86660e-01 1.79470e-01 1.75390e-01 1.71260e-01 1.67270e-01 1.63260e-01 1.59360e-01 1.55460e-01 1.49690e-01 1.47850e-01 1.44110e-01 1.40410e-01 1.36760e-01 1.31370e-01 1.29590e-01 1.26070e-01 1.22600e-01 1.19180e-01 1.15810e-01 1.12480e-01 1.09200e-01 1.05960e-01 1.04360e-01 8.50290e-02 8.31880e-02 9.35120e-02 9.05200e-02 8.75760e-02 8.46800e-02 8.32450e-02 6.81670e-02 7.62860e-02 7.35850e-02 7.09330e-02 6.83310e-02 6.57770e-02 6.20500e-02 6.04160e-02 5.84080e-02 5.60500e-02 5.37410e-02 5.14810e-02 4.92700e-02 4.71080e-02 4.49950e-02 4.29300e-02 4.09150e-02 4.07260e-02 4.39490e-02 3.64760e-02 3.53330e-02 3.75350e-02 2.89900e-02 2.73550e-02 2.65550e-02 2.49800e-02 2.34540e-02 2.19760e-02 2.05470e-02 1.91670e-02 1.78360e-02 1.65530e-02 1.53190e-02 1.47140e-02 1.29960e-02 1.19080e-02 1.08680e-02 9.37170e-03 7.25400e-03 6.89060e-03 6.18420e-03 5.51840e-03 4.89320e-03 4.59070e-03 4.39100e-03 3.95770e-03 3.13380e-03 2.62650e-03 2.16780e-03 1.56520e-03 1.39710e-03 1.08600e-03 8.25090e-04 6.14550e-04 4.49910e-04 3.08890e-04 1.12070e-04 -1.57720e-05 4.70240e-01 3.96600e-01 2.78820e-01 2.30660e-01 2.23070e-01 1.68490e-01 1.96560e-01 2.07120e-01 2.02710e-01 1.98790e-01 1.94470e-01 1.90510e-01 1.86290e-01 1.84690e-01 1.78180e-01 1.74220e-01 1.70190e-01 1.66270e-01 1.62320e-01 1.58470e-01 1.54610e-01 1.48900e-01 1.47070e-01 1.43370e-01 1.39700e-01 1.36080e-01 1.30740e-01 1.28980e-01 1.25490e-01 1.22050e-01 1.18660e-01 1.15310e-01 1.12010e-01 1.08750e-01 1.05540e-01 1.03950e-01 8.40230e-02 8.27040e-02 9.31820e-02 9.02100e-02 8.72860e-02 8.44090e-02 8.29820e-02 7.87990e-02 7.60660e-02 7.33820e-02 7.07450e-02 6.81560e-02 6.56160e-02 6.31240e-02 5.95840e-02 5.79280e-02 5.59390e-02 5.36410e-02 5.13910e-02 4.91900e-02 4.70370e-02 4.49330e-02 4.28770e-02 4.08700e-02 4.12450e-02 4.39790e-02 4.17630e-02 3.33270e-02 3.15620e-02 2.98460e-02 2.73570e-02 2.65600e-02 2.49890e-02 2.34670e-02 2.19940e-02 2.05690e-02 1.91920e-02 1.78640e-02 1.65850e-02 1.53530e-02 1.47500e-02 1.30360e-02 1.19500e-02 1.09120e-02 9.92310e-03 7.26670e-03 7.28590e-03 6.91150e-03 6.15970e-03 5.32300e-03 4.61460e-03 4.62940e-03 3.74680e-03 3.19160e-03 2.68440e-03 2.22520e-03 1.62030e-03 1.45080e-03 1.13570e-03 8.69130e-04 6.50530e-04 4.77970e-04 3.32430e-04 1.29370e-04 -3.12900e-06 4.62670e-01 3.58310e-01 2.33650e-01 2.11800e-01 2.07540e-01 1.61630e-01 1.88020e-01 1.99360e-01 1.96670e-01 1.93690e-01 1.90320e-01 1.86900e-01 1.83170e-01 1.81650e-01 1.75610e-01 1.71810e-01 1.67920e-01 1.64100e-01 1.60260e-01 1.56480e-01 1.52700e-01 1.47100e-01 1.45300e-01 1.41660e-01 1.38060e-01 1.34510e-01 1.29250e-01 1.27520e-01 1.24090e-01 1.20710e-01 1.17380e-01 1.14080e-01 1.10840e-01 1.07630e-01 1.04480e-01 1.02910e-01 8.32100e-02 8.19120e-02 9.23020e-02 8.93730e-02 8.64900e-02 8.36540e-02 8.22480e-02 7.81220e-02 7.54250e-02 7.27760e-02 7.01730e-02 6.76180e-02 6.51090e-02 6.26480e-02 6.02340e-02 5.66960e-02 5.55480e-02 5.32760e-02 5.10510e-02 4.88740e-02 4.67450e-02 4.46630e-02 4.26290e-02 4.06430e-02 4.10100e-02 4.37070e-02 3.49690e-02 3.31740e-02 3.14260e-02 2.97260e-02 2.72590e-02 2.64690e-02 2.49130e-02 2.34040e-02 2.19430e-02 2.05300e-02 1.91650e-02 1.78480e-02 1.65780e-02 1.53570e-02 1.41210e-02 1.15740e-02 1.19800e-02 1.09500e-02 9.96800e-03 7.32900e-03 7.58740e-03 7.30940e-03 6.51900e-03 5.65430e-03 4.69120e-03 4.43490e-03 3.83560e-03 3.28380e-03 2.77940e-03 2.32200e-03 1.71740e-03 1.54660e-03 1.22740e-03 9.52470e-04 7.20850e-04 5.28490e-04 3.72190e-04 1.75500e-04 4.78790e-05 4.87360e-01 3.30140e-01 1.97820e-01 2.04860e-01 1.95270e-01 1.53860e-01 1.83370e-01 1.95130e-01 1.92620e-01 1.90710e-01 1.87610e-01 1.84680e-01 1.81130e-01 1.79830e-01 1.73910e-01 1.70230e-01 1.66410e-01 1.62660e-01 1.58860e-01 1.55140e-01 1.51410e-01 1.45870e-01 1.44090e-01 1.40500e-01 1.36940e-01 1.33430e-01 1.28240e-01 1.26520e-01 1.23130e-01 1.19790e-01 1.16490e-01 1.13230e-01 1.10020e-01 1.06850e-01 1.03730e-01 1.02180e-01 8.28900e-02 8.16040e-02 9.16790e-02 8.87800e-02 8.59250e-02 8.31160e-02 8.17230e-02 7.76350e-02 7.49630e-02 7.23380e-02 6.97580e-02 6.72250e-02 6.47380e-02 6.22980e-02 5.99040e-02 5.63950e-02 5.52560e-02 5.30020e-02 5.07950e-02 4.86350e-02 4.65220e-02 4.44560e-02 4.24370e-02 4.04650e-02 4.07960e-02 4.34050e-02 3.48320e-02 3.30490e-02 3.13130e-02 2.96250e-02 2.71740e-02 2.63890e-02 2.48430e-02 2.33440e-02 2.18920e-02 2.04880e-02 1.91310e-02 1.78220e-02 1.65600e-02 1.53460e-02 1.36920e-02 1.15740e-02 1.19880e-02 1.09640e-02 9.98760e-03 7.37850e-03 7.62530e-03 7.34380e-03 6.55770e-03 5.69900e-03 4.74390e-03 4.48470e-03 3.88860e-03 3.33960e-03 2.83750e-03 2.38190e-03 1.77880e-03 1.60730e-03 1.28620e-03 1.00630e-03 7.66950e-04 5.60450e-04 3.95380e-04 2.09830e-04 9.16470e-05 5.99140e-01 3.99190e-01 2.45570e-01 2.67850e-01 2.54570e-01 2.54810e-01 2.56160e-01 2.55450e-01 2.51930e-01 2.48720e-01 2.44620e-01 2.40340e-01 2.35810e-01 2.31090e-01 2.26350e-01 2.23730e-01 2.16690e-01 2.11830e-01 2.04560e-01 2.02250e-01 1.97530e-01 1.92830e-01 1.88190e-01 1.83580e-01 1.79040e-01 1.74530e-01 1.67850e-01 1.65670e-01 1.61320e-01 1.57020e-01 1.52770e-01 1.48570e-01 1.44430e-01 1.42370e-01 1.36300e-01 1.32310e-01 1.28380e-01 1.24500e-01 1.20680e-01 1.16910e-01 1.15040e-01 1.09540e-01 1.05940e-01 1.02390e-01 9.89020e-02 9.54710e-02 9.20960e-02 8.87790e-02 8.55190e-02 8.23180e-02 7.76170e-02 7.60900e-02 7.30640e-02 7.00960e-02 6.71880e-02 6.43400e-02 6.15510e-02 6.01710e-02 5.61520e-02 5.35430e-02 5.09940e-02 4.85060e-02 4.60780e-02 4.25440e-02 4.14060e-02 3.91620e-02 3.69790e-02 3.48580e-02 3.27990e-02 3.08010e-02 2.88650e-02 2.69920e-02 2.51800e-02 2.34310e-02 2.17450e-02 2.09170e-02 1.85600e-02 1.70620e-02 1.56270e-02 1.42550e-02 1.23070e-02 1.17000e-02 1.05180e-02 9.39920e-03 8.34390e-03 7.35200e-03 6.42380e-03 5.55900e-03 4.75780e-03 4.37300e-03 3.34520e-03 2.73340e-03 2.18440e-03 1.69760e-03 1.07690e-03 9.11260e-04 6.13520e-04 3.79700e-04 2.18160e-04 9.16030e-05 2.48540e-05 5.65470e-01 4.21570e-01 2.77240e-01 2.75480e-01 2.69300e-01 2.68070e-01 2.63700e-01 2.59480e-01 2.55980e-01 2.51280e-01 2.47030e-01 2.42100e-01 2.37460e-01 2.32470e-01 2.27650e-01 2.24910e-01 2.17830e-01 2.12920e-01 2.05580e-01 2.03270e-01 1.98520e-01 1.93780e-01 1.89110e-01 1.84470e-01 1.79900e-01 1.75360e-01 1.68640e-01 1.66440e-01 1.62070e-01 1.57730e-01 1.53460e-01 1.49230e-01 1.45060e-01 1.42990e-01 1.36880e-01 1.32870e-01 1.28910e-01 1.25010e-01 1.21160e-01 1.17370e-01 1.15490e-01 1.09960e-01 1.06340e-01 1.02770e-01 9.92660e-02 9.58160e-02 9.24230e-02 8.90890e-02 8.58120e-02 8.25940e-02 7.78700e-02 7.63350e-02 7.32940e-02 7.03120e-02 6.73900e-02 6.45270e-02 6.17250e-02 6.03390e-02 5.63010e-02 5.36800e-02 5.11200e-02 4.86210e-02 4.61830e-02 4.26330e-02 4.14900e-02 3.92360e-02 3.70440e-02 3.49140e-02 3.28460e-02 3.08400e-02 2.88970e-02 2.70160e-02 2.51970e-02 2.34410e-02 2.17480e-02 2.09180e-02 1.85510e-02 1.70470e-02 1.56070e-02 1.42300e-02 1.22750e-02 1.16660e-02 1.04790e-02 9.35590e-03 8.29660e-03 7.30110e-03 6.36940e-03 5.50150e-03 4.69740e-03 4.31120e-03 3.28010e-03 2.66670e-03 2.11690e-03 1.63060e-03 1.01330e-03 8.51290e-04 5.61680e-04 3.41980e-04 1.94760e-04 7.35320e-05 7.37400e-06 5.71350e-01 4.53720e-01 3.13680e-01 2.92890e-01 2.86320e-01 2.78670e-01 2.73200e-01 2.66580e-01 2.61230e-01 2.55270e-01 2.50020e-01 2.44480e-01 2.39350e-01 2.34060e-01 2.29030e-01 2.26200e-01 2.18960e-01 2.13970e-01 2.06610e-01 2.03470e-01 1.99440e-01 1.94660e-01 1.89960e-01 1.85290e-01 1.80680e-01 1.76110e-01 1.69340e-01 1.67140e-01 1.62730e-01 1.58370e-01 1.54060e-01 1.49810e-01 1.45610e-01 1.43520e-01 1.37370e-01 1.33330e-01 1.29350e-01 1.25430e-01 1.21560e-01 1.17750e-01 1.14580e-01 1.12030e-01 1.06650e-01 1.03060e-01 9.95370e-02 9.60680e-02 9.26580e-02 8.93060e-02 8.60130e-02 8.27800e-02 7.80330e-02 7.64900e-02 7.34350e-02 7.04400e-02 6.75050e-02 6.46300e-02 6.18150e-02 6.04230e-02 5.63690e-02 5.37380e-02 5.11670e-02 4.86580e-02 4.62110e-02 4.26480e-02 4.15010e-02 3.92390e-02 3.70390e-02 3.49020e-02 3.28270e-02 3.08140e-02 2.88640e-02 2.69770e-02 2.51530e-02 2.33920e-02 2.16940e-02 2.08600e-02 1.84870e-02 1.69790e-02 1.55340e-02 1.41530e-02 1.21930e-02 1.15820e-02 1.03920e-02 9.26600e-03 8.20390e-03 7.20580e-03 6.27170e-03 5.40160e-03 4.59550e-03 4.20860e-03 3.17590e-03 2.56240e-03 2.01380e-03 1.53050e-03 9.22590e-04 7.66350e-04 4.90710e-04 2.91280e-04 1.62300e-04 5.12140e-05 -1.09070e-05 5.99420e-01 4.68940e-01 3.24130e-01 3.04230e-01 2.93120e-01 2.83570e-01 2.78170e-01 2.70700e-01 2.64080e-01 2.57380e-01 2.51440e-01 2.45440e-01 2.39980e-01 2.34450e-01 2.29270e-01 2.26350e-01 2.19020e-01 2.13990e-01 2.09090e-01 2.01840e-01 1.98560e-01 1.94610e-01 1.89900e-01 1.85220e-01 1.80610e-01 1.73780e-01 1.70770e-01 1.67050e-01 1.62640e-01 1.58270e-01 1.53960e-01 1.49710e-01 1.45500e-01 1.42030e-01 1.39280e-01 1.33220e-01 1.29240e-01 1.25310e-01 1.21440e-01 1.17630e-01 1.13870e-01 1.12000e-01 1.06520e-01 1.02940e-01 9.94120e-02 9.59430e-02 9.25330e-02 8.91810e-02 8.58880e-02 8.26550e-02 7.79090e-02 7.63670e-02 7.33120e-02 7.03180e-02 6.73840e-02 6.45100e-02 6.16970e-02 6.03050e-02 5.62530e-02 5.36230e-02 5.10540e-02 4.85470e-02 4.61010e-02 4.25740e-02 4.10240e-02 3.91350e-02 3.69370e-02 3.48010e-02 3.27280e-02 3.07170e-02 2.87690e-02 2.68840e-02 2.50620e-02 1.98270e-02 1.90960e-02 1.83640e-02 1.84030e-02 1.68970e-02 1.54540e-02 1.40740e-02 1.21170e-02 1.15060e-02 1.03180e-02 9.19340e-03 8.13270e-03 7.13590e-03 6.20310e-03 5.33430e-03 4.52970e-03 4.14350e-03 3.11370e-03 2.50280e-03 1.95740e-03 1.47840e-03 8.79510e-04 7.27060e-04 4.60220e-04 2.69700e-04 1.47420e-04 4.30710e-05 -1.51090e-05 5.99350e-01 4.77220e-01 3.31300e-01 3.08090e-01 2.98190e-01 2.91120e-01 2.79690e-01 2.72870e-01 2.66130e-01 2.58630e-01 2.52500e-01 2.46080e-01 2.40470e-01 2.34750e-01 2.29480e-01 2.26460e-01 2.19100e-01 2.14020e-01 2.09110e-01 2.04190e-01 1.96930e-01 1.93830e-01 1.89880e-01 1.85200e-01 1.80590e-01 1.73760e-01 1.71490e-01 1.67020e-01 1.62610e-01 1.58240e-01 1.53930e-01 1.49670e-01 1.45460e-01 1.41310e-01 1.37890e-01 1.35150e-01 1.29190e-01 1.25260e-01 1.21390e-01 1.17570e-01 1.13810e-01 1.10720e-01 1.08250e-01 1.02880e-01 9.93550e-02 9.58860e-02 9.24750e-02 8.91230e-02 8.58300e-02 8.09700e-02 7.88900e-02 7.63080e-02 7.32540e-02 7.02600e-02 6.73260e-02 6.44520e-02 6.16400e-02 5.93340e-02 5.75050e-02 5.35670e-02 5.09990e-02 4.84920e-02 4.60470e-02 4.36630e-02 4.01970e-02 3.90830e-02 3.68850e-02 3.47500e-02 3.26780e-02 3.06680e-02 2.87210e-02 2.58930e-02 2.49980e-02 2.25570e-02 2.07280e-02 1.99300e-02 1.83590e-02 1.68530e-02 1.54110e-02 1.40320e-02 1.20760e-02 1.14660e-02 1.02780e-02 9.15390e-03 8.09380e-03 7.09760e-03 6.16540e-03 5.29730e-03 4.49350e-03 4.10770e-03 3.06860e-03 2.74780e-03 1.92690e-03 1.22100e-03 1.03520e-03 6.99790e-04 5.50100e-04 2.57190e-04 1.38500e-04 3.68900e-05 -2.01570e-05 6.10750e-01 4.80060e-01 3.32790e-01 3.10410e-01 2.98750e-01 2.90310e-01 2.76710e-01 2.73080e-01 2.66530e-01 2.59230e-01 2.52730e-01 2.46360e-01 2.40580e-01 2.34860e-01 2.30510e-01 2.26540e-01 2.19100e-01 2.14020e-01 2.09100e-01 2.04180e-01 1.99370e-01 1.92260e-01 1.89860e-01 1.85180e-01 1.80560e-01 1.73740e-01 1.71470e-01 1.67000e-01 1.62580e-01 1.58210e-01 1.53900e-01 1.49640e-01 1.45440e-01 1.41290e-01 1.37190e-01 1.35150e-01 1.29160e-01 1.25240e-01 1.21360e-01 1.17550e-01 1.13790e-01 1.10090e-01 1.08250e-01 1.02860e-01 9.93300e-02 9.58600e-02 9.24500e-02 8.90980e-02 8.58050e-02 8.09700e-02 7.93980e-02 7.62840e-02 7.32300e-02 7.02360e-02 6.73020e-02 6.44290e-02 6.16170e-02 5.88650e-02 5.66180e-02 5.48450e-02 5.09780e-02 4.84710e-02 4.60260e-02 4.36430e-02 4.01770e-02 4.23850e-02 4.11750e-02 3.99640e-02 3.26600e-02 2.96610e-02 2.87030e-02 2.65100e-02 2.49980e-02 2.32400e-02 2.15440e-02 2.01790e-02 1.91120e-02 1.68380e-02 1.53960e-02 1.40180e-02 1.20620e-02 1.14520e-02 1.02640e-02 9.14060e-03 8.08080e-03 7.08480e-03 6.15290e-03 5.28510e-03 4.48160e-03 4.09600e-03 3.06860e-03 2.55580e-03 1.66260e-03 1.36820e-03 1.03520e-03 6.99790e-04 4.75670e-04 3.26800e-04 1.35400e-04 3.46050e-05 -2.18030e-05 5.99350e-01 4.77220e-01 3.31300e-01 3.08090e-01 2.98190e-01 2.88570e-01 2.35420e-01 2.71270e-01 2.64090e-01 2.58630e-01 2.52500e-01 2.46080e-01 2.40470e-01 2.35500e-01 2.32500e-01 2.24160e-01 2.19100e-01 2.14020e-01 2.09110e-01 2.04190e-01 1.99390e-01 1.92280e-01 1.89880e-01 1.85200e-01 1.80590e-01 1.73740e-01 1.70730e-01 1.67020e-01 1.62610e-01 1.58240e-01 1.53930e-01 1.49670e-01 1.45460e-01 1.41310e-01 1.37220e-01 1.35180e-01 1.29190e-01 1.25260e-01 1.21390e-01 1.17570e-01 1.13810e-01 1.10110e-01 1.08280e-01 1.02880e-01 9.93550e-02 9.58860e-02 9.24750e-02 8.91230e-02 8.58300e-02 8.09950e-02 7.94230e-02 7.63080e-02 7.32540e-02 7.02600e-02 6.73260e-02 6.44520e-02 6.16400e-02 5.88880e-02 5.61970e-02 5.40080e-02 5.22890e-02 4.84920e-02 4.60470e-02 4.36630e-02 4.01770e-02 4.24070e-02 3.92840e-02 3.58080e-02 3.26960e-02 3.03440e-02 2.87210e-02 2.68360e-02 2.50150e-02 2.32560e-02 2.15610e-02 1.99280e-02 1.92230e-02 1.96050e-02 1.54110e-02 1.40320e-02 1.20760e-02 1.14660e-02 1.02780e-02 9.15390e-03 8.09380e-03 7.09760e-03 6.16540e-03 5.29730e-03 4.61820e-03 4.09600e-03 3.07960e-03 2.47030e-03 1.67180e-03 1.45060e-03 1.04290e-03 7.06270e-04 4.43660e-04 2.82990e-04 1.41600e-04 3.91750e-05 -1.85110e-05 5.99420e-01 4.68940e-01 3.24130e-01 3.04230e-01 2.93120e-01 2.85580e-01 2.36650e-01 2.57980e-01 2.59220e-01 2.58040e-01 2.52270e-01 2.45810e-01 2.40360e-01 2.36780e-01 2.29270e-01 2.24040e-01 2.19020e-01 2.13990e-01 2.09090e-01 2.04190e-01 1.99390e-01 1.92290e-01 1.89900e-01 1.85220e-01 1.80610e-01 1.76040e-01 1.69260e-01 1.67050e-01 1.62640e-01 1.58270e-01 1.53960e-01 1.49710e-01 1.45500e-01 1.41350e-01 1.37260e-01 1.35230e-01 1.29240e-01 1.25310e-01 1.21440e-01 1.17630e-01 1.13870e-01 1.10170e-01 1.08330e-01 1.02940e-01 9.94120e-02 9.59430e-02 9.25330e-02 8.91810e-02 8.58880e-02 8.10190e-02 7.89460e-02 7.63670e-02 7.33120e-02 7.03180e-02 6.73840e-02 6.45100e-02 6.16970e-02 5.89450e-02 5.62530e-02 5.36230e-02 5.14890e-02 4.98190e-02 4.64920e-02 4.36840e-02 4.25070e-02 4.24280e-02 3.71680e-02 3.48010e-02 3.27280e-02 3.07170e-02 2.87690e-02 2.68840e-02 2.50620e-02 2.33020e-02 2.16060e-02 1.99730e-02 1.93290e-02 1.96420e-02 1.54540e-02 1.40740e-02 1.20890e-02 1.12940e-02 1.03180e-02 9.19340e-03 8.13270e-03 7.13590e-03 6.20310e-03 5.46560e-03 4.89140e-03 3.78940e-03 3.11370e-03 2.50280e-03 1.70120e-03 1.47840e-03 1.06760e-03 7.27060e-04 4.60220e-04 2.69700e-04 1.47420e-04 4.30720e-05 -1.51080e-05 5.71350e-01 4.53720e-01 3.13680e-01 2.92890e-01 2.86320e-01 2.78390e-01 2.32120e-01 2.54340e-01 2.61230e-01 2.55270e-01 2.50020e-01 2.44480e-01 2.39350e-01 2.36260e-01 2.29030e-01 2.23910e-01 2.18960e-01 2.13970e-01 2.09100e-01 2.04230e-01 1.99440e-01 1.92350e-01 1.89960e-01 1.85290e-01 1.80680e-01 1.76110e-01 1.69340e-01 1.67140e-01 1.62730e-01 1.58370e-01 1.54060e-01 1.49810e-01 1.45610e-01 1.41460e-01 1.37370e-01 1.35340e-01 1.29350e-01 1.25430e-01 1.21560e-01 1.17750e-01 1.13990e-01 1.10290e-01 1.08450e-01 1.03060e-01 9.95370e-02 9.60680e-02 9.26580e-02 8.93060e-02 8.60130e-02 8.27800e-02 7.79430e-02 7.59460e-02 7.34350e-02 7.04400e-02 6.75050e-02 6.46300e-02 6.18150e-02 5.90620e-02 5.63690e-02 5.37380e-02 5.11670e-02 4.98970e-02 4.73420e-02 4.38250e-02 4.15010e-02 3.92390e-02 3.59550e-02 3.49020e-02 3.28270e-02 3.08140e-02 2.88640e-02 2.69770e-02 2.51530e-02 2.33920e-02 2.16940e-02 2.00590e-02 1.93420e-02 1.96790e-02 1.55340e-02 1.41530e-02 1.28360e-02 1.09230e-02 8.81020e-03 8.33150e-03 7.40230e-03 6.95170e-03 6.40770e-03 5.77770e-03 4.59550e-03 3.85360e-03 3.17580e-03 2.56240e-03 1.75570e-03 1.53050e-03 1.11390e-03 7.66350e-04 4.90700e-04 2.91280e-04 1.62290e-04 5.12130e-05 -1.09060e-05 5.65470e-01 4.21570e-01 2.77240e-01 2.75480e-01 2.69300e-01 2.66260e-01 2.22440e-01 2.47230e-01 2.55980e-01 2.51280e-01 2.47030e-01 2.42100e-01 2.37460e-01 2.34540e-01 2.27650e-01 2.22680e-01 2.17830e-01 2.12920e-01 2.08100e-01 2.03270e-01 1.98520e-01 1.91470e-01 1.89110e-01 1.84470e-01 1.79900e-01 1.75360e-01 1.68640e-01 1.66440e-01 1.62070e-01 1.57730e-01 1.53460e-01 1.49230e-01 1.45060e-01 1.40940e-01 1.36880e-01 1.34860e-01 1.28910e-01 1.25010e-01 1.21160e-01 1.17370e-01 1.13640e-01 1.09960e-01 1.08140e-01 1.02770e-01 9.92660e-02 9.58160e-02 9.24230e-02 8.90890e-02 8.58120e-02 8.25940e-02 7.94350e-02 7.47990e-02 7.32940e-02 7.03120e-02 6.73900e-02 6.45270e-02 6.17250e-02 5.89830e-02 5.63010e-02 5.36800e-02 5.11200e-02 4.98550e-02 4.61830e-02 4.38060e-02 4.14900e-02 3.92360e-02 3.59640e-02 3.49140e-02 3.28460e-02 3.08400e-02 2.88970e-02 2.70160e-02 2.51970e-02 2.34410e-02 2.17480e-02 2.01180e-02 1.93190e-02 1.70470e-02 1.56070e-02 1.42300e-02 1.29160e-02 1.16660e-02 8.82390e-03 8.34930e-03 7.42790e-03 6.98110e-03 6.76660e-03 5.50150e-03 4.69740e-03 3.95690e-03 3.28010e-03 2.66670e-03 1.85780e-03 1.63060e-03 1.20830e-03 8.51290e-04 5.61680e-04 3.41980e-04 1.94760e-04 7.35370e-05 7.38450e-06 5.99140e-01 3.99190e-01 2.45570e-01 2.67850e-01 2.54570e-01 2.60070e-01 2.18520e-01 2.41770e-01 2.51930e-01 2.48720e-01 2.44620e-01 2.40340e-01 2.35810e-01 2.33220e-01 2.26350e-01 2.21490e-01 2.16690e-01 2.11830e-01 2.07050e-01 2.02250e-01 1.97530e-01 1.90540e-01 1.88190e-01 1.83580e-01 1.79040e-01 1.74530e-01 1.67850e-01 1.65670e-01 1.61320e-01 1.57020e-01 1.52770e-01 1.48570e-01 1.44430e-01 1.40340e-01 1.36300e-01 1.34290e-01 1.28380e-01 1.24500e-01 1.20680e-01 1.16910e-01 1.13200e-01 1.09540e-01 1.07720e-01 1.02390e-01 9.89020e-02 9.54710e-02 9.20960e-02 8.87790e-02 8.55190e-02 8.23180e-02 7.91750e-02 7.45620e-02 7.30640e-02 7.00960e-02 6.71880e-02 6.43400e-02 6.15510e-02 5.88210e-02 5.61520e-02 5.35430e-02 5.09940e-02 4.97350e-02 4.60780e-02 4.37120e-02 4.14060e-02 3.91620e-02 3.59030e-02 3.48580e-02 3.27990e-02 3.08010e-02 2.88650e-02 2.69920e-02 2.51800e-02 2.34310e-02 2.17450e-02 2.01210e-02 1.93250e-02 1.70620e-02 1.56270e-02 1.42550e-02 1.29460e-02 1.17000e-02 8.83760e-03 8.36710e-03 7.45350e-03 7.01060e-03 6.42380e-03 5.55900e-03 4.75780e-03 4.01990e-03 3.34520e-03 2.73340e-03 1.92550e-03 1.69760e-03 1.27330e-03 9.11260e-04 6.13520e-04 3.79700e-04 2.18160e-04 9.16160e-05 2.48750e-05 6.70450e-01 4.22670e-01 2.64430e-01 3.04980e-01 2.84330e-01 2.78540e-01 2.87530e-01 2.88490e-01 2.82580e-01 2.79700e-01 2.74110e-01 2.69690e-01 2.64130e-01 2.59090e-01 2.53550e-01 2.51320e-01 2.42800e-01 2.37490e-01 2.29580e-01 2.26830e-01 2.21530e-01 2.16330e-01 2.11150e-01 2.06040e-01 2.00960e-01 1.95950e-01 1.88530e-01 1.86080e-01 1.81220e-01 1.76420e-01 1.71680e-01 1.66990e-01 1.62360e-01 1.60070e-01 1.53270e-01 1.48820e-01 1.44420e-01 1.40080e-01 1.35800e-01 1.31580e-01 1.29480e-01 1.23320e-01 1.19280e-01 1.15300e-01 1.11390e-01 1.07540e-01 1.03750e-01 1.00020e-01 9.63610e-02 9.27620e-02 8.74770e-02 8.57580e-02 8.23530e-02 7.90140e-02 7.57390e-02 7.25310e-02 6.93880e-02 6.78340e-02 6.33030e-02 6.03600e-02 5.74850e-02 5.46770e-02 5.19370e-02 4.79460e-02 4.66610e-02 4.41260e-02 4.16590e-02 3.92610e-02 3.69320e-02 3.46730e-02 3.24830e-02 3.03630e-02 2.83130e-02 2.63330e-02 2.44240e-02 2.34860e-02 2.08160e-02 1.91190e-02 1.74930e-02 1.59370e-02 1.37290e-02 1.30410e-02 1.17000e-02 1.04310e-02 9.23420e-03 8.10890e-03 7.05560e-03 6.07430e-03 5.16490e-03 4.72820e-03 3.56170e-03 2.86750e-03 2.24490e-03 1.69390e-03 9.94160e-04 8.10860e-04 4.84430e-04 2.42470e-04 9.50440e-05 2.62540e-05 6.06330e-06 6.36610e-01 4.38010e-01 2.89780e-01 3.13710e-01 2.98550e-01 2.92410e-01 2.94320e-01 2.91360e-01 2.85660e-01 2.81070e-01 2.75480e-01 2.70330e-01 2.64760e-01 2.59420e-01 2.53880e-01 2.51450e-01 2.43020e-01 2.37660e-01 2.29710e-01 2.26980e-01 2.21680e-01 2.16470e-01 2.11280e-01 2.06160e-01 2.01070e-01 1.96060e-01 1.88620e-01 1.86170e-01 1.81300e-01 1.76500e-01 1.71740e-01 1.67050e-01 1.62410e-01 1.60110e-01 1.53310e-01 1.48840e-01 1.44440e-01 1.40090e-01 1.35810e-01 1.31580e-01 1.29480e-01 1.23310e-01 1.19270e-01 1.15290e-01 1.11370e-01 1.07510e-01 1.03720e-01 9.99920e-02 9.63270e-02 9.27250e-02 8.74350e-02 8.57150e-02 8.23080e-02 7.89660e-02 7.56890e-02 7.24790e-02 6.93340e-02 6.77790e-02 6.32460e-02 6.03020e-02 5.74250e-02 5.46160e-02 5.18750e-02 4.78820e-02 4.65970e-02 4.40600e-02 4.15930e-02 3.91940e-02 3.68650e-02 3.46050e-02 3.24150e-02 3.02950e-02 2.82450e-02 2.62640e-02 2.43550e-02 2.34180e-02 2.07470e-02 1.90500e-02 1.74230e-02 1.58680e-02 1.36600e-02 1.29720e-02 1.16310e-02 1.03620e-02 9.16530e-03 8.04000e-03 6.98670e-03 6.00550e-03 5.09620e-03 4.65950e-03 3.49340e-03 2.79990e-03 2.17860e-03 1.62990e-03 9.36020e-04 7.56630e-04 4.39230e-04 2.10990e-04 7.91510e-05 2.34170e-05 9.30820e-06 6.50730e-01 4.63640e-01 3.14840e-01 3.29810e-01 3.14410e-01 3.01950e-01 3.02630e-01 2.97030e-01 2.89460e-01 2.83560e-01 2.76980e-01 2.71240e-01 2.65190e-01 2.59600e-01 2.53860e-01 2.51430e-01 2.42840e-01 2.37450e-01 2.29840e-01 2.25940e-01 2.21440e-01 2.16230e-01 2.11030e-01 2.05920e-01 2.00830e-01 1.95810e-01 1.88380e-01 1.85920e-01 1.81060e-01 1.76250e-01 1.71500e-01 1.66800e-01 1.62160e-01 1.59860e-01 1.53060e-01 1.48600e-01 1.44190e-01 1.39850e-01 1.35560e-01 1.31340e-01 1.27780e-01 1.24870e-01 1.19030e-01 1.15050e-01 1.11130e-01 1.07280e-01 1.03490e-01 9.97640e-02 9.61010e-02 9.25020e-02 8.72160e-02 8.54980e-02 8.20930e-02 7.87540e-02 7.54800e-02 7.22730e-02 6.91320e-02 6.75780e-02 6.30500e-02 6.01090e-02 5.72360e-02 5.44300e-02 5.16920e-02 4.77050e-02 4.64210e-02 4.38880e-02 4.14240e-02 3.90290e-02 3.67030e-02 3.44470e-02 3.22600e-02 3.01430e-02 2.80950e-02 2.61190e-02 2.42120e-02 2.32760e-02 2.06100e-02 1.89160e-02 1.72920e-02 1.57400e-02 1.35360e-02 1.28490e-02 1.15100e-02 1.02430e-02 9.04840e-03 7.92510e-03 6.87370e-03 5.89430e-03 4.98680e-03 4.55110e-03 3.38830e-03 2.69780e-03 2.08030e-03 1.53710e-03 8.55520e-04 6.82540e-04 3.79790e-04 1.71030e-04 5.94800e-05 2.13670e-05 1.58200e-05 6.90780e-01 4.80350e-01 3.19700e-01 3.38540e-01 3.20200e-01 3.05340e-01 3.07110e-01 3.00870e-01 2.91750e-01 2.85200e-01 2.77790e-01 2.71650e-01 2.65200e-01 2.59420e-01 2.53490e-01 2.51070e-01 2.42320e-01 2.36920e-01 2.31480e-01 2.23560e-01 2.20090e-01 2.15690e-01 2.10500e-01 2.05400e-01 2.00320e-01 1.92660e-01 1.89490e-01 1.85450e-01 1.80590e-01 1.75800e-01 1.71060e-01 1.66370e-01 1.61740e-01 1.57890e-01 1.54780e-01 1.48210e-01 1.43810e-01 1.39470e-01 1.35200e-01 1.30980e-01 1.26830e-01 1.24770e-01 1.18700e-01 1.14730e-01 1.10820e-01 1.06980e-01 1.03200e-01 9.94770e-02 9.58220e-02 9.22310e-02 8.69570e-02 8.52420e-02 8.18450e-02 7.85140e-02 7.52480e-02 7.20470e-02 6.89130e-02 6.73630e-02 6.28450e-02 5.99110e-02 5.70440e-02 5.42450e-02 5.15130e-02 4.75910e-02 4.58460e-02 4.37270e-02 4.12690e-02 3.88800e-02 3.65590e-02 3.43080e-02 3.21260e-02 3.00140e-02 2.79720e-02 2.60000e-02 2.40980e-02 2.31640e-02 2.05050e-02 1.88140e-02 1.71950e-02 1.56460e-02 1.34470e-02 1.27620e-02 1.14270e-02 1.01630e-02 8.97090e-03 7.85040e-03 6.80170e-03 5.82480e-03 4.92000e-03 4.48560e-03 3.32740e-03 2.64040e-03 2.02720e-03 1.48940e-03 8.18010e-04 6.49100e-04 3.55060e-04 1.55100e-04 5.11010e-05 1.92800e-05 1.66200e-05 6.97300e-01 4.90410e-01 3.25660e-01 3.42040e-01 3.24790e-01 3.13080e-01 3.11080e-01 3.03050e-01 2.93720e-01 2.86310e-01 2.78660e-01 2.72060e-01 2.65450e-01 2.59450e-01 2.53450e-01 2.50910e-01 2.42140e-01 2.36700e-01 2.31260e-01 2.25950e-01 2.18170e-01 2.14590e-01 2.10270e-01 2.05170e-01 2.00100e-01 1.92590e-01 1.90140e-01 1.85250e-01 1.80400e-01 1.75610e-01 1.70870e-01 1.66190e-01 1.61560e-01 1.57000e-01 1.53220e-01 1.50200e-01 1.43650e-01 1.39310e-01 1.35040e-01 1.30830e-01 1.26680e-01 1.23250e-01 1.20520e-01 1.14590e-01 1.10690e-01 1.06850e-01 1.03070e-01 9.93520e-02 9.57000e-02 9.03000e-02 8.79950e-02 8.51300e-02 8.17360e-02 7.84070e-02 7.51440e-02 7.19460e-02 6.88150e-02 6.62460e-02 6.42070e-02 5.98210e-02 5.69570e-02 5.41600e-02 5.14310e-02 4.87700e-02 4.48970e-02 4.36520e-02 4.11960e-02 3.88090e-02 3.64900e-02 3.42410e-02 3.20620e-02 2.88960e-02 2.78930e-02 2.59230e-02 2.40230e-02 2.30910e-02 2.04510e-02 1.87620e-02 1.71440e-02 1.55970e-02 1.34000e-02 1.27150e-02 1.13810e-02 1.01190e-02 8.92800e-03 7.80870e-03 6.76110e-03 5.78540e-03 4.88170e-03 4.44800e-03 3.28110e-03 2.92040e-03 1.99660e-03 1.20570e-03 9.97570e-04 6.23280e-04 4.57160e-04 1.43990e-04 4.35560e-05 1.37420e-05 1.15630e-05 7.11720e-01 4.94040e-01 3.26460e-01 3.44180e-01 3.25230e-01 3.23940e-01 3.13100e-01 3.01210e-01 2.94100e-01 2.86910e-01 2.78840e-01 2.72310e-01 2.65500e-01 2.59520e-01 2.54240e-01 2.50980e-01 2.42080e-01 2.36650e-01 2.31180e-01 2.25880e-01 2.20580e-01 2.12710e-01 2.10200e-01 2.05110e-01 2.00040e-01 1.92520e-01 1.90080e-01 1.85190e-01 1.80340e-01 1.75550e-01 1.70810e-01 1.66130e-01 1.61510e-01 1.56940e-01 1.52440e-01 1.50200e-01 1.43600e-01 1.39270e-01 1.35000e-01 1.30780e-01 1.26630e-01 1.22550e-01 1.20520e-01 1.14550e-01 1.10650e-01 1.06810e-01 1.03030e-01 9.93160e-02 9.56650e-02 9.03000e-02 8.85550e-02 8.50970e-02 8.17040e-02 7.83760e-02 7.51140e-02 7.19170e-02 6.87870e-02 6.57230e-02 6.32190e-02 6.12430e-02 5.69310e-02 5.41350e-02 5.14070e-02 4.87460e-02 4.48750e-02 4.23850e-02 4.11750e-02 3.99640e-02 3.64700e-02 3.31150e-02 3.20430e-02 2.95870e-02 2.78930e-02 2.59230e-02 2.40230e-02 2.24930e-02 2.12970e-02 1.87460e-02 1.71290e-02 1.55820e-02 1.33860e-02 1.27010e-02 1.13680e-02 1.01050e-02 8.91470e-03 7.79560e-03 6.74830e-03 5.77300e-03 4.86970e-03 4.43620e-03 3.28110e-03 2.70470e-03 1.70090e-03 1.37080e-03 9.97570e-04 6.23280e-04 3.75640e-04 2.12600e-04 4.06130e-05 1.10780e-05 8.97340e-06 6.97300e-01 4.90410e-01 3.25660e-01 3.42040e-01 3.24790e-01 3.22220e-01 3.10620e-01 2.95270e-01 2.92710e-01 2.86310e-01 2.78660e-01 2.72060e-01 2.65450e-01 2.60560e-01 2.55860e-01 2.47800e-01 2.42140e-01 2.36700e-01 2.31260e-01 2.25950e-01 2.20650e-01 2.12790e-01 2.10270e-01 2.05170e-01 2.00100e-01 1.92520e-01 1.89310e-01 1.85250e-01 1.80400e-01 1.75610e-01 1.70870e-01 1.66190e-01 1.61560e-01 1.57000e-01 1.52490e-01 1.50250e-01 1.43650e-01 1.39310e-01 1.35040e-01 1.30830e-01 1.26680e-01 1.22590e-01 1.20560e-01 1.14590e-01 1.10690e-01 1.06850e-01 1.03070e-01 9.93520e-02 9.57000e-02 9.03340e-02 8.85880e-02 8.51300e-02 8.17360e-02 7.84070e-02 7.51440e-02 7.19460e-02 6.88150e-02 6.57500e-02 6.27520e-02 6.03120e-02 5.83970e-02 5.41600e-02 5.14310e-02 4.87700e-02 4.48750e-02 4.24070e-02 4.11960e-02 3.92080e-02 3.65110e-02 3.38790e-02 3.20620e-02 2.99520e-02 2.79110e-02 2.59410e-02 2.40410e-02 2.22110e-02 2.07440e-02 1.96050e-02 1.71440e-02 1.55970e-02 1.34000e-02 1.27150e-02 1.13810e-02 1.01190e-02 8.92800e-03 7.80870e-03 6.76110e-03 5.78540e-03 5.02240e-03 4.43620e-03 3.29220e-03 2.60720e-03 1.71000e-03 1.46190e-03 1.00490e-03 6.29400e-04 3.39720e-04 1.69300e-04 4.64980e-05 1.64060e-05 1.41530e-05 6.90780e-01 4.80350e-01 3.19700e-01 3.38540e-01 3.20200e-01 3.19070e-01 3.07110e-01 2.92870e-01 2.89930e-01 2.85720e-01 2.78480e-01 2.71810e-01 2.65410e-01 2.62650e-01 2.53490e-01 2.47940e-01 2.42320e-01 2.36920e-01 2.31480e-01 2.26180e-01 2.20890e-01 2.13020e-01 2.10500e-01 2.05400e-01 2.00320e-01 1.95320e-01 1.87910e-01 1.85450e-01 1.80590e-01 1.75800e-01 1.71060e-01 1.66370e-01 1.61740e-01 1.57170e-01 1.52660e-01 1.50420e-01 1.43810e-01 1.39470e-01 1.35200e-01 1.30980e-01 1.26830e-01 1.22730e-01 1.20700e-01 1.14730e-01 1.10820e-01 1.06980e-01 1.03200e-01 9.94770e-02 9.58220e-02 9.03680e-02 8.80940e-02 8.52420e-02 8.18450e-02 7.85140e-02 7.52480e-02 7.20470e-02 6.89130e-02 6.58460e-02 6.28450e-02 5.99110e-02 5.75370e-02 5.56890e-02 5.19440e-02 4.87930e-02 4.74790e-02 4.24280e-02 4.08480e-02 3.88800e-02 3.65590e-02 3.43080e-02 3.21260e-02 3.00140e-02 2.79720e-02 2.60000e-02 2.40980e-02 2.22660e-02 2.05050e-02 1.96420e-02 1.71950e-02 1.56460e-02 1.34150e-02 1.25220e-02 1.14270e-02 1.01630e-02 8.97090e-03 7.85040e-03 6.80170e-03 5.97280e-03 5.32770e-03 4.08740e-03 3.32730e-03 2.64040e-03 1.73920e-03 1.48940e-03 1.02880e-03 6.49100e-04 3.55060e-04 1.55100e-04 5.11010e-05 1.92810e-05 1.66220e-05 6.50730e-01 4.63640e-01 3.14840e-01 3.29810e-01 3.14410e-01 3.12130e-01 3.02630e-01 2.90750e-01 2.89460e-01 2.83560e-01 2.76980e-01 2.71240e-01 2.65190e-01 2.62910e-01 2.53860e-01 2.48390e-01 2.42840e-01 2.37450e-01 2.32040e-01 2.26740e-01 2.21440e-01 2.13560e-01 2.11030e-01 2.05920e-01 2.00830e-01 1.95810e-01 1.88380e-01 1.85920e-01 1.81060e-01 1.76250e-01 1.71500e-01 1.66800e-01 1.62160e-01 1.57580e-01 1.53060e-01 1.50820e-01 1.44190e-01 1.39850e-01 1.35560e-01 1.31340e-01 1.27170e-01 1.23070e-01 1.21030e-01 1.15050e-01 1.11130e-01 1.07280e-01 1.03490e-01 9.97640e-02 9.61010e-02 9.25020e-02 8.70390e-02 8.48660e-02 8.20930e-02 7.87540e-02 7.54800e-02 7.22730e-02 6.91320e-02 6.60570e-02 6.30500e-02 6.01090e-02 5.72360e-02 5.58160e-02 5.29220e-02 4.90220e-02 4.64210e-02 4.38880e-02 4.02090e-02 3.90290e-02 3.67030e-02 3.44470e-02 3.22600e-02 3.01430e-02 2.80950e-02 2.61190e-02 2.42120e-02 2.23760e-02 2.08770e-02 1.96790e-02 1.72920e-02 1.57400e-02 1.42580e-02 1.21080e-02 1.12750e-02 1.02430e-02 9.04840e-03 7.92510e-03 7.02860e-03 6.32280e-03 4.98680e-03 4.15140e-03 3.38830e-03 2.69780e-03 1.78980e-03 1.53710e-03 1.06990e-03 6.82540e-04 3.79790e-04 1.71030e-04 5.94800e-05 2.13680e-05 1.58240e-05 6.36610e-01 4.38010e-01 2.89780e-01 3.13710e-01 2.98550e-01 3.01120e-01 2.94320e-01 2.86480e-01 2.85660e-01 2.81070e-01 2.75480e-01 2.70330e-01 2.64760e-01 2.62530e-01 2.53880e-01 2.48500e-01 2.43020e-01 2.37660e-01 2.32270e-01 2.26980e-01 2.21680e-01 2.13810e-01 2.11280e-01 2.06160e-01 2.01070e-01 1.96060e-01 1.88620e-01 1.86170e-01 1.81300e-01 1.76500e-01 1.71740e-01 1.67050e-01 1.62410e-01 1.57830e-01 1.53310e-01 1.51060e-01 1.44440e-01 1.40090e-01 1.35810e-01 1.31580e-01 1.27420e-01 1.23310e-01 1.21270e-01 1.15290e-01 1.11370e-01 1.07510e-01 1.03720e-01 9.99920e-02 9.63270e-02 9.27250e-02 8.91880e-02 8.39950e-02 8.23080e-02 7.89660e-02 7.56890e-02 7.24790e-02 6.93340e-02 6.62570e-02 6.32460e-02 6.03020e-02 5.74250e-02 5.60040e-02 5.18750e-02 4.92020e-02 4.65970e-02 4.40600e-02 4.03760e-02 3.91940e-02 3.68650e-02 3.46050e-02 3.24150e-02 3.02950e-02 2.82450e-02 2.62640e-02 2.43550e-02 2.25160e-02 2.16140e-02 1.90500e-02 1.74230e-02 1.58680e-02 1.43840e-02 1.29720e-02 1.09100e-02 1.01340e-02 9.16530e-03 8.19860e-03 7.42650e-03 6.00550e-03 5.09620e-03 4.25880e-03 3.49340e-03 2.79990e-03 1.88590e-03 1.62990e-03 1.15490e-03 7.56630e-04 4.39230e-04 2.10990e-04 7.91550e-05 2.34280e-05 9.32610e-06 6.70450e-01 4.22670e-01 2.64430e-01 3.04980e-01 2.84330e-01 2.95610e-01 2.87530e-01 2.80470e-01 2.82580e-01 2.79700e-01 2.74110e-01 2.69690e-01 2.64130e-01 2.62400e-01 2.53550e-01 2.48280e-01 2.42800e-01 2.37490e-01 2.32100e-01 2.26830e-01 2.21530e-01 2.13670e-01 2.11150e-01 2.06040e-01 2.00960e-01 1.95950e-01 1.88530e-01 1.86080e-01 1.81220e-01 1.76420e-01 1.71680e-01 1.66990e-01 1.62360e-01 1.57790e-01 1.53270e-01 1.51030e-01 1.44420e-01 1.40080e-01 1.35800e-01 1.31580e-01 1.27420e-01 1.23320e-01 1.21280e-01 1.15300e-01 1.11390e-01 1.07540e-01 1.03750e-01 1.00020e-01 9.63610e-02 9.27620e-02 8.92280e-02 8.40400e-02 8.23530e-02 7.90140e-02 7.57390e-02 7.25310e-02 6.93880e-02 6.63120e-02 6.33030e-02 6.03600e-02 5.74850e-02 5.60640e-02 5.19370e-02 4.92650e-02 4.66610e-02 4.41260e-02 4.04430e-02 3.92610e-02 3.69320e-02 3.46730e-02 3.24830e-02 3.03630e-02 2.83130e-02 2.63330e-02 2.44240e-02 2.25850e-02 2.16830e-02 1.91190e-02 1.74930e-02 1.59370e-02 1.44540e-02 1.30410e-02 1.17000e-02 9.81480e-03 9.23420e-03 8.65360e-03 7.05560e-03 6.07430e-03 5.16490e-03 4.32740e-03 3.56170e-03 2.86750e-03 1.95140e-03 1.69390e-03 1.21530e-03 8.10860e-04 4.84430e-04 2.42480e-04 9.50540e-05 2.62750e-05 6.09490e-06 </DataArray>
</PointData>
</Piece>
</UnstructuredGrid> </VTKFile>
